*Heading
 E:\Kn_bazis\Сетки\2Dval.inp
*NODE
1, 0, 0, 0
2, 80, 40, 0
3, 80, 0, 0
4, 30, 40, 0
5, 30, 200, 0
6, 0, 200, 0
7, 0, 195.00000000004, 0
8, 0, 190.00000000007, 0
9, 0, 185.00000000011, 0
10, 0, 180.00000000014, 0
11, 0, 175.00000000018, 0
12, 0, 170.00000000021, 0
13, 0, 165.00000000025, 0
14, 0, 160.00000000028, 0
15, 0, 155.00000000032, 0
16, 0, 150.00000000036, 0
17, 0, 145.00000000039, 0
18, 0, 140.00000000043, 0
19, 0, 135.00000000046, 0
20, 0, 130.0000000005, 0
21, 0, 125.00000000052, 0
22, 0, 120.00000000052, 0
23, 0, 115.00000000052, 0
24, 0, 110.00000000052, 0
25, 0, 105.00000000052, 0
26, 0, 100.00000000052, 0
27, 0, 95.000000000516, 0
28, 0, 90.000000000516, 0
29, 0, 85.000000000516, 0
30, 0, 80.000000000516, 0
31, 0, 75.000000000516, 0
32, 0, 70.000000000497, 0
33, 0, 65.000000000462, 0
34, 0, 60.000000000426, 0
35, 0, 55.000000000391, 0
36, 0, 50.000000000355, 0
37, 0, 45.00000000032, 0
38, 0, 40.000000000284, 0
39, 0, 35.000000000249, 0
40, 0, 30.000000000213, 0
41, 0, 25.000000000178, 0
42, 0, 20.000000000142, 0
43, 0, 15.000000000107, 0
44, 0, 10.000000000071, 0
45, 0, 5.0000000000355, 0
46, 4.9999999999956, 0, 0
47, 9.9999999999918, 0, 0
48, 14.999999999977, 0, 0
49, 19.999999999963, 0, 0
50, 24.999999999948, 0, 0
51, 29.999999999934, 0, 0
52, 34.999999999932, 0, 0
53, 39.999999999939, 0, 0
54, 44.999999999947, 0, 0
55, 49.999999999954, 0, 0
56, 54.999999999962, 0, 0
57, 59.99999999997, 0, 0
58, 64.999999999977, 0, 0
59, 69.999999999985, 0, 0
60, 74.999999999992, 0, 0
61, 34.999999999965, 40, 0
62, 39.999999999916, 40, 0
63, 44.999999999866, 40, 0
64, 49.999999999816, 40, 0
65, 54.999999999766, 40, 0
66, 59.999999999716, 40, 0
67, 64.999999999723, 40, 0
68, 69.999999999815, 40, 0
69, 74.999999999908, 40, 0
70, 80, 4.9999999999959, 0
71, 80, 9.9999999999814, 0
72, 80, 14.999999999967, 0
73, 80, 19.99999999997, 0
74, 80, 24.999999999977, 0
75, 80, 29.999999999985, 0
76, 80, 34.999999999992, 0
77, 30, 44.999999999997, 0
78, 30, 49.999999999986, 0
79, 30, 54.999999999987, 0
80, 30, 59.999999999986, 0
81, 30, 64.99999999997, 0
82, 30, 69.999999999971, 0
83, 30, 74.999999999972, 0
84, 30, 79.999999999973, 0
85, 30, 84.999999999974, 0
86, 30, 89.999999999975, 0
87, 30, 94.999999999976, 0
88, 30, 99.999999999977, 0
89, 30, 104.99999999998, 0
90, 30, 109.99999999998, 0
91, 30, 114.99999999998, 0
92, 30, 119.99999999998, 0
93, 30, 124.99999999998, 0
94, 30, 129.99999999998, 0
95, 30, 134.99999999999, 0
96, 30, 139.99999999999, 0
97, 30, 144.99999999999, 0
98, 30, 149.99999999999, 0
99, 30, 154.99999999999, 0
100, 30, 159.99999999999, 0
101, 30, 164.99999999999, 0
102, 30, 169.99999999999, 0
103, 30, 174.99999999999, 0
104, 30, 180, 0
105, 30, 185, 0
106, 30, 190, 0
107, 30, 195, 0
108, 4.9999999999988, 200, 0
109, 9.9999999999886, 200, 0
110, 14.99999999997, 200, 0
111, 19.99999999998, 200, 0
112, 24.99999999999, 200, 0
113, 5, 175.00000000018, 0
114, 5, 180.00000000014, 0
115, 5, 185.00000000011, 0
116, 5, 190.00000000007, 0
117, 5, 195.00000000004, 0
118, 29.999829408114, 35.00000000291, 0
119, 25.00000000291, 40.000170591886, 0
120, 4.9999999978139, 155.00014785382, 0
121, 5, 160.00000000028, 0
122, 5, 165.00000000025, 0
123, 5, 170.00000000021, 0
124, 5, 140.00000000043, 0
125, 5, 145.00000000039, 0
126, 5, 150.00000000036, 0
127, 5, 135.00000000046, 0
128, 5, 130.0000000005, 0
129, 5, 115.00000000052, 0
130, 5, 120.00000000052, 0
131, 5, 125.00000000052, 0
132, 5, 110.00000000052, 0
133, 5, 105.00000000052, 0
134, 4.9999999951465, 24.999779692883, 0
135, 4.999999995608, 19.99979042967, 0
136, 4.9999999969561, 14.999825533471, 0
137, 4.999999999798, 4.9999550568713, 0
138, 4.9999999986485, 9.9998837467199, 0
139, 10.000112004542, 4.9999999987455, 0
140, 15.000191240697, 4.9999999963427, 0
141, 20.000226325312, 4.9999999948777, 0
142, 4.9999999952583, 29.99978224667, 0
143, 5, 35.000000000249, 0
144, 5, 40.000000000284, 0
145, 5, 45.00000000032, 0
146, 5, 50.000000000355, 0
147, 5, 100.00000000052, 0
148, 5, 95.000000000516, 0
149, 5, 90.000000000516, 0
150, 5, 85.000000000516, 0
151, 4.9999999985656, 80.000119765038, 0
152, 4.9999999999434, 55.000023781771, 0
153, 5, 60.000000000426, 0
154, 5, 65.000000000462, 0
155, 5, 70.000000000497, 0
156, 5, 75.000000000516, 0
157, 39.999999999939, 5, 0
158, 34.999999999932, 5, 0
159, 29.999999999934, 5, 0
160, 25.000245116691, 4.9999999939918, 0
161, 34.999699728272, 35.000000009016, 0
162, 39.999999999916, 35, 0
163, 49.999999999816, 35, 0
164, 44.999999999866, 35, 0
165, 45.000263453896, 4.9999999930592, 0
166, 50.000212784749, 4.9999999954723, 0
167, 54.999999999766, 35, 0
168, 59.999999999716, 35, 0
169, 60.000116514693, 4.9999999986424, 0
170, 55.000154304306, 4.999999997619, 0
171, 64.999910133906, 35.000000000808, 0
172, 69.999999999815, 35, 0
173, 65.000081732962, 4.999999999332, 0
174, 70.000048751074, 4.9999999997623, 0
175, 75.000017161844, 4.9999999999705, 0
176, 14.999999977273, 164.99939679673, 0
177, 14.999999982047, 169.99946129749, 0
178, 14.999999986244, 174.99953092126, 0
179, 20.000000003061, 175.00002890573, 0
180, 20.000000005118, 165.00003756835, 0
181, 20.000000002834, 170.0001480072, 0
182, 20.000000005924, 160.0000404388, 0
183, 20.000000004469, 155.00018647322, 0
184, 14.999999973288, 159.99934662396, 0
185, 14.99999996952, 154.99947146229, 0
186, 9.9999999893135, 154.99981106557, 0
187, 9.9999999888073, 159.99975288663, 0
188, 9.9999999951561, 164.99981497942, 0
189, 9.9999999965695, 169.99983667329, 0
190, 9.9999999971775, 174.99985463439, 0
191, 9.9999992947093, 184.99992711462, 0
192, 9.9999999980186, 179.99988428015, 0
193, 10.000032987848, 195.00000000011, 0
194, 9.9999999996481, 189.99994890296, 0
195, 14.999999991049, 179.99962415885, 0
196, 14.999999995368, 184.99972950389, 0
197, 15.000043579571, 195.00000000019, 0
198, 14.999995775222, 190.00000000044, 0
199, 20.000000002003, 180.00002329803, 0
200, 20.000000001095, 185.00001711234, 0
201, 19.99999999998, 195, 0
202, 20.000000000452, 190.00001237299, 0
203, 25.000000000328, 184.99994275431, 0
204, 25.000000000621, 179.99992122129, 0
205, 25.000000000017, 194.99998703252, 0
206, 25.000000000114, 189.99996625832, 0
207, 25.000000001619, 164.99987276553, 0
208, 25, 169.99999999999, 0
209, 25.000000000961, 174.99990199269, 0
210, 25.000000001877, 159.99986301103, 0
211, 25, 154.99999999999, 0
212, 25.0000000024, 134.99984507086, 0
213, 25.000000002419, 129.99984445524, 0
214, 25.00000000221, 149.99985135048, 0
215, 25.000000002303, 144.99984824306, 0
216, 25, 139.99999999999, 0
217, 25.000000002379, 114.99984574698, 0
218, 25, 119.99999999998, 0
219, 25, 124.99999999998, 0
220, 25, 109.99999999998, 0
221, 25, 104.99999999998, 0
222, 20.000000005096, 140.00019918083, 0
223, 20.000000007267, 145.00004485455, 0
224, 20.000000006975, 150.00004396293, 0
225, 14.999999969252, 149.99929789948, 0
226, 14.999999967867, 139.99927962491, 0
227, 14.999999967281, 144.99927790216, 0
228, 14.999999966969, 134.99927258213, 0
229, 14.999999966431, 129.99926771271, 0
230, 20.000000007577, 135.00004582174, 0
231, 20.000000007639, 130.00004605406, 0
232, 20.000000004808, 105.00019347215, 0
233, 20.000000005005, 110.00019737652, 0
234, 20.000000005233, 125.00020181879, 0
235, 20.000000005204, 120.00020129163, 0
236, 20.00000000751, 115.00004561945, 0
237, 14.999999969034, 104.99929523859, 0
238, 14.99999996832, 109.99928481782, 0
239, 14.999999966617, 119.99926846822, 0
240, 14.999999966148, 114.99926602816, 0
241, 14.999999967533, 124.99927507953, 0
242, 9.9999999935374, 149.99978505133, 0
243, 9.9999999930572, 144.99977708608, 0
244, 9.9999999938065, 139.99978249754, 0
245, 9.9999999931757, 134.99977838845, 0
246, 9.9999999932796, 129.99977699753, 0
247, 9.999999993931, 124.99978284999, 0
248, 9.9999999930349, 119.99977634354, 0
249, 9.9999999927813, 114.99977350391, 0
250, 9.9999999938652, 109.99978404699, 0
251, 9.9999999935564, 104.99978442503, 0
252, 9.9999999859379, 20.000063307433, 0
253, 9.9999999850955, 25.000061020926, 0
254, 9.9999999900419, 15.0000527281, 0
255, 9.9999999950223, 10.000038011014, 0
256, 14.9999999504, 15.000665711582, 0
257, 14.999954221291, 9.9999999894937, 0
258, 19.999926411834, 9.9999999839029, 0
259, 19.999137296902, 14.999999919985, 0
260, 19.999999792529, 25.00196437735, 0
261, 19.999999804836, 20.001908174022, 0
262, 14.999999925337, 25.000816931974, 0
263, 14.999856158085, 20.000585844321, 0
264, 14.999999961876, 35.000761449816, 0
265, 15.000000054006, 39.99923191201, 0
266, 14.999999938386, 30.000723955388, 0
267, 20.001499094585, 29.999812544243, 0
268, 20.000481770716, 34.99996897132, 0
269, 20.000000019502, 39.999812424368, 0
270, 20.000000004368, 44.999968414436, 0
271, 20.000000000554, 49.99995749226, 0
272, 14.999999998914, 50.000089876519, 0
273, 15.000000004584, 45.00002539399, 0
274, 9.9999999772525, 30.000199549097, 0
275, 9.9999999964629, 40.000154104334, 0
276, 9.9999999944964, 35.000206887291, 0
277, 10.000000000345, 50.000037269551, 0
278, 9.9999999989594, 45.000085249075, 0
279, 9.9999999935539, 99.999786768511, 0
280, 9.999999994851, 94.999802903737, 0
281, 9.999999995118, 89.99981146582, 0
282, 9.9999999957108, 84.999823902764, 0
283, 9.9999999936591, 79.999882517009, 0
284, 9.9999999996694, 54.999999315595, 0
285, 9.9999999986804, 64.999900988688, 0
286, 9.9999999992442, 59.99993110361, 0
287, 9.9999999978049, 69.99987605315, 0
288, 9.9999999972629, 74.999857660134, 0
289, 20.000000006637, 100.00004285148, 0
290, 20.000000004183, 95.000180367921, 0
291, 14.999999973514, 94.999346535482, 0
292, 14.999999969968, 99.999309178819, 0
293, 14.999999976058, 89.999380657506, 0
294, 14.999999978947, 84.999421554975, 0
295, 14.999999981695, 79.999599233497, 0
296, 20.000000004757, 85.000036251891, 0
297, 20.00000000375, 90.000170721804, 0
298, 20.000000002716, 80.0001450744, 0
299, 20.000000002333, 70.000025206025, 0
300, 20.000000002162, 75.000129242203, 0
301, 14.999999989709, 69.999595109857, 0
302, 14.999999986343, 74.999532316684, 0
303, 14.999999993347, 64.999675322738, 0
304, 14.999999996601, 59.99977584011, 0
305, 14.999999998846, 54.99996714479, 0
306, 20.00000000071, 60.000013049628, 0
307, 20.000000001035, 65.000088055126, 0
308, 20.000000000202, 55.000003546938, 0
309, 35.001248958445, 25.000000160867, 0
310, 34.997369463685, 19.999999709522, 0
311, 39.997550842415, 19.999999751262, 0
312, 40.001351517176, 25.000000113359, 0
313, 39.99880566758, 14.999999909521, 0
314, 39.999675842268, 9.999999986326, 0
315, 34.999648835328, 9.9999999848855, 0
316, 34.998718536561, 14.999999893514, 0
317, 29.99867562768, 14.999999886654, 0
318, 29.999641839786, 9.9999999826325, 0
319, 24.999826059754, 9.9999999725576, 0
320, 24.999000560842, 14.999999892932, 0
321, 24.997686055827, 19.999999717998, 0
322, 25.002457910157, 25.000170844257, 0
323, 29.999435935129, 20.000028374584, 0
324, 30.001708016865, 25.000000195557, 0
325, 30.00052550373, 30.000000055371, 0
326, 25.000358170429, 35.000170608478, 0
327, 25.000778313257, 30.000353072102, 0
328, 25, 49.999999999986, 0
329, 25.000000001092, 45.000104499855, 0
330, 35.00038095301, 30.000000055521, 0
331, 40.000389846662, 30.0000000187, 0
332, 25, 64.99999999997, 0
333, 25.000000000203, 59.999954970195, 0
334, 25.000000000017, 54.999986781229, 0
335, 25, 74.999999999972, 0
336, 25.000000000733, 69.999914404675, 0
337, 25, 79.999999999973, 0
338, 25.000000001504, 84.999877349635, 0
339, 25, 89.999999999975, 0
340, 25, 94.999999999976, 0
341, 25.000000002103, 99.999854975542, 0
342, 50.000265601997, 30.0000000081, 0
343, 45.000325810567, 30.000000013454, 0
344, 44.999738243322, 9.9999999721166, 0
345, 44.99920530488, 14.999999921809, 0
346, 45.001169205903, 25.00000008701, 0
347, 44.998080399437, 19.999999793894, 0
348, 49.999218627663, 14.99999993235, 0
349, 49.999883438217, 9.9999999812375, 0
350, 49.998353439046, 19.999999849846, 0
351, 50.000977247695, 25.000000060676, 0
352, 55.000220672221, 30.000000006361, 0
353, 60.000172014374, 30.000000003877, 0
354, 60.00061372804, 25.000000024839, 0
355, 59.998949417586, 19.999999940721, 0
356, 54.998636220668, 19.999999900879, 0
357, 55.000807314116, 25.000000041947, 0
358, 54.999406122835, 14.999999960982, 0
359, 54.999884994482, 9.9999999866286, 0
360, 59.999643306991, 14.999937961486, 0
361, 59.999938150393, 9.999996226949, 0
362, 74.99998087172, 35.000000000037, 0
363, 75, 29.999999999985, 0
364, 65.000071030592, 30.000000004113, 0
365, 70.000070925817, 30.000000000809, 0
366, 70.000000001057, 19.999904678991, 0
367, 70.00000000106, 24.999909652271, 0
368, 65.000358353901, 25.00000001387, 0
369, 65.000000008985, 19.999627897462, 0
370, 64.999662291268, 14.999999987822, 0
371, 64.999970177256, 9.9999999974612, 0
372, 69.999982183386, 9.9999999990754, 0
373, 70.000000001017, 14.999911888335, 0
374, 75, 24.999999999977, 0
375, 75, 19.99999999997, 0
376, 75, 14.999999999967, 0
377, 75.00000000023, 10.000047916273, 0
******* E L E M E N T S *************
*ELEMENT, type=T3D2, ELSET=Line1
7, 6, 7
8, 7, 8
9, 8, 9
10, 9, 10
11, 10, 11
12, 11, 12
13, 12, 13
14, 13, 14
15, 14, 15
16, 15, 16
17, 16, 17
18, 17, 18
19, 18, 19
20, 19, 20
21, 20, 21
22, 21, 22
23, 22, 23
24, 23, 24
25, 24, 25
26, 25, 26
27, 26, 27
28, 27, 28
29, 28, 29
30, 29, 30
31, 30, 31
32, 31, 32
33, 32, 33
34, 33, 34
35, 34, 35
36, 35, 36
37, 36, 37
38, 37, 38
39, 38, 39
40, 39, 40
41, 40, 41
42, 41, 42
43, 42, 43
44, 43, 44
45, 44, 45
46, 45, 1
*ELEMENT, type=T3D2, ELSET=Line2
47, 1, 46
48, 46, 47
49, 47, 48
50, 48, 49
51, 49, 50
52, 50, 51
53, 51, 52
54, 52, 53
55, 53, 54
56, 54, 55
57, 55, 56
58, 56, 57
59, 57, 58
60, 58, 59
61, 59, 60
62, 60, 3
*ELEMENT, type=T3D2, ELSET=Line3
63, 4, 61
64, 61, 62
65, 62, 63
66, 63, 64
67, 64, 65
68, 65, 66
69, 66, 67
70, 67, 68
71, 68, 69
72, 69, 2
*ELEMENT, type=T3D2, ELSET=Line4
73, 3, 70
74, 70, 71
75, 71, 72
76, 72, 73
77, 73, 74
78, 74, 75
79, 75, 76
80, 76, 2
*ELEMENT, type=T3D2, ELSET=Line5
81, 4, 77
82, 77, 78
83, 78, 79
84, 79, 80
85, 80, 81
86, 81, 82
87, 82, 83
88, 83, 84
89, 84, 85
90, 85, 86
91, 86, 87
92, 87, 88
93, 88, 89
94, 89, 90
95, 90, 91
96, 91, 92
97, 92, 93
98, 93, 94
99, 94, 95
100, 95, 96
101, 96, 97
102, 97, 98
103, 98, 99
104, 99, 100
105, 100, 101
106, 101, 102
107, 102, 103
108, 103, 104
109, 104, 105
110, 105, 106
111, 106, 107
112, 107, 5
*ELEMENT, type=T3D2, ELSET=Line6
113, 6, 108
114, 108, 109
115, 109, 110
116, 110, 111
117, 111, 112
118, 112, 5
*ELEMENT, type=CPS3, ELSET=Surface1
119, 360, 355, 369
120, 360, 369, 370
121, 69, 76, 362
122, 362, 76, 363
123, 73, 72, 376
124, 375, 73, 376
125, 374, 73, 375
126, 363, 75, 374
127, 74, 73, 374
128, 75, 74, 374
129, 76, 75, 363
130, 174, 372, 377
131, 175, 174, 377
132, 71, 175, 377
133, 157, 314, 344
134, 165, 157, 344
135, 68, 69, 362
136, 172, 68, 362
137, 171, 172, 364
138, 364, 172, 365
139, 72, 71, 377
140, 376, 72, 377
141, 371, 370, 373
142, 372, 371, 373
143, 367, 365, 374
144, 365, 363, 374
145, 172, 362, 365
146, 362, 363, 365
147, 366, 367, 375
148, 367, 374, 375
149, 366, 375, 376
150, 373, 366, 376
151, 173, 371, 372
152, 174, 173, 372
153, 373, 376, 377
154, 372, 373, 377
155, 88, 87, 341
156, 189, 123, 190
157, 123, 113, 190
158, 169, 361, 371
159, 173, 169, 371
160, 270, 271, 329
161, 271, 328, 329
162, 15, 14, 120
163, 120, 14, 121
164, 214, 97, 215
165, 98, 97, 214
166, 97, 96, 215
167, 215, 96, 216
168, 144, 145, 275
169, 275, 145, 278
170, 91, 90, 217
171, 217, 90, 220
172, 57, 56, 170
173, 169, 57, 170
174, 195, 192, 196
175, 192, 191, 196
176, 212, 94, 213
177, 95, 94, 212
178, 94, 93, 213
179, 213, 93, 219
180, 161, 162, 330
181, 330, 162, 331
182, 140, 139, 257
183, 139, 255, 257
184, 188, 122, 189
185, 122, 123, 189
186, 182, 207, 210
187, 182, 180, 207
188, 77, 4, 119
189, 77, 119, 329
190, 297, 290, 340
191, 339, 297, 340
192, 307, 299, 336
193, 332, 307, 336
194, 44, 43, 136
195, 44, 136, 138
196, 187, 121, 188
197, 121, 122, 188
198, 150, 149, 281
199, 150, 281, 282
200, 49, 140, 141
201, 49, 48, 140
202, 220, 232, 233
203, 220, 221, 232
204, 214, 215, 223
205, 214, 223, 224
206, 149, 148, 280
207, 149, 280, 281
208, 170, 359, 361
209, 169, 170, 361
210, 212, 213, 231
211, 230, 212, 231
212, 234, 219, 235
213, 219, 218, 235
214, 119, 269, 270
215, 119, 270, 329
216, 143, 144, 276
217, 144, 275, 276
218, 43, 42, 135
219, 43, 135, 136
220, 136, 254, 255
221, 138, 136, 255
222, 56, 55, 166
223, 56, 166, 170
224, 148, 147, 279
225, 148, 279, 280
226, 125, 242, 243
227, 125, 126, 242
228, 147, 133, 251
229, 147, 251, 279
230, 133, 132, 250
231, 133, 250, 251
232, 130, 247, 248
233, 130, 131, 247
234, 127, 244, 245
235, 127, 124, 244
236, 134, 41, 142
237, 41, 40, 142
238, 42, 41, 134
239, 42, 134, 135
240, 167, 168, 352
241, 352, 168, 353
242, 128, 245, 246
243, 128, 127, 245
244, 119, 268, 269
245, 268, 119, 326
246, 124, 125, 243
247, 124, 243, 244
248, 131, 128, 246
249, 131, 246, 247
250, 284, 286, 304
251, 284, 304, 305
252, 129, 248, 249
253, 129, 130, 248
254, 50, 141, 160
255, 50, 49, 141
256, 132, 129, 249
257, 132, 249, 250
258, 304, 306, 308
259, 305, 304, 308
260, 178, 190, 195
261, 190, 192, 195
262, 355, 354, 369
263, 354, 368, 369
264, 51, 50, 160
265, 159, 51, 160
266, 208, 181, 209
267, 181, 179, 209
268, 286, 285, 303
269, 286, 303, 304
270, 288, 283, 295
271, 288, 295, 302
272, 168, 171, 353
273, 353, 171, 364
274, 135, 252, 254
275, 136, 135, 254
276, 368, 366, 369
277, 367, 366, 368
278, 55, 54, 165
279, 166, 349, 359
280, 170, 166, 359
281, 141, 140, 258
282, 140, 257, 258
283, 163, 167, 342
284, 342, 167, 352
285, 298, 296, 338
286, 337, 298, 338
287, 277, 273, 278
288, 272, 273, 277
289, 134, 142, 253
290, 253, 142, 274
291, 252, 134, 253
292, 135, 134, 252
293, 369, 366, 373
294, 370, 369, 373
295, 364, 365, 368
296, 365, 367, 368
297, 165, 344, 349
298, 166, 165, 349
299, 195, 196, 199
300, 199, 196, 200
301, 361, 360, 370
302, 361, 370, 371
303, 151, 150, 282
304, 151, 282, 283
305, 4, 61, 161
306, 118, 4, 161
307, 178, 177, 189
308, 178, 189, 190
309, 285, 287, 301
310, 285, 301, 303
311, 185, 225, 242
312, 186, 185, 242
313, 183, 210, 211
314, 183, 182, 210
315, 314, 158, 315
316, 157, 158, 314
317, 290, 289, 341
318, 340, 290, 341
319, 164, 163, 343
320, 163, 342, 343
321, 160, 141, 319
322, 141, 258, 319
323, 267, 266, 268
324, 266, 264, 268
325, 306, 303, 307
326, 304, 303, 306
327, 271, 270, 273
328, 272, 271, 273
329, 287, 288, 302
330, 301, 287, 302
331, 321, 260, 322
332, 261, 260, 321
333, 186, 120, 187
334, 120, 121, 187
335, 215, 216, 222
336, 215, 222, 223
337, 315, 159, 318
338, 158, 159, 315
339, 217, 233, 236
340, 217, 220, 233
341, 177, 176, 188
342, 177, 188, 189
343, 213, 219, 234
344, 231, 213, 234
345, 162, 164, 331
346, 331, 164, 343
347, 176, 184, 187
348, 176, 187, 188
349, 179, 178, 195
350, 179, 195, 199
351, 359, 358, 360
352, 359, 360, 361
353, 282, 281, 293
354, 282, 293, 294
355, 356, 355, 358
356, 358, 355, 360
357, 281, 280, 291
358, 281, 291, 293
359, 314, 313, 345
360, 344, 314, 345
361, 225, 227, 243
362, 242, 225, 243
363, 251, 237, 279
364, 279, 237, 292
365, 300, 299, 302
366, 299, 301, 302
367, 301, 299, 307
368, 303, 301, 307
369, 280, 279, 292
370, 291, 280, 292
371, 226, 228, 245
372, 244, 226, 245
373, 250, 238, 251
374, 238, 237, 251
375, 241, 239, 248
376, 247, 241, 248
377, 228, 229, 246
378, 245, 228, 246
379, 227, 226, 244
380, 243, 227, 244
381, 248, 239, 249
382, 239, 240, 249
383, 246, 229, 247
384, 229, 241, 247
385, 266, 274, 276
386, 264, 266, 276
387, 249, 240, 250
388, 240, 238, 250
389, 119, 4, 326
390, 4, 118, 326
391, 295, 300, 302
392, 295, 298, 300
393, 283, 282, 294
394, 283, 294, 295
395, 349, 348, 358
396, 349, 358, 359
397, 185, 224, 225
398, 185, 183, 224
399, 180, 177, 181
400, 176, 177, 180
401, 354, 353, 364
402, 354, 364, 368
403, 184, 185, 186
404, 184, 186, 187
405, 322, 260, 327
406, 260, 267, 327
407, 256, 252, 263
408, 254, 252, 256
409, 159, 160, 318
410, 318, 160, 319
411, 177, 178, 181
412, 178, 179, 181
413, 352, 353, 357
414, 353, 354, 357
415, 176, 182, 184
416, 176, 180, 182
417, 296, 293, 297
418, 294, 293, 296
419, 344, 345, 348
420, 344, 348, 349
421, 348, 350, 356
422, 348, 356, 358
423, 294, 296, 298
424, 295, 294, 298
425, 313, 311, 347
426, 345, 313, 347
427, 253, 262, 263
428, 252, 253, 263
429, 225, 223, 227
430, 224, 223, 225
431, 237, 232, 289
432, 237, 289, 292
433, 351, 342, 352
434, 351, 352, 357
435, 226, 222, 230
436, 228, 226, 230
437, 229, 228, 231
438, 228, 230, 231
439, 235, 236, 239
440, 239, 236, 240
441, 262, 253, 274
442, 266, 262, 274
443, 267, 268, 326
444, 267, 326, 327
445, 258, 257, 259
446, 257, 256, 259
447, 291, 290, 297
448, 293, 291, 297
449, 118, 161, 325
450, 325, 161, 330
451, 184, 183, 185
452, 182, 183, 184
453, 313, 315, 316
454, 313, 314, 315
455, 345, 347, 350
456, 348, 345, 350
457, 312, 309, 331
458, 290, 291, 292
459, 289, 290, 292
460, 343, 342, 346
461, 346, 342, 351
462, 233, 232, 238
463, 232, 237, 238
464, 222, 226, 227
465, 223, 222, 227
466, 317, 316, 318
467, 316, 315, 318
468, 319, 258, 320
469, 258, 259, 320
470, 235, 239, 241
471, 234, 235, 241
472, 233, 238, 240
473, 236, 233, 240
474, 229, 234, 241
475, 229, 231, 234
476, 268, 264, 269
477, 264, 265, 269
478, 275, 265, 276
479, 265, 264, 276
480, 312, 331, 343
481, 312, 343, 346
482, 260, 261, 262
483, 262, 261, 263
484, 310, 311, 316
485, 311, 313, 316
486, 317, 318, 319
487, 317, 319, 320
488, 260, 262, 266
489, 260, 266, 267
490, 320, 259, 321
491, 259, 261, 321
492, 326, 118, 327
493, 118, 325, 327
494, 309, 324, 330
495, 355, 356, 357
496, 354, 355, 357
497, 325, 322, 327
498, 324, 322, 325
499, 350, 351, 356
500, 356, 351, 357
501, 347, 346, 350
502, 350, 346, 351
503, 311, 312, 347
504, 312, 346, 347
505, 310, 309, 311
506, 311, 309, 312
507, 309, 310, 324
508, 310, 323, 324
509, 316, 317, 323
510, 310, 316, 323
511, 1, 45, 137
512, 46, 1, 137
513, 69, 2, 76
514, 3, 60, 175
515, 70, 3, 175
516, 112, 5, 107
517, 7, 6, 108
518, 8, 7, 116
519, 7, 108, 117
520, 116, 7, 117
521, 9, 8, 115
522, 115, 8, 116
523, 10, 9, 114
524, 114, 9, 115
525, 11, 10, 114
526, 12, 11, 113
527, 113, 11, 114
528, 13, 12, 122
529, 12, 113, 123
530, 122, 12, 123
531, 14, 13, 122
532, 121, 14, 122
533, 16, 15, 126
534, 15, 120, 126
535, 17, 16, 126
536, 18, 17, 124
537, 124, 17, 125
538, 125, 17, 126
539, 19, 18, 127
540, 18, 124, 127
541, 20, 19, 128
542, 19, 127, 128
543, 21, 20, 131
544, 20, 128, 131
545, 22, 21, 130
546, 130, 21, 131
547, 23, 22, 129
548, 129, 22, 130
549, 24, 23, 129
550, 25, 24, 132
551, 24, 129, 132
552, 26, 25, 147
553, 25, 132, 133
554, 25, 133, 147
555, 27, 26, 147
556, 28, 27, 148
557, 27, 147, 148
558, 29, 28, 149
559, 28, 148, 149
560, 30, 29, 151
561, 29, 149, 150
562, 29, 150, 151
563, 31, 30, 156
564, 30, 151, 156
565, 32, 31, 155
566, 155, 31, 156
567, 33, 32, 154
568, 154, 32, 155
569, 34, 33, 154
570, 35, 34, 152
571, 152, 34, 153
572, 153, 34, 154
573, 36, 35, 146
574, 146, 35, 152
575, 37, 36, 145
576, 145, 36, 146
577, 38, 37, 145
578, 39, 38, 143
579, 143, 38, 144
580, 144, 38, 145
581, 40, 39, 143
582, 142, 40, 143
583, 45, 44, 138
584, 137, 45, 138
585, 47, 46, 137
586, 48, 47, 139
587, 47, 137, 139
588, 48, 139, 140
589, 52, 51, 158
590, 158, 51, 159
591, 53, 52, 157
592, 157, 52, 158
593, 54, 53, 157
594, 54, 157, 165
595, 55, 165, 166
596, 58, 57, 169
597, 59, 58, 173
598, 58, 169, 173
599, 60, 59, 174
600, 59, 173, 174
601, 60, 174, 175
602, 61, 62, 162
603, 161, 61, 162
604, 62, 63, 162
605, 63, 64, 163
606, 162, 63, 164
607, 63, 163, 164
608, 64, 65, 167
609, 163, 64, 167
610, 65, 66, 167
611, 66, 67, 171
612, 167, 66, 168
613, 168, 66, 171
614, 67, 68, 172
615, 171, 67, 172
616, 71, 70, 175
617, 78, 77, 329
618, 79, 78, 334
619, 328, 78, 329
620, 78, 328, 334
621, 80, 79, 333
622, 333, 79, 334
623, 81, 80, 332
624, 332, 80, 333
625, 82, 81, 336
626, 81, 332, 336
627, 83, 82, 335
628, 335, 82, 336
629, 84, 83, 337
630, 83, 335, 337
631, 85, 84, 338
632, 84, 337, 338
633, 86, 85, 339
634, 85, 338, 339
635, 87, 86, 339
636, 87, 339, 340
637, 87, 340, 341
638, 89, 88, 221
639, 221, 88, 341
640, 90, 89, 220
641, 220, 89, 221
642, 92, 91, 218
643, 91, 217, 218
644, 93, 92, 218
645, 93, 218, 219
646, 96, 95, 216
647, 95, 212, 216
648, 99, 98, 211
649, 211, 98, 214
650, 100, 99, 210
651, 210, 99, 211
652, 101, 100, 207
653, 207, 100, 210
654, 102, 101, 208
655, 101, 207, 208
656, 103, 102, 209
657, 102, 208, 209
658, 104, 103, 204
659, 204, 103, 209
660, 105, 104, 203
661, 203, 104, 204
662, 106, 105, 206
663, 105, 203, 206
664, 107, 106, 205
665, 205, 106, 206
666, 112, 107, 205
667, 108, 109, 117
668, 109, 110, 193
669, 117, 109, 193
670, 110, 111, 197
671, 193, 110, 197
672, 111, 112, 201
673, 197, 111, 201
674, 201, 112, 205
675, 113, 114, 192
676, 190, 113, 192
677, 114, 115, 191
678, 114, 191, 192
679, 115, 116, 194
680, 191, 115, 194
681, 116, 117, 193
682, 116, 193, 194
683, 126, 120, 186
684, 126, 186, 242
685, 137, 138, 139
686, 139, 138, 255
687, 142, 143, 274
688, 274, 143, 276
689, 145, 146, 278
690, 146, 152, 277
691, 146, 277, 278
692, 156, 151, 283
693, 152, 153, 286
694, 277, 152, 284
695, 284, 152, 286
696, 153, 154, 285
697, 153, 285, 286
698, 154, 155, 287
699, 285, 154, 287
700, 155, 156, 288
701, 287, 155, 288
702, 156, 283, 288
703, 179, 199, 204
704, 179, 204, 209
705, 180, 181, 208
706, 207, 180, 208
707, 183, 211, 224
708, 191, 194, 198
709, 196, 191, 198
710, 194, 193, 198
711, 193, 197, 198
712, 196, 198, 200
713, 198, 197, 202
714, 197, 201, 202
715, 200, 198, 202
716, 199, 200, 203
717, 199, 203, 204
718, 200, 202, 206
719, 203, 200, 206
720, 202, 201, 205
721, 202, 205, 206
722, 211, 214, 224
723, 216, 212, 230
724, 222, 216, 230
725, 218, 217, 236
726, 235, 218, 236
727, 232, 221, 289
728, 289, 221, 341
729, 255, 254, 257
730, 254, 256, 257
731, 259, 256, 263
732, 261, 259, 263
733, 269, 265, 273
734, 273, 265, 275
735, 270, 269, 273
736, 271, 272, 308
737, 271, 308, 328
738, 272, 277, 284
739, 272, 284, 305
740, 272, 305, 308
741, 273, 275, 278
742, 296, 297, 339
743, 338, 296, 339
744, 300, 298, 337
745, 299, 300, 335
746, 299, 335, 336
747, 335, 300, 337
748, 306, 307, 332
749, 308, 306, 333
750, 306, 332, 333
751, 328, 308, 334
752, 308, 333, 334
753, 309, 330, 331
754, 317, 320, 321
755, 317, 321, 323
756, 321, 322, 323
757, 323, 322, 324
758, 324, 325, 330
