*Heading
 E:\Kn_bazis\Сетки\cil.inp
*NODE
1, 30, 0, 0
2, 0, 100, 0
3, 30, 100, 0
4, 0, 0, 0
5, 4.9999999999988, 100, 0
6, 9.9999999999886, 100, 0
7, 14.99999999997, 100, 0
8, 19.99999999998, 100, 0
9, 24.99999999999, 100, 0
10, 30, 95.000000000036, 0
11, 30, 90.000000000071, 0
12, 30, 85.000000000107, 0
13, 30, 80.000000000142, 0
14, 30, 75.000000000178, 0
15, 30, 70.000000000213, 0
16, 30, 65.000000000249, 0
17, 30, 60.000000000258, 0
18, 30, 55.000000000258, 0
19, 30, 50.000000000258, 0
20, 30, 45.000000000258, 0
21, 30, 40.000000000258, 0
22, 30, 35.000000000249, 0
23, 30, 30.000000000213, 0
24, 30, 25.000000000178, 0
25, 30, 20.000000000142, 0
26, 30, 15.000000000107, 0
27, 30, 10.000000000071, 0
28, 30, 5.0000000000355, 0
29, 24.999999999987, 0, 0
30, 19.999999999997, 0, 0
31, 15.000000000037, 0, 0
32, 10.000000000025, 0, 0
33, 5.0000000000126, 0, 0
34, 0, 4.9999999999798, 0
35, 0, 9.9999999999616, 0
36, 0, 14.99999999994, 0
37, 0, 19.999999999914, 0
38, 0, 24.999999999888, 0
39, 0, 29.999999999862, 0
40, 0, 34.999999999848, 0
41, 0, 39.99999999984, 0
42, 0, 44.999999999832, 0
43, 0, 49.999999999824, 0
44, 0, 54.999999999816, 0
45, 0, 59.999999999807, 0
46, 0, 64.999999999809, 0
47, 0, 69.999999999836, 0
48, 0, 74.999999999863, 0
49, 0, 79.999999999891, 0
50, 0, 84.999999999918, 0
51, 0, 89.999999999945, 0
52, 0, 94.999999999973, 0
53, 25.000000000036, 70.000000000213, 0
54, 25.000000000036, 85.000000000107, 0
55, 25.000000000005, 60.000000000253, 0
56, 4.9999999999916, 44.999999999832, 0
57, 4.9999999999741, 24.999999999888, 0
58, 4.9999999999918, 54.999999999816, 0
59, 5.0000000000143, 64.999999999822, 0
60, 25, 45.000000000258, 0
61, 5.0000000000273, 74.999999999863, 0
62, 5.0000000000273, 84.999999999918, 0
63, 24.999999999989, 35.00000000024, 0
64, 24.999999999964, 25.000000000178, 0
65, 10.000000000051, 4.9999999999861, 0
66, 24.999999999964, 15.000000000107, 0
67, 14.99999999997, 95.000000000019, 0
68, 5.0000000000086, 94.999999999991, 0
69, 24.99999999999, 94.99999999999, 0
70, 24.999999999964, 10.000000000071, 0
71, 4.9999999999763, 9.9999999999638, 0
72, 20.000000000012, 4.999999999975, 0
73, 4.9999999999889, 34.999999999851, 0
74, 25, 55.000000000258, 0
75, 4.9999999999741, 14.99999999994, 0
76, 25.000000000036, 80.000000000142, 0
77, 4.9999999999962, 4.9999999999962, 0
78, 24.999999999987, 5.0000000000127, 0
79, 20.000000000061, 85.000000000117, 0
80, 20.000000000013, 60.00000000025, 0
81, 19.999999999955, 15.000000000031, 0
82, 19.99999999997, 9.9999999999694, 0
83, 5.0000000000133, 89.999999999952, 0
84, 15.000000000042, 4.9999999999702, 0
85, 19.999999999968, 95.000000000002, 0
86, 25.000000000001, 40.000000000259, 0
87, 4.9999999999918, 59.999999999807, 0
88, 24.99999999997, 20.000000000147, 0
89, 24.999999999981, 30.000000000216, 0
90, 5.0000000000115, 69.999999999833, 0
91, 9.9999999999711, 9.9999999999588, 0
92, 5.0000000000221, 79.999999999885, 0
93, 25.000000000026, 65.000000000237, 0
94, 25.000000000003, 50.000000000261, 0
95, 4.9999999999925, 49.999999999824, 0
96, 4.9999999999905, 39.999999999842, 0
97, 4.9999999999815, 29.999999999866, 0
98, 4.9999999999742, 19.999999999914, 0
99, 25.00000000003, 75.000000000172, 0
100, 10.000000000006, 95.000000000003, 0
101, 25.000000000019, 90.000000000008, 0
102, 20.000000000061, 70.000000000197, 0
103, 9.9999999999823, 39.99999999984, 0
104, 9.9999999999595, 24.999999999882, 0
105, 10.000000000012, 69.999999999823, 0
106, 9.9999999999839, 54.999999999816, 0
107, 9.9999999999864, 59.999999999827, 0
108, 20.000000000009, 55.000000000254, 0
109, 20.000000000001, 40.000000000258, 0
110, 10.000000000038, 89.999999999934, 0
111, 9.9999999999488, 14.999999999928, 0
112, 19.999999999961, 30.000000000197, 0
113, 9.9999999999712, 29.999999999865, 0
114, 19.999999999954, 20.0000000001, 0
115, 14.999999999987, 9.9999999999535, 0
116, 10.000000000039, 79.99999999988, 0
117, 20.000000000001, 50.000000000256, 0
118, 9.9999999999846, 44.999999999832, 0
119, 20.000000000055, 80.000000000137, 0
120, 20.000000000043, 65.000000000237, 0
121, 14.999999999978, 90.00000000003, 0
122, 20.000000000032, 90.000000000103, 0
123, 15.000000000072, 85.000000000041, 0
124, 15.000000000054, 65.00000000024, 0
125, 19.999999999952, 25.00000000015, 0
126, 19.999999999977, 35.000000000216, 0
127, 10.000000000035, 74.99999999983, 0
128, 15.00000000002, 60.00000000025, 0
129, 15.000000000014, 55.000000000249, 0
130, 10.000000000037, 84.999999999924, 0
131, 14.999999999976, 39.999999999838, 0
132, 14.999999999934, 14.999999999939, 0
133, 10.000000000009, 64.999999999821, 0
134, 20.000000000003, 45.000000000259, 0
135, 9.9999999999852, 49.999999999824, 0
136, 9.9999999999798, 34.999999999854, 0
137, 14.999999999953, 24.99999999987, 0
138, 9.9999999999566, 19.99999999991, 0
139, 20.000000000052, 75.000000000165, 0
140, 15.000000000007, 70.000000000234, 0
141, 14.999999999999, 50.00000000004, 0
142, 15.000000000064, 80.000000000108, 0
143, 14.999999999999, 44.999999999923, 0
144, 14.999999999975, 34.999999999844, 0
145, 14.999999999964, 29.999999999867, 0
146, 14.999999999953, 19.999999999874, 0
147, 15.000000000061, 75.000000000152, 0
******* E L E M E N T S *************
*ELEMENT, type=T3D2, ELSET=Line1
5, 2, 5
6, 5, 6
7, 6, 7
8, 7, 8
9, 8, 9
10, 9, 3
*ELEMENT, type=T3D2, ELSET=Line2
11, 3, 10
12, 10, 11
13, 11, 12
14, 12, 13
15, 13, 14
16, 14, 15
17, 15, 16
18, 16, 17
19, 17, 18
20, 18, 19
21, 19, 20
22, 20, 21
23, 21, 22
24, 22, 23
25, 23, 24
26, 24, 25
27, 25, 26
28, 26, 27
29, 27, 28
30, 28, 1
*ELEMENT, type=T3D2, ELSET=Line3
31, 1, 29
32, 29, 30
33, 30, 31
34, 31, 32
35, 32, 33
36, 33, 4
*ELEMENT, type=T3D2, ELSET=Line4
37, 4, 34
38, 34, 35
39, 35, 36
40, 36, 37
41, 37, 38
42, 38, 39
43, 39, 40
44, 40, 41
45, 41, 42
46, 42, 43
47, 43, 44
48, 44, 45
49, 45, 46
50, 46, 47
51, 47, 48
52, 48, 49
53, 49, 50
54, 50, 51
55, 51, 52
56, 52, 2
*ELEMENT, type=CPS3, ELSET=Surface1
57, 10, 9, 3
58, 135, 141, 143
59, 141, 134, 143
60, 81, 82, 132
61, 81, 70, 82
62, 79, 121, 122
63, 121, 79, 123
64, 65, 77, 91
65, 125, 114, 137
66, 110, 100, 121
67, 65, 91, 115
68, 88, 114, 125
69, 65, 33, 77
70, 102, 124, 140
71, 102, 140, 147
72, 121, 85, 122
73, 83, 100, 110
74, 115, 91, 132
75, 126, 112, 144
76, 70, 78, 82
77, 83, 68, 100
78, 89, 112, 126
79, 124, 128, 133
80, 105, 124, 133
81, 127, 116, 147
82, 124, 105, 140
83, 82, 115, 132
84, 32, 33, 65
85, 61, 116, 127
86, 116, 130, 142
87, 107, 128, 129
88, 70, 27, 78
89, 128, 107, 133
90, 110, 121, 123
91, 106, 107, 129
92, 106, 129, 141
93, 130, 123, 142
94, 129, 117, 141
95, 10, 11, 69
96, 116, 62, 130
97, 63, 89, 126
98, 116, 142, 147
99, 110, 123, 130
100, 117, 134, 141
101, 31, 32, 65
102, 51, 68, 83
103, 27, 28, 78
104, 140, 127, 147
105, 118, 135, 143
106, 85, 69, 122
107, 109, 131, 143
108, 131, 118, 143
109, 69, 11, 101
110, 109, 126, 131
111, 31, 65, 84
112, 92, 62, 116
113, 66, 70, 81
114, 51, 52, 68
115, 89, 64, 112
116, 78, 72, 82
117, 88, 66, 114
118, 86, 63, 109
119, 9, 69, 85
120, 90, 61, 127
121, 105, 90, 127
122, 109, 63, 126
123, 87, 59, 107
124, 29, 72, 78
125, 102, 120, 124
126, 22, 23, 63
127, 9, 10, 69
128, 46, 47, 59
129, 22, 63, 86
130, 33, 4, 77
131, 8, 9, 85
132, 106, 87, 107
133, 7, 8, 67
134, 46, 59, 87
135, 84, 65, 115
136, 82, 72, 84
137, 28, 1, 78
138, 34, 71, 77
139, 64, 88, 125
140, 82, 84, 115
141, 81, 132, 146
142, 26, 66, 88
143, 66, 27, 70
144, 52, 2, 68
145, 67, 8, 85
146, 5, 6, 68
147, 24, 64, 89
148, 139, 102, 147
149, 48, 61, 90
150, 29, 30, 72
151, 4, 34, 77
152, 49, 62, 92
153, 59, 90, 105
154, 16, 17, 93
155, 112, 125, 145
156, 105, 127, 140
157, 68, 6, 100
158, 62, 83, 110
159, 23, 24, 89
160, 6, 7, 100
161, 47, 48, 90
162, 11, 12, 101
163, 25, 26, 88
164, 1, 29, 78
165, 61, 92, 116
166, 108, 117, 129
167, 114, 81, 146
168, 7, 67, 100
169, 34, 35, 71
170, 128, 108, 129
171, 67, 85, 121
172, 2, 5, 68
173, 64, 24, 88
174, 108, 94, 117
175, 62, 50, 83
176, 62, 110, 130
177, 99, 53, 139
178, 17, 55, 93
179, 61, 48, 92
180, 94, 60, 117
181, 21, 22, 86
182, 17, 18, 55
183, 112, 64, 125
184, 12, 54, 101
185, 30, 31, 84
186, 45, 46, 87
187, 26, 27, 66
188, 55, 18, 74
189, 19, 60, 94
190, 91, 111, 132
191, 53, 102, 139
192, 59, 105, 133
193, 63, 23, 89
194, 59, 47, 90
195, 24, 25, 88
196, 71, 35, 75
197, 50, 51, 83
198, 72, 30, 84
199, 134, 109, 143
200, 39, 40, 97
201, 74, 18, 94
202, 48, 49, 92
203, 49, 50, 62
204, 55, 74, 80
205, 131, 126, 144
206, 93, 55, 120
207, 40, 41, 73
208, 102, 93, 120
209, 35, 36, 75
210, 74, 94, 108
211, 55, 80, 120
212, 66, 81, 114
213, 113, 136, 145
214, 40, 73, 97
215, 54, 76, 119
216, 76, 99, 119
217, 86, 109, 134
218, 103, 131, 136
219, 75, 98, 138
220, 18, 19, 94
221, 104, 137, 138
222, 60, 86, 134
223, 135, 106, 141
224, 117, 60, 134
225, 132, 138, 146
226, 43, 58, 95
227, 124, 80, 128
228, 19, 20, 60
229, 95, 106, 135
230, 41, 42, 96
231, 79, 119, 123
232, 80, 108, 128
233, 118, 95, 135
234, 60, 20, 86
235, 95, 58, 106
236, 43, 44, 58
237, 56, 43, 95
238, 136, 131, 144
239, 56, 95, 118
240, 73, 96, 136
241, 36, 37, 75
242, 107, 59, 133
243, 80, 74, 108
244, 71, 75, 111
245, 42, 56, 96
246, 73, 41, 96
247, 58, 87, 106
248, 20, 21, 86
249, 103, 56, 118
250, 138, 137, 146
251, 42, 43, 56
252, 96, 56, 103
253, 96, 103, 136
254, 58, 44, 87
255, 44, 45, 87
256, 98, 57, 104
257, 120, 80, 124
258, 111, 75, 138
259, 113, 73, 136
260, 137, 113, 145
261, 101, 79, 122
262, 103, 118, 131
263, 142, 139, 147
264, 119, 99, 139
265, 37, 38, 98
266, 79, 54, 119
267, 75, 37, 98
268, 76, 14, 99
269, 14, 53, 99
270, 97, 73, 113
271, 91, 71, 111
272, 136, 144, 145
273, 57, 39, 97
274, 137, 114, 146
275, 104, 113, 137
276, 98, 104, 138
277, 57, 97, 104
278, 100, 67, 121
279, 38, 39, 57
280, 12, 13, 54
281, 13, 14, 76
282, 14, 15, 53
283, 15, 16, 53
284, 119, 139, 142
285, 104, 97, 113
286, 53, 16, 93
287, 144, 112, 145
288, 38, 57, 98
289, 53, 93, 102
290, 69, 101, 122
291, 132, 111, 138
292, 125, 137, 145
293, 123, 119, 142
294, 54, 13, 76
295, 54, 79, 101
296, 77, 71, 91
