*Heading
 E:\Kn_bazis\Сетки\tube.inp
*NODE
1, 20, 0, 0
2, 30, 0, 0
3, 20, 100, 0
4, 30, 100, 0
5, 22, 100, 0
6, 24, 100, 0
7, 26, 100, 0
8, 28, 100, 0
9, 30, 98.000000000014, 0
10, 30, 96.000000000028, 0
11, 30, 94.000000000043, 0
12, 30, 92.000000000057, 0
13, 30, 90.000000000071, 0
14, 30, 88.000000000085, 0
15, 30, 86.000000000099, 0
16, 30, 84.000000000114, 0
17, 30, 82.000000000128, 0
18, 30, 80.000000000142, 0
19, 30, 78.000000000156, 0
20, 30, 76.000000000171, 0
21, 30, 74.000000000185, 0
22, 30, 72.000000000199, 0
23, 30, 70.000000000213, 0
24, 30, 68.000000000227, 0
25, 30, 66.000000000242, 0
26, 30, 64.000000000256, 0
27, 30, 62.000000000258, 0
28, 30, 60.000000000258, 0
29, 30, 58.000000000258, 0
30, 30, 56.000000000258, 0
31, 30, 54.000000000258, 0
32, 30, 52.000000000258, 0
33, 30, 50.000000000258, 0
34, 30, 48.000000000258, 0
35, 30, 46.000000000258, 0
36, 30, 44.000000000258, 0
37, 30, 42.000000000258, 0
38, 30, 40.000000000258, 0
39, 30, 38.000000000258, 0
40, 30, 36.000000000256, 0
41, 30, 34.000000000242, 0
42, 30, 32.000000000227, 0
43, 30, 30.000000000213, 0
44, 30, 28.000000000199, 0
45, 30, 26.000000000185, 0
46, 30, 24.000000000171, 0
47, 30, 22.000000000156, 0
48, 30, 20.000000000142, 0
49, 30, 18.000000000128, 0
50, 30, 16.000000000114, 0
51, 30, 14.0000000001, 0
52, 30, 12.000000000085, 0
53, 30, 10.000000000071, 0
54, 30, 8.0000000000569, 0
55, 30, 6.0000000000426, 0
56, 30, 4.0000000000284, 0
57, 30, 2.0000000000142, 0
58, 28, 0, 0
59, 26, 0, 0
60, 24, 0, 0
61, 22, 0, 0
62, 20, 1.9999999999922, 0
63, 20, 3.9999999999841, 0
64, 20, 5.9999999999756, 0
65, 20, 7.9999999999684, 0
66, 20, 9.9999999999616, 0
67, 20, 11.999999999955, 0
68, 20, 13.999999999945, 0
69, 20, 15.999999999935, 0
70, 20, 17.999999999924, 0
71, 20, 19.999999999914, 0
72, 20, 21.999999999904, 0
73, 20, 23.999999999893, 0
74, 20, 25.999999999883, 0
75, 20, 27.999999999873, 0
76, 20, 29.999999999862, 0
77, 20, 31.999999999853, 0
78, 20, 33.99999999985, 0
79, 20, 35.999999999847, 0
80, 20, 37.999999999843, 0
81, 20, 39.99999999984, 0
82, 20, 41.999999999837, 0
83, 20, 43.999999999833, 0
84, 20, 45.99999999983, 0
85, 20, 47.999999999827, 0
86, 20, 49.999999999824, 0
87, 20, 51.99999999982, 0
88, 20, 53.999999999817, 0
89, 20, 55.999999999814, 0
90, 20, 57.99999999981, 0
91, 20, 59.999999999807, 0
92, 20, 61.999999999804, 0
93, 20, 63.999999999803, 0
94, 20, 65.999999999814, 0
95, 20, 67.999999999825, 0
96, 20, 69.999999999836, 0
97, 20, 71.999999999847, 0
98, 20, 73.999999999858, 0
99, 20, 75.999999999869, 0
100, 20, 77.99999999988, 0
101, 20, 79.999999999891, 0
102, 20, 81.999999999901, 0
103, 20, 83.999999999912, 0
104, 20, 85.999999999923, 0
105, 20, 87.999999999934, 0
106, 20, 89.999999999945, 0
107, 20, 91.999999999956, 0
108, 20, 93.999999999967, 0
109, 20, 95.999999999978, 0
110, 20, 97.999999999989, 0
111, 28.000000000014, 94.000000000043, 0
112, 28.000000000014, 80.000000000142, 0
113, 28.000000000011, 90.000000000068, 0
114, 28.000000000011, 72.000000000196, 0
115, 28.000000000014, 86.000000000099, 0
116, 28.000000000011, 68.000000000224, 0
117, 28.000000000008, 64.00000000025, 0
118, 21.999999999997, 53.999999999817, 0
119, 21.999999999997, 45.99999999983, 0
120, 21.999999999997, 39.99999999984, 0
121, 21.99999999999, 17.999999999924, 0
122, 21.999999999997, 57.999999999811, 0
123, 21.999999999991, 23.999999999896, 0
124, 21.99999999999, 27.999999999873, 0
125, 21.99999999999, 11.999999999955, 0
126, 21.999999999992, 5.9999999999762, 0
127, 21.999999999994, 31.999999999856, 0
128, 21.999999999998, 61.999999999805, 0
129, 28, 54.000000000258, 0
130, 28, 44.000000000258, 0
131, 28, 40.000000000258, 0
132, 28, 50.000000000258, 0
133, 28, 60.000000000258, 0
134, 22.000000000011, 65.999999999814, 0
135, 22.000000000011, 91.999999999956, 0
136, 22.000000000011, 69.999999999836, 0
137, 22.000000000011, 75.999999999869, 0
138, 22.000000000011, 79.999999999891, 0
139, 22.000000000011, 83.999999999912, 0
140, 27.999999999992, 36.00000000025, 0
141, 27.999999999986, 18.000000000128, 0
142, 27.999999999986, 24.000000000171, 0
143, 27.999999999986, 30.000000000213, 0
144, 27.999999999986, 14.0000000001, 0
145, 27.999999999986, 10.000000000071, 0
146, 27.999999999986, 6.0000000000426, 0
147, 22, 2, 0
148, 28, 98, 0
149, 27.999999999988, 4.0000000000215, 0
150, 22.000000000011, 95.999999999978, 0
151, 26, 2, 0
152, 24, 98, 0
153, 22.000000000011, 87.999999999934, 0
154, 22.000000000011, 71.999999999847, 0
155, 27.999999999986, 22.000000000156, 0
156, 27.999999999986, 28.000000000199, 0
157, 27.999999999986, 34.000000000242, 0
158, 28, 58.000000000258, 0
159, 28, 48.000000000258, 0
160, 21.999999999997, 47.999999999827, 0
161, 21.999999999997, 49.999999999824, 0
162, 21.999999999997, 35.999999999847, 0
163, 21.999999999997, 41.999999999837, 0
164, 21.999999999993, 7.9999999999686, 0
165, 21.999999999993, 13.999999999945, 0
166, 21.99999999999, 19.999999999914, 0
167, 28.000000000014, 84.000000000114, 0
168, 28.000000000014, 78.000000000156, 0
169, 28.000000000014, 76.000000000171, 0
170, 22.000000000005, 97.999999999995, 0
171, 27.999999999995, 2.000000000007, 0
172, 26.000000000023, 80.000000000147, 0
173, 26.000000000023, 86.000000000104, 0
174, 23.999999999994, 41.999999999837, 0
175, 23.999999999994, 45.999999999829, 0
176, 23.999999999994, 47.999999999826, 0
177, 26.000000000001, 60.000000000257, 0
178, 24.000000000015, 95.999999999996, 0
179, 24.000000000017, 69.999999999841, 0
180, 23.999999999984, 17.99999999992, 0
181, 23.999999999985, 13.99999999995, 0
182, 25.999999999989, 36.000000000244, 0
183, 23.999999999988, 5.9999999999727, 0
184, 25.999999999976, 24.000000000166, 0
185, 25.999999999976, 30.000000000208, 0
186, 27.999999999991, 32.000000000233, 0
187, 21.999999999997, 63.999999999802, 0
188, 26.000000000001, 50.000000000258, 0
189, 28, 38.000000000259, 0
190, 22.000000000008, 67.999999999822, 0
191, 22.000000000008, 93.999999999965, 0
192, 22.000000000008, 77.999999999877, 0
193, 26.000000000023, 78.000000000161, 0
194, 22.000000000008, 89.999999999943, 0
195, 22.000000000008, 85.999999999921, 0
196, 22.000000000008, 73.999999999855, 0
197, 22.000000000008, 81.999999999899, 0
198, 27.999999999988, 20.000000000145, 0
199, 27.999999999988, 26.000000000187, 0
200, 27.999999999988, 16.000000000116, 0
201, 27.999999999988, 12.000000000088, 0
202, 27.999999999988, 8.0000000000592, 0
203, 21.999999999997, 59.999999999807, 0
204, 28.000000000006, 62.000000000254, 0
205, 28, 56.000000000259, 0
206, 28, 42.000000000259, 0
207, 28, 52.000000000259, 0
208, 28, 46.000000000259, 0
209, 28.00000000001, 66.00000000024, 0
210, 26.000000000001, 97.999999999999, 0
211, 21.999999999997, 43.999999999834, 0
212, 21.999999999997, 51.999999999821, 0
213, 21.999999999997, 55.999999999814, 0
214, 21.999999999997, 37.999999999844, 0
215, 23.999999999998, 2.0000000000021, 0
216, 21.999999999996, 33.999999999852, 0
217, 21.999999999994, 9.9999999999631, 0
218, 21.999999999992, 29.999999999865, 0
219, 21.99999999999, 21.999999999905, 0
220, 21.999999999992, 25.999999999885, 0
221, 28.000000000011, 92.000000000055, 0
222, 28.000000000012, 82.000000000125, 0
223, 28.000000000011, 74.000000000183, 0
224, 28.000000000012, 88.000000000083, 0
225, 28.000000000011, 70.00000000021, 0
226, 21.999999999992, 15.999999999938, 0
227, 25.999999999991, 3.999999999998, 0
228, 21.999999999995, 3.9999999999951, 0
229, 28.000000000009, 96.000000000009, 0
230, 26.000000000017, 64.000000000248, 0
231, 26.000000000023, 72.000000000191, 0
232, 26.000000000023, 90.000000000064, 0
233, 26.000000000023, 84.000000000116, 0
234, 26.000000000023, 76.000000000173, 0
235, 23.999999999994, 57.999999999811, 0
236, 23.999999999994, 53.999999999817, 0
237, 23.999999999984, 19.999999999912, 0
238, 23.999999999986, 11.999999999959, 0
239, 23.999999999989, 7.9999999999674, 0
240, 25.999999999981, 26.000000000173, 0
241, 25.999999999985, 34.000000000206, 0
242, 24.000000000017, 93.999999999997, 0
243, 23.999999999994, 39.99999999984, 0
244, 24.000000000011, 67.999999999838, 0
245, 25.99999999998, 22.000000000136, 0
246, 23.999999999995, 63.999999999803, 0
247, 25.999999999985, 32.000000000214, 0
248, 25.99999999998, 28.000000000172, 0
249, 26.000000000021, 68.000000000195, 0
250, 24.000000000016, 79.99999999998, 0
251, 26.000000000023, 94.000000000045, 0
252, 23.999999999993, 59.99999999981, 0
253, 24.000000000014, 71.999999999844, 0
254, 24.000000000014, 89.99999999995, 0
255, 24.000000000014, 73.999999999863, 0
256, 24.000000000015, 81.99999999994, 0
257, 24.000000000014, 85.999999999918, 0
258, 24.000000000014, 77.999999999875, 0
259, 25.999999999992, 45.999999999828, 0
260, 26.000000000001, 58.000000000259, 0
261, 26.000000000001, 52.000000000257, 0
262, 26.000000000001, 56.000000000257, 0
263, 25.999999999997, 48.000000000042, 0
264, 25.999999999996, 42.000000000046, 0
265, 23.999999999994, 49.999999999823, 0
266, 26.000000000001, 38.000000000258, 0
267, 26.000000000011, 62.000000000253, 0
268, 23.999999999995, 43.999999999832, 0
269, 23.999999999985, 27.999999999905, 0
270, 23.999999999994, 35.999999999846, 0
271, 23.99999999999, 31.999999999856, 0
272, 23.999999999984, 23.999999999901, 0
273, 25.999999999979, 20.000000000137, 0
274, 25.999999999979, 16.000000000119, 0
275, 25.999999999979, 12.00000000009, 0
276, 25.999999999979, 6.0000000000133, 0
277, 25.999999999979, 8.0000000000615, 0
278, 26.000000000018, 82.00000000014, 0
279, 23.999999999989, 15.999999999922, 0
280, 23.999999999994, 3.9999999999737, 0
281, 26.000000000018, 88.000000000098, 0
282, 26.000000000012, 96.000000000002, 0
283, 24.00000000002, 91.999999999973, 0
284, 24.000000000023, 65.999999999797, 0
285, 25.999999999988, 10.000000000088, 0
286, 24.000000000025, 75.999999999876, 0
287, 24.000000000025, 83.99999999992, 0
288, 24.000000000015, 87.999999999963, 0
289, 26.000000000001, 54.000000000258, 0
290, 25.999999999993, 40.000000000259, 0
291, 23.999999999994, 61.999999999806, 0
292, 23.999999999995, 55.999999999814, 0
293, 23.999999999995, 51.999999999821, 0
294, 23.999999999995, 37.999999999844, 0
295, 26.000000000019, 66.000000000237, 0
296, 23.999999999992, 9.9999999999654, 0
297, 26.000000000018, 74.00000000018, 0
298, 26.000000000018, 92.000000000052, 0
299, 25.999999999979, 18.00000000013, 0
300, 25.999999999979, 14.000000000112, 0
301, 23.999999999984, 33.999999999846, 0
302, 23.999999999977, 21.999999999914, 0
303, 23.999999999988, 25.99999999992, 0
304, 23.999999999989, 29.999999999877, 0
305, 26.000000000018, 70.000000000168, 0
306, 25.999999999993, 43.99999999983, 0
******* E L E M E N T S *************
*ELEMENT, type=T3D2, ELSET=Line1
5, 3, 5
6, 5, 6
7, 6, 7
8, 7, 8
9, 8, 4
*ELEMENT, type=T3D2, ELSET=Line2
10, 4, 9
11, 9, 10
12, 10, 11
13, 11, 12
14, 12, 13
15, 13, 14
16, 14, 15
17, 15, 16
18, 16, 17
19, 17, 18
20, 18, 19
21, 19, 20
22, 20, 21
23, 21, 22
24, 22, 23
25, 23, 24
26, 24, 25
27, 25, 26
28, 26, 27
29, 27, 28
30, 28, 29
31, 29, 30
32, 30, 31
33, 31, 32
34, 32, 33
35, 33, 34
36, 34, 35
37, 35, 36
38, 36, 37
39, 37, 38
40, 38, 39
41, 39, 40
42, 40, 41
43, 41, 42
44, 42, 43
45, 43, 44
46, 44, 45
47, 45, 46
48, 46, 47
49, 47, 48
50, 48, 49
51, 49, 50
52, 50, 51
53, 51, 52
54, 52, 53
55, 53, 54
56, 54, 55
57, 55, 56
58, 56, 57
59, 57, 2
*ELEMENT, type=T3D2, ELSET=Line3
60, 2, 58
61, 58, 59
62, 59, 60
63, 60, 61
64, 61, 1
*ELEMENT, type=T3D2, ELSET=Line4
65, 1, 62
66, 62, 63
67, 63, 64
68, 64, 65
69, 65, 66
70, 66, 67
71, 67, 68
72, 68, 69
73, 69, 70
74, 70, 71
75, 71, 72
76, 72, 73
77, 73, 74
78, 74, 75
79, 75, 76
80, 76, 77
81, 77, 78
82, 78, 79
83, 79, 80
84, 80, 81
85, 81, 82
86, 82, 83
87, 83, 84
88, 84, 85
89, 85, 86
90, 86, 87
91, 87, 88
92, 88, 89
93, 89, 90
94, 90, 91
95, 91, 92
96, 92, 93
97, 93, 94
98, 94, 95
99, 95, 96
100, 96, 97
101, 97, 98
102, 98, 99
103, 99, 100
104, 100, 101
105, 101, 102
106, 102, 103
107, 103, 104
108, 104, 105
109, 105, 106
110, 106, 107
111, 107, 108
112, 108, 109
113, 109, 110
114, 110, 3
*ELEMENT, type=CPS3, ELSET=Surface1
115, 259, 176, 263
116, 208, 259, 263
117, 250, 193, 258
118, 138, 250, 258
119, 4, 9, 8
120, 61, 1, 62
121, 276, 239, 277
122, 283, 242, 298
123, 284, 244, 295
124, 146, 276, 277
125, 191, 242, 283
126, 134, 244, 284
127, 173, 257, 288
128, 246, 230, 267
129, 241, 247, 301
130, 230, 246, 284
131, 248, 240, 269
132, 257, 153, 288
133, 241, 186, 247
134, 199, 240, 248
135, 285, 277, 296
136, 246, 267, 291
137, 267, 177, 291
138, 134, 190, 244
139, 145, 277, 285
140, 231, 253, 255
141, 245, 273, 302
142, 275, 181, 300
143, 250, 197, 256
144, 244, 249, 295
145, 253, 196, 255
146, 245, 198, 273
147, 144, 275, 300
148, 266, 182, 294
149, 138, 197, 250
150, 140, 182, 266
151, 255, 286, 297
152, 278, 256, 287
153, 149, 171, 227
154, 242, 251, 298
155, 244, 179, 249
156, 186, 143, 247
157, 135, 191, 283
158, 242, 178, 251
159, 192, 138, 258
160, 195, 153, 257
161, 246, 134, 284
162, 150, 170, 178
163, 253, 231, 305
164, 254, 232, 281
165, 172, 256, 278
166, 193, 234, 258
167, 281, 173, 288
168, 231, 255, 297
169, 256, 139, 287
170, 173, 233, 257
171, 139, 257, 287
172, 255, 137, 286
173, 137, 258, 286
174, 254, 135, 283
175, 187, 134, 246
176, 177, 252, 291
177, 235, 252, 260
178, 252, 177, 260
179, 202, 146, 277
180, 149, 57, 171
181, 9, 10, 148
182, 172, 250, 256
183, 257, 233, 287
184, 258, 234, 286
185, 232, 254, 283
186, 249, 179, 305
187, 190, 136, 244
188, 251, 178, 282
189, 191, 150, 242
190, 194, 135, 254
191, 196, 137, 255
192, 197, 139, 256
193, 43, 143, 186
194, 208, 130, 259
195, 198, 141, 273
196, 259, 130, 306
197, 274, 180, 299
198, 236, 261, 293
199, 199, 142, 240
200, 235, 260, 262
201, 235, 262, 292
202, 200, 144, 300
203, 261, 236, 289
204, 289, 236, 292
205, 264, 174, 268
206, 263, 176, 265
207, 201, 145, 285
208, 150, 110, 170
209, 188, 263, 265
210, 206, 264, 306
211, 189, 140, 266
212, 188, 265, 293
213, 174, 264, 290
214, 93, 94, 187
215, 261, 188, 293
216, 130, 206, 306
217, 40, 41, 140
218, 264, 131, 290
219, 262, 289, 292
220, 140, 41, 157
221, 264, 268, 306
222, 148, 10, 229
223, 131, 266, 290
224, 42, 43, 186
225, 171, 151, 227
226, 243, 266, 294
227, 40, 140, 189
228, 266, 243, 290
229, 140, 157, 182
230, 26, 27, 117
231, 136, 154, 179
232, 154, 196, 253
233, 142, 155, 184
234, 155, 198, 245
235, 146, 149, 276
236, 156, 199, 248
237, 57, 2, 171
238, 143, 156, 185
239, 94, 134, 187
240, 170, 152, 178
241, 96, 136, 190
242, 108, 150, 191
243, 62, 63, 147
244, 157, 41, 186
245, 100, 138, 192
246, 105, 153, 195
247, 107, 135, 194
248, 99, 137, 196
249, 102, 139, 197
250, 8, 9, 148
251, 48, 141, 198
252, 141, 274, 299
253, 45, 142, 199
254, 51, 144, 200
255, 157, 186, 241
256, 53, 145, 201
257, 54, 146, 202
258, 110, 3, 170
259, 179, 253, 305
260, 254, 281, 288
261, 95, 96, 190
262, 153, 194, 288
263, 137, 192, 258
264, 98, 99, 196
265, 139, 195, 257
266, 104, 105, 195
267, 106, 107, 194
268, 185, 248, 304
269, 147, 63, 228
270, 240, 184, 303
271, 184, 245, 272
272, 237, 219, 302
273, 237, 273, 299
274, 50, 51, 200
275, 279, 274, 300
276, 2, 58, 171
277, 141, 200, 274
278, 52, 53, 201
279, 144, 201, 275
280, 145, 202, 277
281, 151, 215, 280
282, 143, 185, 247
283, 227, 183, 276
284, 136, 179, 244
285, 26, 117, 209
286, 134, 94, 190
287, 146, 56, 149
288, 225, 116, 305
289, 221, 113, 298
290, 135, 107, 191
291, 136, 97, 154
292, 154, 97, 196
293, 138, 101, 197
294, 137, 99, 192
295, 194, 254, 288
296, 139, 103, 195
297, 167, 222, 278
298, 223, 114, 297
299, 153, 105, 194
300, 179, 154, 253
301, 165, 226, 279
302, 247, 185, 271
303, 155, 47, 198
304, 142, 47, 155
305, 184, 155, 245
306, 273, 141, 299
307, 274, 200, 300
308, 142, 184, 240
309, 220, 124, 303
310, 141, 49, 200
311, 156, 44, 199
312, 185, 156, 248
313, 143, 44, 156
314, 178, 210, 282
315, 3, 5, 170
316, 5, 6, 170
317, 144, 51, 201
318, 61, 62, 147
319, 145, 53, 202
320, 275, 201, 285
321, 227, 151, 280
322, 207, 261, 289
323, 178, 152, 210
324, 27, 28, 204
325, 10, 11, 229
326, 216, 162, 301
327, 58, 151, 171
328, 41, 42, 186
329, 204, 133, 267
330, 8, 148, 210
331, 260, 205, 262
332, 28, 133, 204
333, 77, 78, 127
334, 6, 152, 170
335, 148, 229, 282
336, 230, 204, 267
337, 61, 147, 215
338, 92, 128, 203
339, 162, 270, 301
340, 39, 40, 189
341, 56, 57, 149
342, 116, 249, 305
343, 94, 95, 190
344, 182, 241, 270
345, 209, 117, 295
346, 108, 109, 150
347, 109, 110, 150
348, 107, 108, 191
349, 105, 106, 194
350, 97, 98, 196
351, 100, 101, 138
352, 113, 232, 298
353, 99, 100, 192
354, 101, 102, 197
355, 102, 103, 139
356, 103, 104, 195
357, 96, 97, 136
358, 114, 231, 297
359, 233, 167, 278
360, 230, 284, 295
361, 48, 49, 141
362, 47, 48, 198
363, 181, 165, 279
364, 45, 46, 142
365, 46, 47, 142
366, 44, 45, 199
367, 63, 64, 228
368, 60, 61, 215
369, 133, 177, 267
370, 150, 178, 242
371, 49, 50, 200
372, 124, 269, 303
373, 43, 44, 143
374, 51, 52, 201
375, 203, 128, 252
376, 53, 54, 202
377, 54, 55, 146
378, 55, 56, 146
379, 7, 8, 210
380, 117, 204, 230
381, 205, 129, 262
382, 133, 158, 177
383, 206, 131, 264
384, 11, 111, 229
385, 207, 132, 261
386, 25, 26, 209
387, 128, 92, 187
388, 158, 205, 260
389, 149, 227, 276
390, 235, 203, 252
391, 247, 271, 301
392, 229, 251, 282
393, 30, 129, 205
394, 132, 159, 188
395, 159, 208, 263
396, 129, 207, 289
397, 286, 234, 297
398, 233, 278, 287
399, 14, 15, 224
400, 23, 24, 225
401, 21, 22, 223
402, 12, 13, 221
403, 273, 237, 302
404, 272, 245, 302
405, 72, 73, 219
406, 74, 75, 220
407, 38, 131, 206
408, 232, 283, 298
409, 35, 130, 208
410, 33, 132, 207
411, 182, 157, 241
412, 238, 285, 296
413, 133, 28, 158
414, 218, 127, 304
415, 37, 38, 206
416, 32, 33, 207
417, 66, 67, 125
418, 158, 29, 205
419, 92, 93, 187
420, 152, 7, 210
421, 91, 92, 203
422, 177, 158, 260
423, 132, 33, 159
424, 213, 122, 292
425, 159, 34, 208
426, 130, 36, 206
427, 132, 188, 261
428, 188, 159, 263
429, 129, 31, 207
430, 163, 211, 268
431, 262, 129, 289
432, 270, 241, 301
433, 243, 174, 290
434, 28, 29, 158
435, 122, 91, 203
436, 210, 148, 282
437, 29, 30, 205
438, 122, 235, 292
439, 80, 81, 214
440, 30, 31, 129
441, 34, 35, 208
442, 33, 34, 159
443, 151, 60, 215
444, 35, 36, 130
445, 36, 37, 206
446, 31, 32, 207
447, 174, 163, 268
448, 76, 77, 218
449, 122, 203, 235
450, 131, 38, 189
451, 64, 126, 228
452, 83, 84, 211
453, 89, 90, 213
454, 131, 189, 266
455, 214, 243, 294
456, 81, 120, 214
457, 78, 79, 216
458, 147, 228, 280
459, 77, 127, 218
460, 38, 39, 189
461, 214, 120, 243
462, 236, 213, 292
463, 84, 119, 211
464, 211, 175, 268
465, 212, 236, 293
466, 268, 259, 306
467, 87, 118, 212
468, 161, 87, 212
469, 118, 89, 213
470, 265, 212, 293
471, 163, 83, 211
472, 90, 122, 213
473, 162, 80, 214
474, 270, 214, 294
475, 187, 246, 291
476, 127, 78, 216
477, 128, 187, 291
478, 85, 86, 160
479, 87, 88, 118
480, 119, 160, 176
481, 90, 91, 122
482, 160, 161, 265
483, 81, 82, 120
484, 212, 118, 236
485, 118, 213, 236
486, 175, 176, 259
487, 120, 174, 243
488, 86, 87, 161
489, 88, 89, 118
490, 161, 212, 265
491, 82, 83, 163
492, 119, 175, 211
493, 84, 85, 119
494, 120, 163, 174
495, 175, 259, 268
496, 252, 128, 291
497, 66, 125, 217
498, 117, 27, 204
499, 79, 162, 216
500, 79, 80, 162
501, 164, 66, 217
502, 162, 214, 270
503, 119, 85, 160
504, 175, 119, 176
505, 120, 82, 163
506, 176, 160, 265
507, 160, 86, 161
508, 117, 230, 295
509, 249, 209, 295
510, 116, 25, 209
511, 217, 238, 296
512, 64, 65, 126
513, 69, 121, 226
514, 228, 183, 280
515, 269, 218, 304
516, 65, 66, 164
517, 239, 217, 296
518, 231, 225, 305
519, 165, 69, 226
520, 166, 72, 219
521, 73, 123, 219
522, 123, 74, 220
523, 75, 124, 220
524, 238, 275, 285
525, 251, 221, 298
526, 272, 220, 303
527, 17, 112, 222
528, 125, 165, 238
529, 234, 223, 297
530, 167, 17, 222
531, 169, 21, 223
532, 232, 224, 281
533, 113, 14, 224
534, 114, 23, 225
535, 224, 173, 281
536, 15, 115, 224
537, 24, 116, 225
538, 222, 172, 278
539, 22, 114, 223
540, 111, 12, 221
541, 226, 180, 279
542, 13, 113, 221
543, 182, 270, 294
544, 126, 164, 239
545, 6, 7, 152
546, 127, 216, 301
547, 124, 76, 218
548, 67, 68, 165
549, 58, 59, 151
550, 59, 60, 151
551, 217, 125, 238
552, 164, 217, 239
553, 73, 74, 123
554, 70, 71, 121
555, 69, 70, 121
556, 166, 219, 237
557, 75, 76, 124
558, 123, 220, 272
559, 71, 72, 166
560, 121, 166, 237
561, 11, 12, 111
562, 17, 18, 112
563, 168, 169, 234
564, 112, 168, 193
565, 19, 20, 168
566, 18, 19, 168
567, 114, 225, 231
568, 20, 21, 169
569, 112, 172, 222
570, 16, 17, 167
571, 13, 14, 113
572, 22, 23, 114
573, 115, 173, 224
574, 169, 223, 234
575, 15, 16, 115
576, 24, 25, 116
577, 172, 193, 250
578, 113, 224, 232
579, 115, 167, 233
580, 116, 209, 249
581, 111, 221, 251
582, 121, 180, 226
583, 68, 69, 165
584, 124, 218, 269
585, 271, 127, 301
586, 126, 65, 164
587, 127, 271, 304
588, 126, 183, 228
589, 165, 181, 238
590, 215, 147, 280
591, 183, 126, 239
592, 229, 111, 251
593, 183, 227, 280
594, 125, 67, 165
595, 121, 71, 166
596, 123, 272, 302
597, 180, 121, 237
598, 172, 112, 193
599, 193, 168, 234
600, 112, 18, 168
601, 168, 20, 169
602, 115, 16, 167
603, 173, 115, 233
604, 248, 269, 304
605, 277, 239, 296
606, 269, 240, 303
607, 180, 274, 279
608, 184, 272, 303
609, 180, 237, 299
610, 183, 239, 276
611, 181, 279, 300
612, 238, 181, 275
613, 219, 123, 302
614, 271, 185, 304
