*Heading
 C:\Users\lev\Desktop\Bazis обучение\test\box
*NODE
1, 0, 0, 0
2, 50, 0, 0
3, 50, 50, 0
4, 0, 50, 0
5, 0, 0, 50
6, 50, 0, 50
7, 50, 50, 50
8, 0, 50, 50
9, 0, 0, 44.444444444484
10, 0, 0, 38.888888888968
11, 0, 0, 33.333333333452
12, 0, 0, 27.777777777907
13, 0, 0, 22.222222222351
14, 0, 0, 16.666666666785
15, 0, 0, 11.11111111119
16, 0, 0, 5.555555555595
17, 50, 0, 44.444444444484
18, 50, 0, 38.888888888968
19, 50, 0, 33.333333333452
20, 50, 0, 27.777777777907
21, 50, 0, 22.222222222351
22, 50, 0, 16.666666666785
23, 50, 0, 11.11111111119
24, 50, 0, 5.555555555595
25, 5.5555555555344, 0, 50
26, 11.111111111062, 0, 50
27, 16.666666666592, 0, 50
28, 22.222222222139, 0, 50
29, 27.777777777685, 0, 50
30, 33.333333333242, 0, 50
31, 38.888888888828, 0, 50
32, 44.444444444414, 0, 50
33, 5.5555555555344, 0, 0
34, 11.111111111062, 0, 0
35, 16.666666666592, 0, 0
36, 22.222222222139, 0, 0
37, 27.777777777685, 0, 0
38, 33.333333333242, 0, 0
39, 38.888888888828, 0, 0
40, 44.444444444414, 0, 0
41, 5.5555555555344, 50, 50
42, 11.111111111062, 50, 50
43, 16.666666666592, 50, 50
44, 22.222222222139, 50, 50
45, 27.777777777685, 50, 50
46, 33.333333333242, 50, 50
47, 38.888888888828, 50, 50
48, 44.444444444414, 50, 50
49, 5.5555555555344, 50, 0
50, 11.111111111062, 50, 0
51, 16.666666666592, 50, 0
52, 22.222222222139, 50, 0
53, 27.777777777685, 50, 0
54, 33.333333333242, 50, 0
55, 38.888888888828, 50, 0
56, 44.444444444414, 50, 0
57, 50, 50, 44.444444444484
58, 50, 50, 38.888888888968
59, 50, 50, 33.333333333452
60, 50, 50, 27.777777777907
61, 50, 50, 22.222222222351
62, 50, 50, 16.666666666785
63, 50, 50, 11.11111111119
64, 50, 50, 5.555555555595
65, 0, 50, 44.444444444484
66, 0, 50, 38.888888888968
67, 0, 50, 33.333333333452
68, 0, 50, 27.777777777907
69, 0, 50, 22.222222222351
70, 0, 50, 16.666666666785
71, 0, 50, 11.11111111119
72, 0, 50, 5.555555555595
73, 0, 5.5555555555344, 50
74, 0, 11.111111111062, 50
75, 0, 16.666666666592, 50
76, 0, 22.222222222139, 50
77, 0, 27.777777777685, 50
78, 0, 33.333333333242, 50
79, 0, 38.888888888828, 50
80, 0, 44.444444444414, 50
81, 50, 5.5555555555344, 0
82, 50, 11.111111111062, 0
83, 50, 16.666666666592, 0
84, 50, 22.222222222139, 0
85, 50, 27.777777777685, 0
86, 50, 33.333333333242, 0
87, 50, 38.888888888828, 0
88, 50, 44.444444444414, 0
89, 0, 5.5555555555344, 0
90, 0, 11.111111111062, 0
91, 0, 16.666666666592, 0
92, 0, 22.222222222139, 0
93, 0, 27.777777777685, 0
94, 0, 33.333333333242, 0
95, 0, 38.888888888828, 0
96, 0, 44.444444444414, 0
97, 50, 5.5555555555344, 50
98, 50, 11.111111111062, 50
99, 50, 16.666666666592, 50
100, 50, 22.222222222139, 50
101, 50, 27.777777777685, 50
102, 50, 33.333333333242, 50
103, 50, 38.888888888828, 50
104, 50, 44.444444444414, 50
105, 5.5555555555344, 0, 44.444444444484
106, 5.5555555555344, 0, 38.888888888968
107, 5.5555555555344, 0, 33.333333333452
108, 5.5555555555344, 0, 27.777777777907
109, 5.5555555555344, 0, 22.222222222351
110, 5.5555555555344, 0, 16.666666666785
111, 5.5555555555344, 0, 11.11111111119
112, 5.5555555555344, 0, 5.555555555595
113, 11.111111111062, 0, 44.444444444484
114, 11.111111111062, 0, 38.888888888968
115, 11.111111111062, 0, 33.333333333452
116, 11.111111111062, 0, 27.777777777907
117, 11.111111111062, 0, 22.222222222351
118, 11.111111111062, 0, 16.666666666785
119, 11.111111111062, 0, 11.11111111119
120, 11.111111111062, 0, 5.555555555595
121, 16.666666666592, 0, 44.444444444484
122, 16.666666666592, 0, 38.888888888968
123, 16.666666666592, 0, 33.333333333452
124, 16.666666666592, 0, 27.777777777907
125, 16.666666666592, 0, 22.222222222351
126, 16.666666666592, 0, 16.666666666785
127, 16.666666666592, 0, 11.11111111119
128, 16.666666666592, 0, 5.555555555595
129, 22.222222222139, 0, 44.444444444484
130, 22.222222222139, 0, 38.888888888968
131, 22.222222222139, 0, 33.333333333452
132, 22.222222222139, 0, 27.777777777907
133, 22.222222222139, 0, 22.222222222351
134, 22.222222222139, 0, 16.666666666785
135, 22.222222222139, 0, 11.11111111119
136, 22.222222222139, 0, 5.555555555595
137, 27.777777777685, 0, 44.444444444484
138, 27.777777777685, 0, 38.888888888968
139, 27.777777777685, 0, 33.333333333452
140, 27.777777777685, 0, 27.777777777907
141, 27.777777777685, 0, 22.222222222351
142, 27.777777777685, 0, 16.666666666785
143, 27.777777777685, 0, 11.11111111119
144, 27.777777777685, 0, 5.555555555595
145, 33.333333333242, 0, 44.444444444484
146, 33.333333333242, 0, 38.888888888968
147, 33.333333333242, 0, 33.333333333452
148, 33.333333333242, 0, 27.777777777907
149, 33.333333333242, 0, 22.222222222351
150, 33.333333333242, 0, 16.666666666785
151, 33.333333333242, 0, 11.11111111119
152, 33.333333333242, 0, 5.555555555595
153, 38.888888888828, 0, 44.444444444484
154, 38.888888888828, 0, 38.888888888968
155, 38.888888888828, 0, 33.333333333452
156, 38.888888888828, 0, 27.777777777907
157, 38.888888888828, 0, 22.222222222351
158, 38.888888888828, 0, 16.666666666785
159, 38.888888888828, 0, 11.11111111119
160, 38.888888888828, 0, 5.555555555595
161, 44.444444444414, 0, 44.444444444484
162, 44.444444444414, 0, 38.888888888968
163, 44.444444444414, 0, 33.333333333452
164, 44.444444444414, 0, 27.777777777907
165, 44.444444444414, 0, 22.222222222351
166, 44.444444444414, 0, 16.666666666785
167, 44.444444444414, 0, 11.11111111119
168, 44.444444444414, 0, 5.555555555595
169, 50, 5.5555555555344, 44.444444444484
170, 50, 11.111111111062, 44.444444444484
171, 50, 16.666666666592, 44.444444444484
172, 50, 22.222222222139, 44.444444444484
173, 50, 27.777777777685, 44.444444444484
174, 50, 33.333333333242, 44.444444444484
175, 50, 38.888888888828, 44.444444444484
176, 50, 44.444444444414, 44.444444444484
177, 50, 5.5555555555344, 38.888888888968
178, 50, 11.111111111062, 38.888888888968
179, 50, 16.666666666592, 38.888888888968
180, 50, 22.222222222139, 38.888888888968
181, 50, 27.777777777685, 38.888888888968
182, 50, 33.333333333242, 38.888888888968
183, 50, 38.888888888828, 38.888888888968
184, 50, 44.444444444414, 38.888888888968
185, 50, 5.5555555555344, 33.333333333452
186, 50, 11.111111111062, 33.333333333452
187, 50, 16.666666666592, 33.333333333452
188, 50, 22.222222222139, 33.333333333452
189, 50, 27.777777777685, 33.333333333452
190, 50, 33.333333333242, 33.333333333452
191, 50, 38.888888888828, 33.333333333452
192, 50, 44.444444444414, 33.333333333452
193, 50, 5.5555555555344, 27.777777777907
194, 50, 11.111111111062, 27.777777777907
195, 50, 16.666666666592, 27.777777777907
196, 50, 22.222222222139, 27.777777777907
197, 50, 27.777777777685, 27.777777777907
198, 50, 33.333333333242, 27.777777777907
199, 50, 38.888888888828, 27.777777777907
200, 50, 44.444444444414, 27.777777777907
201, 50, 5.5555555555344, 22.222222222351
202, 50, 11.111111111062, 22.222222222351
203, 50, 16.666666666592, 22.222222222351
204, 50, 22.222222222139, 22.222222222351
205, 50, 27.777777777685, 22.222222222351
206, 50, 33.333333333242, 22.222222222351
207, 50, 38.888888888828, 22.222222222351
208, 50, 44.444444444414, 22.222222222351
209, 50, 5.5555555555344, 16.666666666785
210, 50, 11.111111111062, 16.666666666785
211, 50, 16.666666666592, 16.666666666785
212, 50, 22.222222222139, 16.666666666785
213, 50, 27.777777777685, 16.666666666785
214, 50, 33.333333333242, 16.666666666785
215, 50, 38.888888888828, 16.666666666785
216, 50, 44.444444444414, 16.666666666785
217, 50, 5.5555555555344, 11.11111111119
218, 50, 11.111111111062, 11.11111111119
219, 50, 16.666666666592, 11.11111111119
220, 50, 22.222222222139, 11.11111111119
221, 50, 27.777777777685, 11.11111111119
222, 50, 33.333333333242, 11.11111111119
223, 50, 38.888888888828, 11.11111111119
224, 50, 44.444444444414, 11.11111111119
225, 50, 5.5555555555344, 5.555555555595
226, 50, 11.111111111062, 5.555555555595
227, 50, 16.666666666592, 5.555555555595
228, 50, 22.222222222139, 5.555555555595
229, 50, 27.777777777685, 5.555555555595
230, 50, 33.333333333242, 5.555555555595
231, 50, 38.888888888828, 5.555555555595
232, 50, 44.444444444414, 5.555555555595
233, 5.5555555555344, 50, 5.555555555595
234, 5.5555555555344, 50, 11.11111111119
235, 5.5555555555344, 50, 16.666666666785
236, 5.5555555555344, 50, 22.222222222351
237, 5.5555555555344, 50, 27.777777777907
238, 5.5555555555344, 50, 33.333333333452
239, 5.5555555555344, 50, 38.888888888968
240, 5.5555555555344, 50, 44.444444444484
241, 11.111111111062, 50, 5.555555555595
242, 11.111111111062, 50, 11.11111111119
243, 11.111111111062, 50, 16.666666666785
244, 11.111111111062, 50, 22.222222222351
245, 11.111111111062, 50, 27.777777777907
246, 11.111111111062, 50, 33.333333333452
247, 11.111111111062, 50, 38.888888888968
248, 11.111111111062, 50, 44.444444444484
249, 16.666666666592, 50, 5.555555555595
250, 16.666666666592, 50, 11.11111111119
251, 16.666666666592, 50, 16.666666666785
252, 16.666666666592, 50, 22.222222222351
253, 16.666666666592, 50, 27.777777777907
254, 16.666666666592, 50, 33.333333333452
255, 16.666666666592, 50, 38.888888888968
256, 16.666666666592, 50, 44.444444444484
257, 22.222222222139, 50, 5.555555555595
258, 22.222222222139, 50, 11.11111111119
259, 22.222222222139, 50, 16.666666666785
260, 22.222222222139, 50, 22.222222222351
261, 22.222222222139, 50, 27.777777777907
262, 22.222222222139, 50, 33.333333333452
263, 22.222222222139, 50, 38.888888888968
264, 22.222222222139, 50, 44.444444444484
265, 27.777777777685, 50, 5.555555555595
266, 27.777777777685, 50, 11.11111111119
267, 27.777777777685, 50, 16.666666666785
268, 27.777777777685, 50, 22.222222222351
269, 27.777777777685, 50, 27.777777777907
270, 27.777777777685, 50, 33.333333333452
271, 27.777777777685, 50, 38.888888888968
272, 27.777777777685, 50, 44.444444444484
273, 33.333333333242, 50, 5.555555555595
274, 33.333333333242, 50, 11.11111111119
275, 33.333333333242, 50, 16.666666666785
276, 33.333333333242, 50, 22.222222222351
277, 33.333333333242, 50, 27.777777777907
278, 33.333333333242, 50, 33.333333333452
279, 33.333333333242, 50, 38.888888888968
280, 33.333333333242, 50, 44.444444444484
281, 38.888888888828, 50, 5.555555555595
282, 38.888888888828, 50, 11.11111111119
283, 38.888888888828, 50, 16.666666666785
284, 38.888888888828, 50, 22.222222222351
285, 38.888888888828, 50, 27.777777777907
286, 38.888888888828, 50, 33.333333333452
287, 38.888888888828, 50, 38.888888888968
288, 38.888888888828, 50, 44.444444444484
289, 44.444444444414, 50, 5.555555555595
290, 44.444444444414, 50, 11.11111111119
291, 44.444444444414, 50, 16.666666666785
292, 44.444444444414, 50, 22.222222222351
293, 44.444444444414, 50, 27.777777777907
294, 44.444444444414, 50, 33.333333333452
295, 44.444444444414, 50, 38.888888888968
296, 44.444444444414, 50, 44.444444444484
297, 0, 44.444444444414, 44.444444444484
298, 0, 38.888888888828, 44.444444444484
299, 0, 33.333333333242, 44.444444444484
300, 0, 27.777777777685, 44.444444444484
301, 0, 22.222222222139, 44.444444444484
302, 0, 16.666666666592, 44.444444444484
303, 0, 11.111111111062, 44.444444444484
304, 0, 5.5555555555344, 44.444444444484
305, 0, 44.444444444414, 38.888888888968
306, 0, 38.888888888828, 38.888888888968
307, 0, 33.333333333242, 38.888888888968
308, 0, 27.777777777685, 38.888888888968
309, 0, 22.222222222139, 38.888888888968
310, 0, 16.666666666592, 38.888888888968
311, 0, 11.111111111062, 38.888888888968
312, 0, 5.5555555555344, 38.888888888968
313, 0, 44.444444444414, 33.333333333452
314, 0, 38.888888888828, 33.333333333452
315, 0, 33.333333333242, 33.333333333452
316, 0, 27.777777777685, 33.333333333452
317, 0, 22.222222222139, 33.333333333452
318, 0, 16.666666666592, 33.333333333452
319, 0, 11.111111111062, 33.333333333452
320, 0, 5.5555555555344, 33.333333333452
321, 0, 44.444444444414, 27.777777777907
322, 0, 38.888888888828, 27.777777777907
323, 0, 33.333333333242, 27.777777777907
324, 0, 27.777777777685, 27.777777777907
325, 0, 22.222222222139, 27.777777777907
326, 0, 16.666666666592, 27.777777777907
327, 0, 11.111111111062, 27.777777777907
328, 0, 5.5555555555344, 27.777777777907
329, 0, 44.444444444414, 22.222222222351
330, 0, 38.888888888828, 22.222222222351
331, 0, 33.333333333242, 22.222222222351
332, 0, 27.777777777685, 22.222222222351
333, 0, 22.222222222139, 22.222222222351
334, 0, 16.666666666592, 22.222222222351
335, 0, 11.111111111062, 22.222222222351
336, 0, 5.5555555555344, 22.222222222351
337, 0, 44.444444444414, 16.666666666785
338, 0, 38.888888888828, 16.666666666785
339, 0, 33.333333333242, 16.666666666785
340, 0, 27.777777777685, 16.666666666785
341, 0, 22.222222222139, 16.666666666785
342, 0, 16.666666666592, 16.666666666785
343, 0, 11.111111111062, 16.666666666785
344, 0, 5.5555555555344, 16.666666666785
345, 0, 44.444444444414, 11.11111111119
346, 0, 38.888888888828, 11.11111111119
347, 0, 33.333333333242, 11.11111111119
348, 0, 27.777777777685, 11.11111111119
349, 0, 22.222222222139, 11.11111111119
350, 0, 16.666666666592, 11.11111111119
351, 0, 11.111111111062, 11.11111111119
352, 0, 5.5555555555344, 11.11111111119
353, 0, 44.444444444414, 5.555555555595
354, 0, 38.888888888828, 5.555555555595
355, 0, 33.333333333242, 5.555555555595
356, 0, 27.777777777685, 5.555555555595
357, 0, 22.222222222139, 5.555555555595
358, 0, 16.666666666592, 5.555555555595
359, 0, 11.111111111062, 5.555555555595
360, 0, 5.5555555555344, 5.555555555595
361, 5.5555555555344, 5.5555555555344, 50
362, 5.5555555555344, 11.111111111062, 50
363, 5.5555555555344, 16.666666666592, 50
364, 5.5555555555344, 22.222222222139, 50
365, 5.5555555555344, 27.777777777685, 50
366, 5.5555555555344, 33.333333333242, 50
367, 5.5555555555344, 38.888888888828, 50
368, 5.5555555555344, 44.444444444414, 50
369, 11.111111111062, 5.5555555555344, 50
370, 11.111111111062, 11.111111111062, 50
371, 11.111111111062, 16.666666666592, 50
372, 11.111111111062, 22.222222222139, 50
373, 11.111111111062, 27.777777777685, 50
374, 11.111111111062, 33.333333333242, 50
375, 11.111111111062, 38.888888888828, 50
376, 11.111111111062, 44.444444444414, 50
377, 16.666666666592, 5.5555555555344, 50
378, 16.666666666592, 11.111111111062, 50
379, 16.666666666592, 16.666666666592, 50
380, 16.666666666592, 22.222222222139, 50
381, 16.666666666592, 27.777777777685, 50
382, 16.666666666592, 33.333333333242, 50
383, 16.666666666592, 38.888888888828, 50
384, 16.666666666592, 44.444444444414, 50
385, 22.222222222139, 5.5555555555344, 50
386, 22.222222222139, 11.111111111062, 50
387, 22.222222222139, 16.666666666592, 50
388, 22.222222222139, 22.222222222139, 50
389, 22.222222222139, 27.777777777685, 50
390, 22.222222222139, 33.333333333242, 50
391, 22.222222222139, 38.888888888828, 50
392, 22.222222222139, 44.444444444414, 50
393, 27.777777777685, 5.5555555555344, 50
394, 27.777777777685, 11.111111111062, 50
395, 27.777777777685, 16.666666666592, 50
396, 27.777777777685, 22.222222222139, 50
397, 27.777777777685, 27.777777777685, 50
398, 27.777777777685, 33.333333333242, 50
399, 27.777777777685, 38.888888888828, 50
400, 27.777777777685, 44.444444444414, 50
401, 33.333333333242, 5.5555555555344, 50
402, 33.333333333242, 11.111111111062, 50
403, 33.333333333242, 16.666666666592, 50
404, 33.333333333242, 22.222222222139, 50
405, 33.333333333242, 27.777777777685, 50
406, 33.333333333242, 33.333333333242, 50
407, 33.333333333242, 38.888888888828, 50
408, 33.333333333242, 44.444444444414, 50
409, 38.888888888828, 5.5555555555344, 50
410, 38.888888888828, 11.111111111062, 50
411, 38.888888888828, 16.666666666592, 50
412, 38.888888888828, 22.222222222139, 50
413, 38.888888888828, 27.777777777685, 50
414, 38.888888888828, 33.333333333242, 50
415, 38.888888888828, 38.888888888828, 50
416, 38.888888888828, 44.444444444414, 50
417, 44.444444444414, 5.5555555555344, 50
418, 44.444444444414, 11.111111111062, 50
419, 44.444444444414, 16.666666666592, 50
420, 44.444444444414, 22.222222222139, 50
421, 44.444444444414, 27.777777777685, 50
422, 44.444444444414, 33.333333333242, 50
423, 44.444444444414, 38.888888888828, 50
424, 44.444444444414, 44.444444444414, 50
425, 5.5555555555344, 44.444444444414, 0
426, 5.5555555555344, 38.888888888828, 0
427, 5.5555555555344, 33.333333333242, 0
428, 5.5555555555344, 27.777777777685, 0
429, 5.5555555555344, 22.222222222139, 0
430, 5.5555555555344, 16.666666666592, 0
431, 5.5555555555344, 11.111111111062, 0
432, 5.5555555555344, 5.5555555555344, 0
433, 11.111111111062, 44.444444444414, 0
434, 11.111111111062, 38.888888888828, 0
435, 11.111111111062, 33.333333333242, 0
436, 11.111111111062, 27.777777777685, 0
437, 11.111111111062, 22.222222222139, 0
438, 11.111111111062, 16.666666666592, 0
439, 11.111111111062, 11.111111111062, 0
440, 11.111111111062, 5.5555555555344, 0
441, 16.666666666592, 44.444444444414, 0
442, 16.666666666592, 38.888888888828, 0
443, 16.666666666592, 33.333333333242, 0
444, 16.666666666592, 27.777777777685, 0
445, 16.666666666592, 22.222222222139, 0
446, 16.666666666592, 16.666666666592, 0
447, 16.666666666592, 11.111111111062, 0
448, 16.666666666592, 5.5555555555344, 0
449, 22.222222222139, 44.444444444414, 0
450, 22.222222222139, 38.888888888828, 0
451, 22.222222222139, 33.333333333242, 0
452, 22.222222222139, 27.777777777685, 0
453, 22.222222222139, 22.222222222139, 0
454, 22.222222222139, 16.666666666592, 0
455, 22.222222222139, 11.111111111062, 0
456, 22.222222222139, 5.5555555555344, 0
457, 27.777777777685, 44.444444444414, 0
458, 27.777777777685, 38.888888888828, 0
459, 27.777777777685, 33.333333333242, 0
460, 27.777777777685, 27.777777777685, 0
461, 27.777777777685, 22.222222222139, 0
462, 27.777777777685, 16.666666666592, 0
463, 27.777777777685, 11.111111111062, 0
464, 27.777777777685, 5.5555555555344, 0
465, 33.333333333242, 44.444444444414, 0
466, 33.333333333242, 38.888888888828, 0
467, 33.333333333242, 33.333333333242, 0
468, 33.333333333242, 27.777777777685, 0
469, 33.333333333242, 22.222222222139, 0
470, 33.333333333242, 16.666666666592, 0
471, 33.333333333242, 11.111111111062, 0
472, 33.333333333242, 5.5555555555344, 0
473, 38.888888888828, 44.444444444414, 0
474, 38.888888888828, 38.888888888828, 0
475, 38.888888888828, 33.333333333242, 0
476, 38.888888888828, 27.777777777685, 0
477, 38.888888888828, 22.222222222139, 0
478, 38.888888888828, 16.666666666592, 0
479, 38.888888888828, 11.111111111062, 0
480, 38.888888888828, 5.5555555555344, 0
481, 44.444444444414, 44.444444444414, 0
482, 44.444444444414, 38.888888888828, 0
483, 44.444444444414, 33.333333333242, 0
484, 44.444444444414, 27.777777777685, 0
485, 44.444444444414, 22.222222222139, 0
486, 44.444444444414, 16.666666666592, 0
487, 44.444444444414, 11.111111111062, 0
488, 44.444444444414, 5.5555555555344, 0
489, 5.5555555555344, 5.5555555555344, 44.444444444484
490, 5.5555555555344, 5.5555555555344, 38.888888888968
491, 5.5555555555344, 5.5555555555344, 33.333333333452
492, 5.5555555555344, 5.5555555555344, 27.777777777907
493, 5.5555555555344, 5.5555555555344, 22.222222222351
494, 5.5555555555344, 5.5555555555344, 16.666666666785
495, 5.5555555555344, 5.5555555555344, 11.11111111119
496, 5.5555555555344, 5.5555555555344, 5.555555555595
497, 5.5555555555344, 11.111111111062, 44.444444444484
498, 5.5555555555344, 11.111111111062, 38.888888888968
499, 5.5555555555344, 11.111111111062, 33.333333333452
500, 5.5555555555344, 11.111111111062, 27.777777777907
501, 5.5555555555344, 11.111111111062, 22.222222222351
502, 5.5555555555344, 11.111111111062, 16.666666666785
503, 5.5555555555344, 11.111111111062, 11.11111111119
504, 5.5555555555344, 11.111111111062, 5.555555555595
505, 5.5555555555344, 16.666666666592, 44.444444444484
506, 5.5555555555344, 16.666666666592, 38.888888888968
507, 5.5555555555344, 16.666666666592, 33.333333333452
508, 5.5555555555344, 16.666666666592, 27.777777777907
509, 5.5555555555344, 16.666666666592, 22.222222222351
510, 5.5555555555344, 16.666666666592, 16.666666666785
511, 5.5555555555344, 16.666666666592, 11.11111111119
512, 5.5555555555344, 16.666666666592, 5.555555555595
513, 5.5555555555344, 22.222222222139, 44.444444444484
514, 5.5555555555344, 22.222222222139, 38.888888888968
515, 5.5555555555344, 22.222222222139, 33.333333333452
516, 5.5555555555344, 22.222222222139, 27.777777777907
517, 5.5555555555344, 22.222222222139, 22.222222222351
518, 5.5555555555344, 22.222222222139, 16.666666666785
519, 5.5555555555344, 22.222222222139, 11.11111111119
520, 5.5555555555344, 22.222222222139, 5.555555555595
521, 5.5555555555344, 27.777777777685, 44.444444444484
522, 5.5555555555344, 27.777777777685, 38.888888888968
523, 5.5555555555344, 27.777777777685, 33.333333333452
524, 5.5555555555344, 27.777777777685, 27.777777777907
525, 5.5555555555344, 27.777777777685, 22.222222222351
526, 5.5555555555344, 27.777777777685, 16.666666666785
527, 5.5555555555344, 27.777777777685, 11.11111111119
528, 5.5555555555344, 27.777777777685, 5.555555555595
529, 5.5555555555344, 33.333333333242, 44.444444444484
530, 5.5555555555344, 33.333333333242, 38.888888888968
531, 5.5555555555344, 33.333333333242, 33.333333333452
532, 5.5555555555344, 33.333333333242, 27.777777777907
533, 5.5555555555344, 33.333333333242, 22.222222222351
534, 5.5555555555344, 33.333333333242, 16.666666666785
535, 5.5555555555344, 33.333333333242, 11.11111111119
536, 5.5555555555344, 33.333333333242, 5.555555555595
537, 5.5555555555344, 38.888888888828, 44.444444444484
538, 5.5555555555344, 38.888888888828, 38.888888888968
539, 5.5555555555344, 38.888888888828, 33.333333333452
540, 5.5555555555344, 38.888888888828, 27.777777777907
541, 5.5555555555344, 38.888888888828, 22.222222222351
542, 5.5555555555344, 38.888888888828, 16.666666666785
543, 5.5555555555344, 38.888888888828, 11.11111111119
544, 5.5555555555344, 38.888888888828, 5.555555555595
545, 5.5555555555344, 44.444444444414, 44.444444444484
546, 5.5555555555344, 44.444444444414, 38.888888888968
547, 5.5555555555344, 44.444444444414, 33.333333333452
548, 5.5555555555344, 44.444444444414, 27.777777777907
549, 5.5555555555344, 44.444444444414, 22.222222222351
550, 5.5555555555344, 44.444444444414, 16.666666666785
551, 5.5555555555344, 44.444444444414, 11.11111111119
552, 5.5555555555344, 44.444444444414, 5.555555555595
553, 11.111111111062, 5.5555555555344, 44.444444444484
554, 11.111111111062, 5.5555555555344, 38.888888888968
555, 11.111111111062, 5.5555555555344, 33.333333333452
556, 11.111111111062, 5.5555555555344, 27.777777777907
557, 11.111111111062, 5.5555555555344, 22.222222222351
558, 11.111111111062, 5.5555555555344, 16.666666666785
559, 11.111111111062, 5.5555555555344, 11.11111111119
560, 11.111111111062, 5.5555555555344, 5.555555555595
561, 11.111111111062, 11.111111111062, 44.444444444484
562, 11.111111111062, 11.111111111062, 38.888888888968
563, 11.111111111062, 11.111111111062, 33.333333333452
564, 11.111111111062, 11.111111111062, 27.777777777907
565, 11.111111111062, 11.111111111062, 22.222222222351
566, 11.111111111062, 11.111111111062, 16.666666666785
567, 11.111111111062, 11.111111111062, 11.11111111119
568, 11.111111111062, 11.111111111062, 5.555555555595
569, 11.111111111062, 16.666666666592, 44.444444444484
570, 11.111111111062, 16.666666666592, 38.888888888968
571, 11.111111111062, 16.666666666592, 33.333333333452
572, 11.111111111062, 16.666666666592, 27.777777777907
573, 11.111111111062, 16.666666666592, 22.222222222351
574, 11.111111111062, 16.666666666592, 16.666666666785
575, 11.111111111062, 16.666666666592, 11.11111111119
576, 11.111111111062, 16.666666666592, 5.555555555595
577, 11.111111111062, 22.222222222139, 44.444444444484
578, 11.111111111062, 22.222222222139, 38.888888888968
579, 11.111111111062, 22.222222222139, 33.333333333452
580, 11.111111111062, 22.222222222139, 27.777777777907
581, 11.111111111062, 22.222222222139, 22.222222222351
582, 11.111111111062, 22.222222222139, 16.666666666785
583, 11.111111111062, 22.222222222139, 11.11111111119
584, 11.111111111062, 22.222222222139, 5.555555555595
585, 11.111111111062, 27.777777777685, 44.444444444484
586, 11.111111111062, 27.777777777685, 38.888888888968
587, 11.111111111062, 27.777777777685, 33.333333333452
588, 11.111111111062, 27.777777777685, 27.777777777907
589, 11.111111111062, 27.777777777685, 22.222222222351
590, 11.111111111062, 27.777777777685, 16.666666666785
591, 11.111111111062, 27.777777777685, 11.11111111119
592, 11.111111111062, 27.777777777685, 5.555555555595
593, 11.111111111062, 33.333333333242, 44.444444444484
594, 11.111111111062, 33.333333333242, 38.888888888968
595, 11.111111111062, 33.333333333242, 33.333333333452
596, 11.111111111062, 33.333333333242, 27.777777777907
597, 11.111111111062, 33.333333333242, 22.222222222351
598, 11.111111111062, 33.333333333242, 16.666666666785
599, 11.111111111062, 33.333333333242, 11.11111111119
600, 11.111111111062, 33.333333333242, 5.555555555595
601, 11.111111111062, 38.888888888828, 44.444444444484
602, 11.111111111062, 38.888888888828, 38.888888888968
603, 11.111111111062, 38.888888888828, 33.333333333452
604, 11.111111111062, 38.888888888828, 27.777777777907
605, 11.111111111062, 38.888888888828, 22.222222222351
606, 11.111111111062, 38.888888888828, 16.666666666785
607, 11.111111111062, 38.888888888828, 11.11111111119
608, 11.111111111062, 38.888888888828, 5.555555555595
609, 11.111111111062, 44.444444444414, 44.444444444484
610, 11.111111111062, 44.444444444414, 38.888888888968
611, 11.111111111062, 44.444444444414, 33.333333333452
612, 11.111111111062, 44.444444444414, 27.777777777907
613, 11.111111111062, 44.444444444414, 22.222222222351
614, 11.111111111062, 44.444444444414, 16.666666666785
615, 11.111111111062, 44.444444444414, 11.11111111119
616, 11.111111111062, 44.444444444414, 5.555555555595
617, 16.666666666592, 5.5555555555344, 44.444444444484
618, 16.666666666592, 5.5555555555344, 38.888888888968
619, 16.666666666592, 5.5555555555344, 33.333333333452
620, 16.666666666592, 5.5555555555344, 27.777777777907
621, 16.666666666592, 5.5555555555344, 22.222222222351
622, 16.666666666592, 5.5555555555344, 16.666666666785
623, 16.666666666592, 5.5555555555344, 11.11111111119
624, 16.666666666592, 5.5555555555344, 5.555555555595
625, 16.666666666592, 11.111111111062, 44.444444444484
626, 16.666666666592, 11.111111111062, 38.888888888968
627, 16.666666666592, 11.111111111062, 33.333333333452
628, 16.666666666592, 11.111111111062, 27.777777777907
629, 16.666666666592, 11.111111111062, 22.222222222351
630, 16.666666666592, 11.111111111062, 16.666666666785
631, 16.666666666592, 11.111111111062, 11.11111111119
632, 16.666666666592, 11.111111111062, 5.555555555595
633, 16.666666666592, 16.666666666592, 44.444444444484
634, 16.666666666592, 16.666666666592, 38.888888888968
635, 16.666666666592, 16.666666666592, 33.333333333452
636, 16.666666666592, 16.666666666592, 27.777777777907
637, 16.666666666592, 16.666666666592, 22.222222222351
638, 16.666666666592, 16.666666666592, 16.666666666785
639, 16.666666666592, 16.666666666592, 11.11111111119
640, 16.666666666592, 16.666666666592, 5.555555555595
641, 16.666666666592, 22.222222222139, 44.444444444484
642, 16.666666666592, 22.222222222139, 38.888888888968
643, 16.666666666592, 22.222222222139, 33.333333333452
644, 16.666666666592, 22.222222222139, 27.777777777907
645, 16.666666666592, 22.222222222139, 22.222222222351
646, 16.666666666592, 22.222222222139, 16.666666666785
647, 16.666666666592, 22.222222222139, 11.11111111119
648, 16.666666666592, 22.222222222139, 5.555555555595
649, 16.666666666592, 27.777777777685, 44.444444444484
650, 16.666666666592, 27.777777777685, 38.888888888968
651, 16.666666666592, 27.777777777685, 33.333333333452
652, 16.666666666592, 27.777777777685, 27.777777777907
653, 16.666666666592, 27.777777777685, 22.222222222351
654, 16.666666666592, 27.777777777685, 16.666666666785
655, 16.666666666592, 27.777777777685, 11.11111111119
656, 16.666666666592, 27.777777777685, 5.555555555595
657, 16.666666666592, 33.333333333242, 44.444444444484
658, 16.666666666592, 33.333333333242, 38.888888888968
659, 16.666666666592, 33.333333333242, 33.333333333452
660, 16.666666666592, 33.333333333242, 27.777777777907
661, 16.666666666592, 33.333333333242, 22.222222222351
662, 16.666666666592, 33.333333333242, 16.666666666785
663, 16.666666666592, 33.333333333242, 11.11111111119
664, 16.666666666592, 33.333333333242, 5.555555555595
665, 16.666666666592, 38.888888888828, 44.444444444484
666, 16.666666666592, 38.888888888828, 38.888888888968
667, 16.666666666592, 38.888888888828, 33.333333333452
668, 16.666666666592, 38.888888888828, 27.777777777907
669, 16.666666666592, 38.888888888828, 22.222222222351
670, 16.666666666592, 38.888888888828, 16.666666666785
671, 16.666666666592, 38.888888888828, 11.11111111119
672, 16.666666666592, 38.888888888828, 5.555555555595
673, 16.666666666592, 44.444444444414, 44.444444444484
674, 16.666666666592, 44.444444444414, 38.888888888968
675, 16.666666666592, 44.444444444414, 33.333333333452
676, 16.666666666592, 44.444444444414, 27.777777777907
677, 16.666666666592, 44.444444444414, 22.222222222351
678, 16.666666666592, 44.444444444414, 16.666666666785
679, 16.666666666592, 44.444444444414, 11.11111111119
680, 16.666666666592, 44.444444444414, 5.555555555595
681, 22.222222222139, 5.5555555555344, 44.444444444484
682, 22.222222222139, 5.5555555555344, 38.888888888968
683, 22.222222222139, 5.5555555555344, 33.333333333452
684, 22.222222222139, 5.5555555555344, 27.777777777907
685, 22.222222222139, 5.5555555555344, 22.222222222351
686, 22.222222222139, 5.5555555555344, 16.666666666785
687, 22.222222222139, 5.5555555555344, 11.11111111119
688, 22.222222222139, 5.5555555555344, 5.555555555595
689, 22.222222222139, 11.111111111062, 44.444444444484
690, 22.222222222139, 11.111111111062, 38.888888888968
691, 22.222222222139, 11.111111111062, 33.333333333452
692, 22.222222222139, 11.111111111062, 27.777777777907
693, 22.222222222139, 11.111111111062, 22.222222222351
694, 22.222222222139, 11.111111111062, 16.666666666785
695, 22.222222222139, 11.111111111062, 11.11111111119
696, 22.222222222139, 11.111111111062, 5.555555555595
697, 22.222222222139, 16.666666666592, 44.444444444484
698, 22.222222222139, 16.666666666592, 38.888888888968
699, 22.222222222139, 16.666666666592, 33.333333333452
700, 22.222222222139, 16.666666666592, 27.777777777907
701, 22.222222222139, 16.666666666592, 22.222222222351
702, 22.222222222139, 16.666666666592, 16.666666666785
703, 22.222222222139, 16.666666666592, 11.11111111119
704, 22.222222222139, 16.666666666592, 5.555555555595
705, 22.222222222139, 22.222222222139, 44.444444444484
706, 22.222222222139, 22.222222222139, 38.888888888968
707, 22.222222222139, 22.222222222139, 33.333333333452
708, 22.222222222139, 22.222222222139, 27.777777777907
709, 22.222222222139, 22.222222222139, 22.222222222351
710, 22.222222222139, 22.222222222139, 16.666666666785
711, 22.222222222139, 22.222222222139, 11.11111111119
712, 22.222222222139, 22.222222222139, 5.555555555595
713, 22.222222222139, 27.777777777685, 44.444444444484
714, 22.222222222139, 27.777777777685, 38.888888888968
715, 22.222222222139, 27.777777777685, 33.333333333452
716, 22.222222222139, 27.777777777685, 27.777777777907
717, 22.222222222139, 27.777777777685, 22.222222222351
718, 22.222222222139, 27.777777777685, 16.666666666785
719, 22.222222222139, 27.777777777685, 11.11111111119
720, 22.222222222139, 27.777777777685, 5.555555555595
721, 22.222222222139, 33.333333333242, 44.444444444484
722, 22.222222222139, 33.333333333242, 38.888888888968
723, 22.222222222139, 33.333333333242, 33.333333333452
724, 22.222222222139, 33.333333333242, 27.777777777907
725, 22.222222222139, 33.333333333242, 22.222222222351
726, 22.222222222139, 33.333333333242, 16.666666666785
727, 22.222222222139, 33.333333333242, 11.11111111119
728, 22.222222222139, 33.333333333242, 5.555555555595
729, 22.222222222139, 38.888888888828, 44.444444444484
730, 22.222222222139, 38.888888888828, 38.888888888968
731, 22.222222222139, 38.888888888828, 33.333333333452
732, 22.222222222139, 38.888888888828, 27.777777777907
733, 22.222222222139, 38.888888888828, 22.222222222351
734, 22.222222222139, 38.888888888828, 16.666666666785
735, 22.222222222139, 38.888888888828, 11.11111111119
736, 22.222222222139, 38.888888888828, 5.555555555595
737, 22.222222222139, 44.444444444414, 44.444444444484
738, 22.222222222139, 44.444444444414, 38.888888888968
739, 22.222222222139, 44.444444444414, 33.333333333452
740, 22.222222222139, 44.444444444414, 27.777777777907
741, 22.222222222139, 44.444444444414, 22.222222222351
742, 22.222222222139, 44.444444444414, 16.666666666785
743, 22.222222222139, 44.444444444414, 11.11111111119
744, 22.222222222139, 44.444444444414, 5.555555555595
745, 27.777777777685, 5.5555555555344, 44.444444444484
746, 27.777777777685, 5.5555555555344, 38.888888888968
747, 27.777777777685, 5.5555555555344, 33.333333333452
748, 27.777777777685, 5.5555555555344, 27.777777777907
749, 27.777777777685, 5.5555555555344, 22.222222222351
750, 27.777777777685, 5.5555555555344, 16.666666666785
751, 27.777777777685, 5.5555555555344, 11.11111111119
752, 27.777777777685, 5.5555555555344, 5.555555555595
753, 27.777777777685, 11.111111111062, 44.444444444484
754, 27.777777777685, 11.111111111062, 38.888888888968
755, 27.777777777685, 11.111111111062, 33.333333333452
756, 27.777777777685, 11.111111111062, 27.777777777907
757, 27.777777777685, 11.111111111062, 22.222222222351
758, 27.777777777685, 11.111111111062, 16.666666666785
759, 27.777777777685, 11.111111111062, 11.11111111119
760, 27.777777777685, 11.111111111062, 5.555555555595
761, 27.777777777685, 16.666666666592, 44.444444444484
762, 27.777777777685, 16.666666666592, 38.888888888968
763, 27.777777777685, 16.666666666592, 33.333333333452
764, 27.777777777685, 16.666666666592, 27.777777777907
765, 27.777777777685, 16.666666666592, 22.222222222351
766, 27.777777777685, 16.666666666592, 16.666666666785
767, 27.777777777685, 16.666666666592, 11.11111111119
768, 27.777777777685, 16.666666666592, 5.555555555595
769, 27.777777777685, 22.222222222139, 44.444444444484
770, 27.777777777685, 22.222222222139, 38.888888888968
771, 27.777777777685, 22.222222222139, 33.333333333452
772, 27.777777777685, 22.222222222139, 27.777777777907
773, 27.777777777685, 22.222222222139, 22.222222222351
774, 27.777777777685, 22.222222222139, 16.666666666785
775, 27.777777777685, 22.222222222139, 11.11111111119
776, 27.777777777685, 22.222222222139, 5.555555555595
777, 27.777777777685, 27.777777777685, 44.444444444484
778, 27.777777777685, 27.777777777685, 38.888888888968
779, 27.777777777685, 27.777777777685, 33.333333333452
780, 27.777777777685, 27.777777777685, 27.777777777907
781, 27.777777777685, 27.777777777685, 22.222222222351
782, 27.777777777685, 27.777777777685, 16.666666666785
783, 27.777777777685, 27.777777777685, 11.11111111119
784, 27.777777777685, 27.777777777685, 5.555555555595
785, 27.777777777685, 33.333333333242, 44.444444444484
786, 27.777777777685, 33.333333333242, 38.888888888968
787, 27.777777777685, 33.333333333242, 33.333333333452
788, 27.777777777685, 33.333333333242, 27.777777777907
789, 27.777777777685, 33.333333333242, 22.222222222351
790, 27.777777777685, 33.333333333242, 16.666666666785
791, 27.777777777685, 33.333333333242, 11.11111111119
792, 27.777777777685, 33.333333333242, 5.555555555595
793, 27.777777777685, 38.888888888828, 44.444444444484
794, 27.777777777685, 38.888888888828, 38.888888888968
795, 27.777777777685, 38.888888888828, 33.333333333452
796, 27.777777777685, 38.888888888828, 27.777777777907
797, 27.777777777685, 38.888888888828, 22.222222222351
798, 27.777777777685, 38.888888888828, 16.666666666785
799, 27.777777777685, 38.888888888828, 11.11111111119
800, 27.777777777685, 38.888888888828, 5.555555555595
801, 27.777777777685, 44.444444444414, 44.444444444484
802, 27.777777777685, 44.444444444414, 38.888888888968
803, 27.777777777685, 44.444444444414, 33.333333333452
804, 27.777777777685, 44.444444444414, 27.777777777907
805, 27.777777777685, 44.444444444414, 22.222222222351
806, 27.777777777685, 44.444444444414, 16.666666666785
807, 27.777777777685, 44.444444444414, 11.11111111119
808, 27.777777777685, 44.444444444414, 5.555555555595
809, 33.333333333242, 5.5555555555344, 44.444444444484
810, 33.333333333242, 5.5555555555344, 38.888888888968
811, 33.333333333242, 5.5555555555344, 33.333333333452
812, 33.333333333242, 5.5555555555344, 27.777777777907
813, 33.333333333242, 5.5555555555344, 22.222222222351
814, 33.333333333242, 5.5555555555344, 16.666666666785
815, 33.333333333242, 5.5555555555344, 11.11111111119
816, 33.333333333242, 5.5555555555344, 5.555555555595
817, 33.333333333242, 11.111111111062, 44.444444444484
818, 33.333333333242, 11.111111111062, 38.888888888968
819, 33.333333333242, 11.111111111062, 33.333333333452
820, 33.333333333242, 11.111111111062, 27.777777777907
821, 33.333333333242, 11.111111111062, 22.222222222351
822, 33.333333333242, 11.111111111062, 16.666666666785
823, 33.333333333242, 11.111111111062, 11.11111111119
824, 33.333333333242, 11.111111111062, 5.555555555595
825, 33.333333333242, 16.666666666592, 44.444444444484
826, 33.333333333242, 16.666666666592, 38.888888888968
827, 33.333333333242, 16.666666666592, 33.333333333452
828, 33.333333333242, 16.666666666592, 27.777777777907
829, 33.333333333242, 16.666666666592, 22.222222222351
830, 33.333333333242, 16.666666666592, 16.666666666785
831, 33.333333333242, 16.666666666592, 11.11111111119
832, 33.333333333242, 16.666666666592, 5.555555555595
833, 33.333333333242, 22.222222222139, 44.444444444484
834, 33.333333333242, 22.222222222139, 38.888888888968
835, 33.333333333242, 22.222222222139, 33.333333333452
836, 33.333333333242, 22.222222222139, 27.777777777907
837, 33.333333333242, 22.222222222139, 22.222222222351
838, 33.333333333242, 22.222222222139, 16.666666666785
839, 33.333333333242, 22.222222222139, 11.11111111119
840, 33.333333333242, 22.222222222139, 5.555555555595
841, 33.333333333242, 27.777777777685, 44.444444444484
842, 33.333333333242, 27.777777777685, 38.888888888968
843, 33.333333333242, 27.777777777685, 33.333333333452
844, 33.333333333242, 27.777777777685, 27.777777777907
845, 33.333333333242, 27.777777777685, 22.222222222351
846, 33.333333333242, 27.777777777685, 16.666666666785
847, 33.333333333242, 27.777777777685, 11.11111111119
848, 33.333333333242, 27.777777777685, 5.555555555595
849, 33.333333333242, 33.333333333242, 44.444444444484
850, 33.333333333242, 33.333333333242, 38.888888888968
851, 33.333333333242, 33.333333333242, 33.333333333452
852, 33.333333333242, 33.333333333242, 27.777777777907
853, 33.333333333242, 33.333333333242, 22.222222222351
854, 33.333333333242, 33.333333333242, 16.666666666785
855, 33.333333333242, 33.333333333242, 11.11111111119
856, 33.333333333242, 33.333333333242, 5.555555555595
857, 33.333333333242, 38.888888888828, 44.444444444484
858, 33.333333333242, 38.888888888828, 38.888888888968
859, 33.333333333242, 38.888888888828, 33.333333333452
860, 33.333333333242, 38.888888888828, 27.777777777907
861, 33.333333333242, 38.888888888828, 22.222222222351
862, 33.333333333242, 38.888888888828, 16.666666666785
863, 33.333333333242, 38.888888888828, 11.11111111119
864, 33.333333333242, 38.888888888828, 5.555555555595
865, 33.333333333242, 44.444444444414, 44.444444444484
866, 33.333333333242, 44.444444444414, 38.888888888968
867, 33.333333333242, 44.444444444414, 33.333333333452
868, 33.333333333242, 44.444444444414, 27.777777777907
869, 33.333333333242, 44.444444444414, 22.222222222351
870, 33.333333333242, 44.444444444414, 16.666666666785
871, 33.333333333242, 44.444444444414, 11.11111111119
872, 33.333333333242, 44.444444444414, 5.555555555595
873, 38.888888888828, 5.5555555555344, 44.444444444484
874, 38.888888888828, 5.5555555555344, 38.888888888968
875, 38.888888888828, 5.5555555555344, 33.333333333452
876, 38.888888888828, 5.5555555555344, 27.777777777907
877, 38.888888888828, 5.5555555555344, 22.222222222351
878, 38.888888888828, 5.5555555555344, 16.666666666785
879, 38.888888888828, 5.5555555555344, 11.11111111119
880, 38.888888888828, 5.5555555555344, 5.555555555595
881, 38.888888888828, 11.111111111062, 44.444444444484
882, 38.888888888828, 11.111111111062, 38.888888888968
883, 38.888888888828, 11.111111111062, 33.333333333452
884, 38.888888888828, 11.111111111062, 27.777777777907
885, 38.888888888828, 11.111111111062, 22.222222222351
886, 38.888888888828, 11.111111111062, 16.666666666785
887, 38.888888888828, 11.111111111062, 11.11111111119
888, 38.888888888828, 11.111111111062, 5.555555555595
889, 38.888888888828, 16.666666666592, 44.444444444484
890, 38.888888888828, 16.666666666592, 38.888888888968
891, 38.888888888828, 16.666666666592, 33.333333333452
892, 38.888888888828, 16.666666666592, 27.777777777907
893, 38.888888888828, 16.666666666592, 22.222222222351
894, 38.888888888828, 16.666666666592, 16.666666666785
895, 38.888888888828, 16.666666666592, 11.11111111119
896, 38.888888888828, 16.666666666592, 5.555555555595
897, 38.888888888828, 22.222222222139, 44.444444444484
898, 38.888888888828, 22.222222222139, 38.888888888968
899, 38.888888888828, 22.222222222139, 33.333333333452
900, 38.888888888828, 22.222222222139, 27.777777777907
901, 38.888888888828, 22.222222222139, 22.222222222351
902, 38.888888888828, 22.222222222139, 16.666666666785
903, 38.888888888828, 22.222222222139, 11.11111111119
904, 38.888888888828, 22.222222222139, 5.555555555595
905, 38.888888888828, 27.777777777685, 44.444444444484
906, 38.888888888828, 27.777777777685, 38.888888888968
907, 38.888888888828, 27.777777777685, 33.333333333452
908, 38.888888888828, 27.777777777685, 27.777777777907
909, 38.888888888828, 27.777777777685, 22.222222222351
910, 38.888888888828, 27.777777777685, 16.666666666785
911, 38.888888888828, 27.777777777685, 11.11111111119
912, 38.888888888828, 27.777777777685, 5.555555555595
913, 38.888888888828, 33.333333333242, 44.444444444484
914, 38.888888888828, 33.333333333242, 38.888888888968
915, 38.888888888828, 33.333333333242, 33.333333333452
916, 38.888888888828, 33.333333333242, 27.777777777907
917, 38.888888888828, 33.333333333242, 22.222222222351
918, 38.888888888828, 33.333333333242, 16.666666666785
919, 38.888888888828, 33.333333333242, 11.11111111119
920, 38.888888888828, 33.333333333242, 5.555555555595
921, 38.888888888828, 38.888888888828, 44.444444444484
922, 38.888888888828, 38.888888888828, 38.888888888968
923, 38.888888888828, 38.888888888828, 33.333333333452
924, 38.888888888828, 38.888888888828, 27.777777777907
925, 38.888888888828, 38.888888888828, 22.222222222351
926, 38.888888888828, 38.888888888828, 16.666666666785
927, 38.888888888828, 38.888888888828, 11.11111111119
928, 38.888888888828, 38.888888888828, 5.555555555595
929, 38.888888888828, 44.444444444414, 44.444444444484
930, 38.888888888828, 44.444444444414, 38.888888888968
931, 38.888888888828, 44.444444444414, 33.333333333452
932, 38.888888888828, 44.444444444414, 27.777777777907
933, 38.888888888828, 44.444444444414, 22.222222222351
934, 38.888888888828, 44.444444444414, 16.666666666785
935, 38.888888888828, 44.444444444414, 11.11111111119
936, 38.888888888828, 44.444444444414, 5.555555555595
937, 44.444444444414, 5.5555555555344, 44.444444444484
938, 44.444444444414, 5.5555555555344, 38.888888888968
939, 44.444444444414, 5.5555555555344, 33.333333333452
940, 44.444444444414, 5.5555555555344, 27.777777777907
941, 44.444444444414, 5.5555555555344, 22.222222222351
942, 44.444444444414, 5.5555555555344, 16.666666666785
943, 44.444444444414, 5.5555555555344, 11.11111111119
944, 44.444444444414, 5.5555555555344, 5.555555555595
945, 44.444444444414, 11.111111111062, 44.444444444484
946, 44.444444444414, 11.111111111062, 38.888888888968
947, 44.444444444414, 11.111111111062, 33.333333333452
948, 44.444444444414, 11.111111111062, 27.777777777907
949, 44.444444444414, 11.111111111062, 22.222222222351
950, 44.444444444414, 11.111111111062, 16.666666666785
951, 44.444444444414, 11.111111111062, 11.11111111119
952, 44.444444444414, 11.111111111062, 5.555555555595
953, 44.444444444414, 16.666666666592, 44.444444444484
954, 44.444444444414, 16.666666666592, 38.888888888968
955, 44.444444444414, 16.666666666592, 33.333333333452
956, 44.444444444414, 16.666666666592, 27.777777777907
957, 44.444444444414, 16.666666666592, 22.222222222351
958, 44.444444444414, 16.666666666592, 16.666666666785
959, 44.444444444414, 16.666666666592, 11.11111111119
960, 44.444444444414, 16.666666666592, 5.555555555595
961, 44.444444444414, 22.222222222139, 44.444444444484
962, 44.444444444414, 22.222222222139, 38.888888888968
963, 44.444444444414, 22.222222222139, 33.333333333452
964, 44.444444444414, 22.222222222139, 27.777777777907
965, 44.444444444414, 22.222222222139, 22.222222222351
966, 44.444444444414, 22.222222222139, 16.666666666785
967, 44.444444444414, 22.222222222139, 11.11111111119
968, 44.444444444414, 22.222222222139, 5.555555555595
969, 44.444444444414, 27.777777777685, 44.444444444484
970, 44.444444444414, 27.777777777685, 38.888888888968
971, 44.444444444414, 27.777777777685, 33.333333333452
972, 44.444444444414, 27.777777777685, 27.777777777907
973, 44.444444444414, 27.777777777685, 22.222222222351
974, 44.444444444414, 27.777777777685, 16.666666666785
975, 44.444444444414, 27.777777777685, 11.11111111119
976, 44.444444444414, 27.777777777685, 5.555555555595
977, 44.444444444414, 33.333333333242, 44.444444444484
978, 44.444444444414, 33.333333333242, 38.888888888968
979, 44.444444444414, 33.333333333242, 33.333333333452
980, 44.444444444414, 33.333333333242, 27.777777777907
981, 44.444444444414, 33.333333333242, 22.222222222351
982, 44.444444444414, 33.333333333242, 16.666666666785
983, 44.444444444414, 33.333333333242, 11.11111111119
984, 44.444444444414, 33.333333333242, 5.555555555595
985, 44.444444444414, 38.888888888828, 44.444444444484
986, 44.444444444414, 38.888888888828, 38.888888888968
987, 44.444444444414, 38.888888888828, 33.333333333452
988, 44.444444444414, 38.888888888828, 27.777777777907
989, 44.444444444414, 38.888888888828, 22.222222222351
990, 44.444444444414, 38.888888888828, 16.666666666785
991, 44.444444444414, 38.888888888828, 11.11111111119
992, 44.444444444414, 38.888888888828, 5.555555555595
993, 44.444444444414, 44.444444444414, 44.444444444484
994, 44.444444444414, 44.444444444414, 38.888888888968
995, 44.444444444414, 44.444444444414, 33.333333333452
996, 44.444444444414, 44.444444444414, 27.777777777907
997, 44.444444444414, 44.444444444414, 22.222222222351
998, 44.444444444414, 44.444444444414, 16.666666666785
999, 44.444444444414, 44.444444444414, 11.11111111119
1000, 44.444444444414, 44.444444444414, 5.555555555595
******* E L E M E N T S *************
*ELEMENT, type=T3D2, ELSET=Line1
9, 5, 9
10, 9, 10
11, 10, 11
12, 11, 12
13, 12, 13
14, 13, 14
15, 14, 15
16, 15, 16
17, 16, 1
*ELEMENT, type=T3D2, ELSET=Line2
18, 6, 17
19, 17, 18
20, 18, 19
21, 19, 20
22, 20, 21
23, 21, 22
24, 22, 23
25, 23, 24
26, 24, 2
*ELEMENT, type=T3D2, ELSET=Line3
27, 5, 25
28, 25, 26
29, 26, 27
30, 27, 28
31, 28, 29
32, 29, 30
33, 30, 31
34, 31, 32
35, 32, 6
*ELEMENT, type=T3D2, ELSET=Line4
36, 1, 33
37, 33, 34
38, 34, 35
39, 35, 36
40, 36, 37
41, 37, 38
42, 38, 39
43, 39, 40
44, 40, 2
*ELEMENT, type=T3D2, ELSET=Line5
45, 8, 41
46, 41, 42
47, 42, 43
48, 43, 44
49, 44, 45
50, 45, 46
51, 46, 47
52, 47, 48
53, 48, 7
*ELEMENT, type=T3D2, ELSET=Line6
54, 4, 49
55, 49, 50
56, 50, 51
57, 51, 52
58, 52, 53
59, 53, 54
60, 54, 55
61, 55, 56
62, 56, 3
*ELEMENT, type=T3D2, ELSET=Line7
63, 7, 57
64, 57, 58
65, 58, 59
66, 59, 60
67, 60, 61
68, 61, 62
69, 62, 63
70, 63, 64
71, 64, 3
*ELEMENT, type=T3D2, ELSET=Line9
72, 8, 65
73, 65, 66
74, 66, 67
75, 67, 68
76, 68, 69
77, 69, 70
78, 70, 71
79, 71, 72
80, 72, 4
*ELEMENT, type=T3D2, ELSET=Line10
81, 5, 73
82, 73, 74
83, 74, 75
84, 75, 76
85, 76, 77
86, 77, 78
87, 78, 79
88, 79, 80
89, 80, 8
*ELEMENT, type=T3D2, ELSET=Line11
90, 2, 81
91, 81, 82
92, 82, 83
93, 83, 84
94, 84, 85
95, 85, 86
96, 86, 87
97, 87, 88
98, 88, 3
*ELEMENT, type=T3D2, ELSET=Line12
99, 1, 89
100, 89, 90
101, 90, 91
102, 91, 92
103, 92, 93
104, 93, 94
105, 94, 95
106, 95, 96
107, 96, 4
*ELEMENT, type=T3D2, ELSET=Line13
108, 6, 97
109, 97, 98
110, 98, 99
111, 99, 100
112, 100, 101
113, 101, 102
114, 102, 103
115, 103, 104
116, 104, 7
*ELEMENT, type=CPS3, ELSET=Surface1
117, 5, 25, 9
118, 9, 25, 105
119, 9, 105, 10
120, 10, 105, 106
121, 10, 106, 11
122, 11, 106, 107
123, 11, 107, 12
124, 12, 107, 108
125, 12, 108, 13
126, 13, 108, 109
127, 13, 109, 14
128, 14, 109, 110
129, 14, 110, 15
130, 15, 110, 111
131, 15, 111, 16
132, 16, 111, 112
133, 16, 112, 1
134, 1, 112, 33
135, 25, 26, 105
136, 105, 26, 113
137, 105, 113, 106
138, 106, 113, 114
139, 106, 114, 107
140, 107, 114, 115
141, 107, 115, 108
142, 108, 115, 116
143, 108, 116, 109
144, 109, 116, 117
145, 109, 117, 110
146, 110, 117, 118
147, 110, 118, 111
148, 111, 118, 119
149, 111, 119, 112
150, 112, 119, 120
151, 112, 120, 33
152, 33, 120, 34
153, 26, 27, 113
154, 113, 27, 121
155, 113, 121, 114
156, 114, 121, 122
157, 114, 122, 115
158, 115, 122, 123
159, 115, 123, 116
160, 116, 123, 124
161, 116, 124, 117
162, 117, 124, 125
163, 117, 125, 118
164, 118, 125, 126
165, 118, 126, 119
166, 119, 126, 127
167, 119, 127, 120
168, 120, 127, 128
169, 120, 128, 34
170, 34, 128, 35
171, 27, 28, 121
172, 121, 28, 129
173, 121, 129, 122
174, 122, 129, 130
175, 122, 130, 123
176, 123, 130, 131
177, 123, 131, 124
178, 124, 131, 132
179, 124, 132, 125
180, 125, 132, 133
181, 125, 133, 126
182, 126, 133, 134
183, 126, 134, 127
184, 127, 134, 135
185, 127, 135, 128
186, 128, 135, 136
187, 128, 136, 35
188, 35, 136, 36
189, 28, 29, 129
190, 129, 29, 137
191, 129, 137, 130
192, 130, 137, 138
193, 130, 138, 131
194, 131, 138, 139
195, 131, 139, 132
196, 132, 139, 140
197, 132, 140, 133
198, 133, 140, 141
199, 133, 141, 134
200, 134, 141, 142
201, 134, 142, 135
202, 135, 142, 143
203, 135, 143, 136
204, 136, 143, 144
205, 136, 144, 36
206, 36, 144, 37
207, 29, 30, 137
208, 137, 30, 145
209, 137, 145, 138
210, 138, 145, 146
211, 138, 146, 139
212, 139, 146, 147
213, 139, 147, 140
214, 140, 147, 148
215, 140, 148, 141
216, 141, 148, 149
217, 141, 149, 142
218, 142, 149, 150
219, 142, 150, 143
220, 143, 150, 151
221, 143, 151, 144
222, 144, 151, 152
223, 144, 152, 37
224, 37, 152, 38
225, 30, 31, 145
226, 145, 31, 153
227, 145, 153, 146
228, 146, 153, 154
229, 146, 154, 147
230, 147, 154, 155
231, 147, 155, 148
232, 148, 155, 156
233, 148, 156, 149
234, 149, 156, 157
235, 149, 157, 150
236, 150, 157, 158
237, 150, 158, 151
238, 151, 158, 159
239, 151, 159, 152
240, 152, 159, 160
241, 152, 160, 38
242, 38, 160, 39
243, 31, 32, 153
244, 153, 32, 161
245, 153, 161, 154
246, 154, 161, 162
247, 154, 162, 155
248, 155, 162, 163
249, 155, 163, 156
250, 156, 163, 164
251, 156, 164, 157
252, 157, 164, 165
253, 157, 165, 158
254, 158, 165, 166
255, 158, 166, 159
256, 159, 166, 167
257, 159, 167, 160
258, 160, 167, 168
259, 160, 168, 39
260, 39, 168, 40
261, 32, 6, 161
262, 161, 6, 17
263, 161, 17, 162
264, 162, 17, 18
265, 162, 18, 163
266, 163, 18, 19
267, 163, 19, 164
268, 164, 19, 20
269, 164, 20, 165
270, 165, 20, 21
271, 165, 21, 166
272, 166, 21, 22
273, 166, 22, 167
274, 167, 22, 23
275, 167, 23, 168
276, 168, 23, 24
277, 168, 24, 40
278, 40, 24, 2
*ELEMENT, type=CPS3, ELSET=Surface2
279, 6, 17, 97
280, 97, 17, 169
281, 97, 169, 98
282, 98, 169, 170
283, 98, 170, 99
284, 99, 170, 171
285, 99, 171, 100
286, 100, 171, 172
287, 100, 172, 101
288, 101, 172, 173
289, 101, 173, 102
290, 102, 173, 174
291, 102, 174, 103
292, 103, 174, 175
293, 103, 175, 104
294, 104, 175, 176
295, 104, 176, 7
296, 7, 176, 57
297, 17, 18, 169
298, 169, 18, 177
299, 169, 177, 170
300, 170, 177, 178
301, 170, 178, 171
302, 171, 178, 179
303, 171, 179, 172
304, 172, 179, 180
305, 172, 180, 173
306, 173, 180, 181
307, 173, 181, 174
308, 174, 181, 182
309, 174, 182, 175
310, 175, 182, 183
311, 175, 183, 176
312, 176, 183, 184
313, 176, 184, 57
314, 57, 184, 58
315, 18, 19, 177
316, 177, 19, 185
317, 177, 185, 178
318, 178, 185, 186
319, 178, 186, 179
320, 179, 186, 187
321, 179, 187, 180
322, 180, 187, 188
323, 180, 188, 181
324, 181, 188, 189
325, 181, 189, 182
326, 182, 189, 190
327, 182, 190, 183
328, 183, 190, 191
329, 183, 191, 184
330, 184, 191, 192
331, 184, 192, 58
332, 58, 192, 59
333, 19, 20, 185
334, 185, 20, 193
335, 185, 193, 186
336, 186, 193, 194
337, 186, 194, 187
338, 187, 194, 195
339, 187, 195, 188
340, 188, 195, 196
341, 188, 196, 189
342, 189, 196, 197
343, 189, 197, 190
344, 190, 197, 198
345, 190, 198, 191
346, 191, 198, 199
347, 191, 199, 192
348, 192, 199, 200
349, 192, 200, 59
350, 59, 200, 60
351, 20, 21, 193
352, 193, 21, 201
353, 193, 201, 194
354, 194, 201, 202
355, 194, 202, 195
356, 195, 202, 203
357, 195, 203, 196
358, 196, 203, 204
359, 196, 204, 197
360, 197, 204, 205
361, 197, 205, 198
362, 198, 205, 206
363, 198, 206, 199
364, 199, 206, 207
365, 199, 207, 200
366, 200, 207, 208
367, 200, 208, 60
368, 60, 208, 61
369, 21, 22, 201
370, 201, 22, 209
371, 201, 209, 202
372, 202, 209, 210
373, 202, 210, 203
374, 203, 210, 211
375, 203, 211, 204
376, 204, 211, 212
377, 204, 212, 205
378, 205, 212, 213
379, 205, 213, 206
380, 206, 213, 214
381, 206, 214, 207
382, 207, 214, 215
383, 207, 215, 208
384, 208, 215, 216
385, 208, 216, 61
386, 61, 216, 62
387, 22, 23, 209
388, 209, 23, 217
389, 209, 217, 210
390, 210, 217, 218
391, 210, 218, 211
392, 211, 218, 219
393, 211, 219, 212
394, 212, 219, 220
395, 212, 220, 213
396, 213, 220, 221
397, 213, 221, 214
398, 214, 221, 222
399, 214, 222, 215
400, 215, 222, 223
401, 215, 223, 216
402, 216, 223, 224
403, 216, 224, 62
404, 62, 224, 63
405, 23, 24, 217
406, 217, 24, 225
407, 217, 225, 218
408, 218, 225, 226
409, 218, 226, 219
410, 219, 226, 227
411, 219, 227, 220
412, 220, 227, 228
413, 220, 228, 221
414, 221, 228, 229
415, 221, 229, 222
416, 222, 229, 230
417, 222, 230, 223
418, 223, 230, 231
419, 223, 231, 224
420, 224, 231, 232
421, 224, 232, 63
422, 63, 232, 64
423, 24, 2, 225
424, 225, 2, 81
425, 225, 81, 226
426, 226, 81, 82
427, 226, 82, 227
428, 227, 82, 83
429, 227, 83, 228
430, 228, 83, 84
431, 228, 84, 229
432, 229, 84, 85
433, 229, 85, 230
434, 230, 85, 86
435, 230, 86, 231
436, 231, 86, 87
437, 231, 87, 232
438, 232, 87, 88
439, 232, 88, 64
440, 64, 88, 3
*ELEMENT, type=CPS3, ELSET=Surface3
441, 4, 49, 72
442, 72, 49, 233
443, 72, 233, 71
444, 71, 233, 234
445, 71, 234, 70
446, 70, 234, 235
447, 70, 235, 69
448, 69, 235, 236
449, 69, 236, 68
450, 68, 236, 237
451, 68, 237, 67
452, 67, 237, 238
453, 67, 238, 66
454, 66, 238, 239
455, 66, 239, 65
456, 65, 239, 240
457, 65, 240, 8
458, 8, 240, 41
459, 49, 50, 233
460, 233, 50, 241
461, 233, 241, 234
462, 234, 241, 242
463, 234, 242, 235
464, 235, 242, 243
465, 235, 243, 236
466, 236, 243, 244
467, 236, 244, 237
468, 237, 244, 245
469, 237, 245, 238
470, 238, 245, 246
471, 238, 246, 239
472, 239, 246, 247
473, 239, 247, 240
474, 240, 247, 248
475, 240, 248, 41
476, 41, 248, 42
477, 50, 51, 241
478, 241, 51, 249
479, 241, 249, 242
480, 242, 249, 250
481, 242, 250, 243
482, 243, 250, 251
483, 243, 251, 244
484, 244, 251, 252
485, 244, 252, 245
486, 245, 252, 253
487, 245, 253, 246
488, 246, 253, 254
489, 246, 254, 247
490, 247, 254, 255
491, 247, 255, 248
492, 248, 255, 256
493, 248, 256, 42
494, 42, 256, 43
495, 51, 52, 249
496, 249, 52, 257
497, 249, 257, 250
498, 250, 257, 258
499, 250, 258, 251
500, 251, 258, 259
501, 251, 259, 252
502, 252, 259, 260
503, 252, 260, 253
504, 253, 260, 261
505, 253, 261, 254
506, 254, 261, 262
507, 254, 262, 255
508, 255, 262, 263
509, 255, 263, 256
510, 256, 263, 264
511, 256, 264, 43
512, 43, 264, 44
513, 52, 53, 257
514, 257, 53, 265
515, 257, 265, 258
516, 258, 265, 266
517, 258, 266, 259
518, 259, 266, 267
519, 259, 267, 260
520, 260, 267, 268
521, 260, 268, 261
522, 261, 268, 269
523, 261, 269, 262
524, 262, 269, 270
525, 262, 270, 263
526, 263, 270, 271
527, 263, 271, 264
528, 264, 271, 272
529, 264, 272, 44
530, 44, 272, 45
531, 53, 54, 265
532, 265, 54, 273
533, 265, 273, 266
534, 266, 273, 274
535, 266, 274, 267
536, 267, 274, 275
537, 267, 275, 268
538, 268, 275, 276
539, 268, 276, 269
540, 269, 276, 277
541, 269, 277, 270
542, 270, 277, 278
543, 270, 278, 271
544, 271, 278, 279
545, 271, 279, 272
546, 272, 279, 280
547, 272, 280, 45
548, 45, 280, 46
549, 54, 55, 273
550, 273, 55, 281
551, 273, 281, 274
552, 274, 281, 282
553, 274, 282, 275
554, 275, 282, 283
555, 275, 283, 276
556, 276, 283, 284
557, 276, 284, 277
558, 277, 284, 285
559, 277, 285, 278
560, 278, 285, 286
561, 278, 286, 279
562, 279, 286, 287
563, 279, 287, 280
564, 280, 287, 288
565, 280, 288, 46
566, 46, 288, 47
567, 55, 56, 281
568, 281, 56, 289
569, 281, 289, 282
570, 282, 289, 290
571, 282, 290, 283
572, 283, 290, 291
573, 283, 291, 284
574, 284, 291, 292
575, 284, 292, 285
576, 285, 292, 293
577, 285, 293, 286
578, 286, 293, 294
579, 286, 294, 287
580, 287, 294, 295
581, 287, 295, 288
582, 288, 295, 296
583, 288, 296, 47
584, 47, 296, 48
585, 56, 3, 289
586, 289, 3, 64
587, 289, 64, 290
588, 290, 64, 63
589, 290, 63, 291
590, 291, 63, 62
591, 291, 62, 292
592, 292, 62, 61
593, 292, 61, 293
594, 293, 61, 60
595, 293, 60, 294
596, 294, 60, 59
597, 294, 59, 295
598, 295, 59, 58
599, 295, 58, 296
600, 296, 58, 57
601, 296, 57, 48
602, 48, 57, 7
*ELEMENT, type=CPS3, ELSET=Surface4
603, 8, 65, 297
604, 297, 80, 8
605, 80, 297, 298
606, 298, 79, 80
607, 79, 298, 299
608, 299, 78, 79
609, 78, 299, 300
610, 300, 77, 78
611, 77, 300, 301
612, 301, 76, 77
613, 76, 301, 302
614, 302, 75, 76
615, 75, 302, 303
616, 303, 74, 75
617, 74, 303, 304
618, 304, 73, 74
619, 73, 304, 9
620, 9, 5, 73
621, 65, 66, 305
622, 305, 297, 65
623, 297, 305, 306
624, 306, 298, 297
625, 298, 306, 307
626, 307, 299, 298
627, 299, 307, 308
628, 308, 300, 299
629, 300, 308, 309
630, 309, 301, 300
631, 301, 309, 310
632, 310, 302, 301
633, 302, 310, 311
634, 311, 303, 302
635, 303, 311, 312
636, 312, 304, 303
637, 304, 312, 10
638, 10, 9, 304
639, 66, 67, 313
640, 313, 305, 66
641, 305, 313, 314
642, 314, 306, 305
643, 306, 314, 315
644, 315, 307, 306
645, 307, 315, 316
646, 316, 308, 307
647, 308, 316, 317
648, 317, 309, 308
649, 309, 317, 318
650, 318, 310, 309
651, 310, 318, 319
652, 319, 311, 310
653, 311, 319, 320
654, 320, 312, 311
655, 312, 320, 11
656, 11, 10, 312
657, 67, 68, 321
658, 321, 313, 67
659, 313, 321, 322
660, 322, 314, 313
661, 314, 322, 323
662, 323, 315, 314
663, 315, 323, 324
664, 324, 316, 315
665, 316, 324, 325
666, 325, 317, 316
667, 317, 325, 326
668, 326, 318, 317
669, 318, 326, 327
670, 327, 319, 318
671, 319, 327, 328
672, 328, 320, 319
673, 320, 328, 12
674, 12, 11, 320
675, 68, 69, 329
676, 329, 321, 68
677, 321, 329, 330
678, 330, 322, 321
679, 322, 330, 331
680, 331, 323, 322
681, 323, 331, 332
682, 332, 324, 323
683, 324, 332, 333
684, 333, 325, 324
685, 325, 333, 334
686, 334, 326, 325
687, 326, 334, 335
688, 335, 327, 326
689, 327, 335, 336
690, 336, 328, 327
691, 328, 336, 13
692, 13, 12, 328
693, 69, 70, 337
694, 337, 329, 69
695, 329, 337, 338
696, 338, 330, 329
697, 330, 338, 339
698, 339, 331, 330
699, 331, 339, 340
700, 340, 332, 331
701, 332, 340, 341
702, 341, 333, 332
703, 333, 341, 342
704, 342, 334, 333
705, 334, 342, 343
706, 343, 335, 334
707, 335, 343, 344
708, 344, 336, 335
709, 336, 344, 14
710, 14, 13, 336
711, 70, 71, 345
712, 345, 337, 70
713, 337, 345, 346
714, 346, 338, 337
715, 338, 346, 347
716, 347, 339, 338
717, 339, 347, 348
718, 348, 340, 339
719, 340, 348, 349
720, 349, 341, 340
721, 341, 349, 350
722, 350, 342, 341
723, 342, 350, 351
724, 351, 343, 342
725, 343, 351, 352
726, 352, 344, 343
727, 344, 352, 15
728, 15, 14, 344
729, 71, 72, 353
730, 353, 345, 71
731, 345, 353, 354
732, 354, 346, 345
733, 346, 354, 355
734, 355, 347, 346
735, 347, 355, 356
736, 356, 348, 347
737, 348, 356, 357
738, 357, 349, 348
739, 349, 357, 358
740, 358, 350, 349
741, 350, 358, 359
742, 359, 351, 350
743, 351, 359, 360
744, 360, 352, 351
745, 352, 360, 16
746, 16, 15, 352
747, 72, 4, 96
748, 96, 353, 72
749, 353, 96, 95
750, 95, 354, 353
751, 354, 95, 94
752, 94, 355, 354
753, 355, 94, 93
754, 93, 356, 355
755, 356, 93, 92
756, 92, 357, 356
757, 357, 92, 91
758, 91, 358, 357
759, 358, 91, 90
760, 90, 359, 358
761, 359, 90, 89
762, 89, 360, 359
763, 360, 89, 1
764, 1, 16, 360
*ELEMENT, type=CPS3, ELSET=Surface5
765, 5, 25, 73
766, 73, 25, 361
767, 73, 361, 74
768, 74, 361, 362
769, 74, 362, 75
770, 75, 362, 363
771, 75, 363, 76
772, 76, 363, 364
773, 76, 364, 77
774, 77, 364, 365
775, 77, 365, 78
776, 78, 365, 366
777, 78, 366, 79
778, 79, 366, 367
779, 79, 367, 80
780, 80, 367, 368
781, 80, 368, 8
782, 8, 368, 41
783, 25, 26, 361
784, 361, 26, 369
785, 361, 369, 362
786, 362, 369, 370
787, 362, 370, 363
788, 363, 370, 371
789, 363, 371, 364
790, 364, 371, 372
791, 364, 372, 365
792, 365, 372, 373
793, 365, 373, 366
794, 366, 373, 374
795, 366, 374, 367
796, 367, 374, 375
797, 367, 375, 368
798, 368, 375, 376
799, 368, 376, 41
800, 41, 376, 42
801, 26, 27, 369
802, 369, 27, 377
803, 369, 377, 370
804, 370, 377, 378
805, 370, 378, 371
806, 371, 378, 379
807, 371, 379, 372
808, 372, 379, 380
809, 372, 380, 373
810, 373, 380, 381
811, 373, 381, 374
812, 374, 381, 382
813, 374, 382, 375
814, 375, 382, 383
815, 375, 383, 376
816, 376, 383, 384
817, 376, 384, 42
818, 42, 384, 43
819, 27, 28, 377
820, 377, 28, 385
821, 377, 385, 378
822, 378, 385, 386
823, 378, 386, 379
824, 379, 386, 387
825, 379, 387, 380
826, 380, 387, 388
827, 380, 388, 381
828, 381, 388, 389
829, 381, 389, 382
830, 382, 389, 390
831, 382, 390, 383
832, 383, 390, 391
833, 383, 391, 384
834, 384, 391, 392
835, 384, 392, 43
836, 43, 392, 44
837, 28, 29, 385
838, 385, 29, 393
839, 385, 393, 386
840, 386, 393, 394
841, 386, 394, 387
842, 387, 394, 395
843, 387, 395, 388
844, 388, 395, 396
845, 388, 396, 389
846, 389, 396, 397
847, 389, 397, 390
848, 390, 397, 398
849, 390, 398, 391
850, 391, 398, 399
851, 391, 399, 392
852, 392, 399, 400
853, 392, 400, 44
854, 44, 400, 45
855, 29, 30, 393
856, 393, 30, 401
857, 393, 401, 394
858, 394, 401, 402
859, 394, 402, 395
860, 395, 402, 403
861, 395, 403, 396
862, 396, 403, 404
863, 396, 404, 397
864, 397, 404, 405
865, 397, 405, 398
866, 398, 405, 406
867, 398, 406, 399
868, 399, 406, 407
869, 399, 407, 400
870, 400, 407, 408
871, 400, 408, 45
872, 45, 408, 46
873, 30, 31, 401
874, 401, 31, 409
875, 401, 409, 402
876, 402, 409, 410
877, 402, 410, 403
878, 403, 410, 411
879, 403, 411, 404
880, 404, 411, 412
881, 404, 412, 405
882, 405, 412, 413
883, 405, 413, 406
884, 406, 413, 414
885, 406, 414, 407
886, 407, 414, 415
887, 407, 415, 408
888, 408, 415, 416
889, 408, 416, 46
890, 46, 416, 47
891, 31, 32, 409
892, 409, 32, 417
893, 409, 417, 410
894, 410, 417, 418
895, 410, 418, 411
896, 411, 418, 419
897, 411, 419, 412
898, 412, 419, 420
899, 412, 420, 413
900, 413, 420, 421
901, 413, 421, 414
902, 414, 421, 422
903, 414, 422, 415
904, 415, 422, 423
905, 415, 423, 416
906, 416, 423, 424
907, 416, 424, 47
908, 47, 424, 48
909, 32, 6, 417
910, 417, 6, 97
911, 417, 97, 418
912, 418, 97, 98
913, 418, 98, 419
914, 419, 98, 99
915, 419, 99, 420
916, 420, 99, 100
917, 420, 100, 421
918, 421, 100, 101
919, 421, 101, 422
920, 422, 101, 102
921, 422, 102, 423
922, 423, 102, 103
923, 423, 103, 424
924, 424, 103, 104
925, 424, 104, 48
926, 48, 104, 7
*ELEMENT, type=CPS3, ELSET=Surface6
927, 4, 49, 425
928, 425, 96, 4
929, 96, 425, 426
930, 426, 95, 96
931, 95, 426, 427
932, 427, 94, 95
933, 94, 427, 428
934, 428, 93, 94
935, 93, 428, 429
936, 429, 92, 93
937, 92, 429, 430
938, 430, 91, 92
939, 91, 430, 431
940, 431, 90, 91
941, 90, 431, 432
942, 432, 89, 90
943, 89, 432, 33
944, 33, 1, 89
945, 49, 50, 433
946, 433, 425, 49
947, 425, 433, 434
948, 434, 426, 425
949, 426, 434, 435
950, 435, 427, 426
951, 427, 435, 436
952, 436, 428, 427
953, 428, 436, 437
954, 437, 429, 428
955, 429, 437, 438
956, 438, 430, 429
957, 430, 438, 439
958, 439, 431, 430
959, 431, 439, 440
960, 440, 432, 431
961, 432, 440, 34
962, 34, 33, 432
963, 50, 51, 441
964, 441, 433, 50
965, 433, 441, 442
966, 442, 434, 433
967, 434, 442, 443
968, 443, 435, 434
969, 435, 443, 444
970, 444, 436, 435
971, 436, 444, 445
972, 445, 437, 436
973, 437, 445, 446
974, 446, 438, 437
975, 438, 446, 447
976, 447, 439, 438
977, 439, 447, 448
978, 448, 440, 439
979, 440, 448, 35
980, 35, 34, 440
981, 51, 52, 449
982, 449, 441, 51
983, 441, 449, 450
984, 450, 442, 441
985, 442, 450, 451
986, 451, 443, 442
987, 443, 451, 452
988, 452, 444, 443
989, 444, 452, 453
990, 453, 445, 444
991, 445, 453, 454
992, 454, 446, 445
993, 446, 454, 455
994, 455, 447, 446
995, 447, 455, 456
996, 456, 448, 447
997, 448, 456, 36
998, 36, 35, 448
999, 52, 53, 457
1000, 457, 449, 52
1001, 449, 457, 458
1002, 458, 450, 449
1003, 450, 458, 459
1004, 459, 451, 450
1005, 451, 459, 460
1006, 460, 452, 451
1007, 452, 460, 461
1008, 461, 453, 452
1009, 453, 461, 462
1010, 462, 454, 453
1011, 454, 462, 463
1012, 463, 455, 454
1013, 455, 463, 464
1014, 464, 456, 455
1015, 456, 464, 37
1016, 37, 36, 456
1017, 53, 54, 465
1018, 465, 457, 53
1019, 457, 465, 466
1020, 466, 458, 457
1021, 458, 466, 467
1022, 467, 459, 458
1023, 459, 467, 468
1024, 468, 460, 459
1025, 460, 468, 469
1026, 469, 461, 460
1027, 461, 469, 470
1028, 470, 462, 461
1029, 462, 470, 471
1030, 471, 463, 462
1031, 463, 471, 472
1032, 472, 464, 463
1033, 464, 472, 38
1034, 38, 37, 464
1035, 54, 55, 473
1036, 473, 465, 54
1037, 465, 473, 474
1038, 474, 466, 465
1039, 466, 474, 475
1040, 475, 467, 466
1041, 467, 475, 476
1042, 476, 468, 467
1043, 468, 476, 477
1044, 477, 469, 468
1045, 469, 477, 478
1046, 478, 470, 469
1047, 470, 478, 479
1048, 479, 471, 470
1049, 471, 479, 480
1050, 480, 472, 471
1051, 472, 480, 39
1052, 39, 38, 472
1053, 55, 56, 481
1054, 481, 473, 55
1055, 473, 481, 482
1056, 482, 474, 473
1057, 474, 482, 483
1058, 483, 475, 474
1059, 475, 483, 484
1060, 484, 476, 475
1061, 476, 484, 485
1062, 485, 477, 476
1063, 477, 485, 486
1064, 486, 478, 477
1065, 478, 486, 487
1066, 487, 479, 478
1067, 479, 487, 488
1068, 488, 480, 479
1069, 480, 488, 40
1070, 40, 39, 480
1071, 56, 3, 88
1072, 88, 481, 56
1073, 481, 88, 87
1074, 87, 482, 481
1075, 482, 87, 86
1076, 86, 483, 482
1077, 483, 86, 85
1078, 85, 484, 483
1079, 484, 85, 84
1080, 84, 485, 484
1081, 485, 84, 83
1082, 83, 486, 485
1083, 486, 83, 82
1084, 82, 487, 486
1085, 487, 82, 81
1086, 81, 488, 487
1087, 488, 81, 2
1088, 2, 40, 488
*ELEMENT, type=C3D4, ELSET=Volume1
1089, 25, 5, 73, 9
1090, 73, 25, 9, 105
1091, 105, 9, 73, 304
1092, 73, 25, 105, 361
1093, 304, 73, 105, 361
1094, 304, 105, 489, 361
1095, 105, 9, 304, 10
1096, 304, 105, 10, 106
1097, 106, 10, 304, 312
1098, 304, 105, 106, 489
1099, 312, 304, 106, 489
1100, 312, 106, 490, 489
1101, 106, 10, 312, 11
1102, 312, 106, 11, 107
1103, 107, 11, 312, 320
1104, 312, 106, 107, 490
1105, 320, 312, 107, 490
1106, 320, 107, 491, 490
1107, 107, 11, 320, 12
1108, 320, 107, 12, 108
1109, 108, 12, 320, 328
1110, 320, 107, 108, 491
1111, 328, 320, 108, 491
1112, 328, 108, 492, 491
1113, 108, 12, 328, 13
1114, 328, 108, 13, 109
1115, 109, 13, 328, 336
1116, 328, 108, 109, 492
1117, 336, 328, 109, 492
1118, 336, 109, 493, 492
1119, 109, 13, 336, 14
1120, 336, 109, 14, 110
1121, 110, 14, 336, 344
1122, 336, 109, 110, 493
1123, 344, 336, 110, 493
1124, 344, 110, 494, 493
1125, 110, 14, 344, 15
1126, 344, 110, 15, 111
1127, 111, 15, 344, 352
1128, 344, 110, 111, 494
1129, 352, 344, 111, 494
1130, 352, 111, 495, 494
1131, 111, 15, 352, 16
1132, 352, 111, 16, 112
1133, 112, 16, 352, 360
1134, 352, 111, 112, 495
1135, 360, 352, 112, 495
1136, 360, 112, 496, 495
1137, 112, 16, 360, 1
1138, 360, 112, 1, 33
1139, 33, 1, 360, 89
1140, 360, 112, 33, 496
1141, 89, 360, 33, 496
1142, 89, 33, 432, 496
1143, 361, 73, 74, 304
1144, 74, 361, 304, 489
1145, 489, 304, 74, 303
1146, 74, 361, 489, 362
1147, 303, 74, 489, 362
1148, 303, 489, 497, 362
1149, 489, 304, 303, 312
1150, 303, 489, 312, 490
1151, 490, 312, 303, 311
1152, 303, 489, 490, 497
1153, 311, 303, 490, 497
1154, 311, 490, 498, 497
1155, 490, 312, 311, 320
1156, 311, 490, 320, 491
1157, 491, 320, 311, 319
1158, 311, 490, 491, 498
1159, 319, 311, 491, 498
1160, 319, 491, 499, 498
1161, 491, 320, 319, 328
1162, 319, 491, 328, 492
1163, 492, 328, 319, 327
1164, 319, 491, 492, 499
1165, 327, 319, 492, 499
1166, 327, 492, 500, 499
1167, 492, 328, 327, 336
1168, 327, 492, 336, 493
1169, 493, 336, 327, 335
1170, 327, 492, 493, 500
1171, 335, 327, 493, 500
1172, 335, 493, 501, 500
1173, 493, 336, 335, 344
1174, 335, 493, 344, 494
1175, 494, 344, 335, 343
1176, 335, 493, 494, 501
1177, 343, 335, 494, 501
1178, 343, 494, 502, 501
1179, 494, 344, 343, 352
1180, 343, 494, 352, 495
1181, 495, 352, 343, 351
1182, 343, 494, 495, 502
1183, 351, 343, 495, 502
1184, 351, 495, 503, 502
1185, 495, 352, 351, 360
1186, 351, 495, 360, 496
1187, 496, 360, 351, 359
1188, 351, 495, 496, 503
1189, 359, 351, 496, 503
1190, 359, 496, 504, 503
1191, 496, 360, 359, 89
1192, 359, 496, 89, 432
1193, 432, 89, 359, 90
1194, 359, 496, 432, 504
1195, 90, 359, 432, 504
1196, 90, 432, 431, 504
1197, 362, 74, 75, 303
1198, 75, 362, 303, 497
1199, 497, 303, 75, 302
1200, 75, 362, 497, 363
1201, 302, 75, 497, 363
1202, 302, 497, 505, 363
1203, 497, 303, 302, 311
1204, 302, 497, 311, 498
1205, 498, 311, 302, 310
1206, 302, 497, 498, 505
1207, 310, 302, 498, 505
1208, 310, 498, 506, 505
1209, 498, 311, 310, 319
1210, 310, 498, 319, 499
1211, 499, 319, 310, 318
1212, 310, 498, 499, 506
1213, 318, 310, 499, 506
1214, 318, 499, 507, 506
1215, 499, 319, 318, 327
1216, 318, 499, 327, 500
1217, 500, 327, 318, 326
1218, 318, 499, 500, 507
1219, 326, 318, 500, 507
1220, 326, 500, 508, 507
1221, 500, 327, 326, 335
1222, 326, 500, 335, 501
1223, 501, 335, 326, 334
1224, 326, 500, 501, 508
1225, 334, 326, 501, 508
1226, 334, 501, 509, 508
1227, 501, 335, 334, 343
1228, 334, 501, 343, 502
1229, 502, 343, 334, 342
1230, 334, 501, 502, 509
1231, 342, 334, 502, 509
1232, 342, 502, 510, 509
1233, 502, 343, 342, 351
1234, 342, 502, 351, 503
1235, 503, 351, 342, 350
1236, 342, 502, 503, 510
1237, 350, 342, 503, 510
1238, 350, 503, 511, 510
1239, 503, 351, 350, 359
1240, 350, 503, 359, 504
1241, 504, 359, 350, 358
1242, 350, 503, 504, 511
1243, 358, 350, 504, 511
1244, 358, 504, 512, 511
1245, 504, 359, 358, 90
1246, 358, 504, 90, 431
1247, 431, 90, 358, 91
1248, 358, 504, 431, 512
1249, 91, 358, 431, 512
1250, 91, 431, 430, 512
1251, 363, 75, 76, 302
1252, 76, 363, 302, 505
1253, 505, 302, 76, 301
1254, 76, 363, 505, 364
1255, 301, 76, 505, 364
1256, 301, 505, 513, 364
1257, 505, 302, 301, 310
1258, 301, 505, 310, 506
1259, 506, 310, 301, 309
1260, 301, 505, 506, 513
1261, 309, 301, 506, 513
1262, 309, 506, 514, 513
1263, 506, 310, 309, 318
1264, 309, 506, 318, 507
1265, 507, 318, 309, 317
1266, 309, 506, 507, 514
1267, 317, 309, 507, 514
1268, 317, 507, 515, 514
1269, 507, 318, 317, 326
1270, 317, 507, 326, 508
1271, 508, 326, 317, 325
1272, 317, 507, 508, 515
1273, 325, 317, 508, 515
1274, 325, 508, 516, 515
1275, 508, 326, 325, 334
1276, 325, 508, 334, 509
1277, 509, 334, 325, 333
1278, 325, 508, 509, 516
1279, 333, 325, 509, 516
1280, 333, 509, 517, 516
1281, 509, 334, 333, 342
1282, 333, 509, 342, 510
1283, 510, 342, 333, 341
1284, 333, 509, 510, 517
1285, 341, 333, 510, 517
1286, 341, 510, 518, 517
1287, 510, 342, 341, 350
1288, 341, 510, 350, 511
1289, 511, 350, 341, 349
1290, 341, 510, 511, 518
1291, 349, 341, 511, 518
1292, 349, 511, 519, 518
1293, 511, 350, 349, 358
1294, 349, 511, 358, 512
1295, 512, 358, 349, 357
1296, 349, 511, 512, 519
1297, 357, 349, 512, 519
1298, 357, 512, 520, 519
1299, 512, 358, 357, 91
1300, 357, 512, 91, 430
1301, 430, 91, 357, 92
1302, 357, 512, 430, 520
1303, 92, 357, 430, 520
1304, 92, 430, 429, 520
1305, 364, 76, 77, 301
1306, 77, 364, 301, 513
1307, 513, 301, 77, 300
1308, 77, 364, 513, 365
1309, 300, 77, 513, 365
1310, 300, 513, 521, 365
1311, 513, 301, 300, 309
1312, 300, 513, 309, 514
1313, 514, 309, 300, 308
1314, 300, 513, 514, 521
1315, 308, 300, 514, 521
1316, 308, 514, 522, 521
1317, 514, 309, 308, 317
1318, 308, 514, 317, 515
1319, 515, 317, 308, 316
1320, 308, 514, 515, 522
1321, 316, 308, 515, 522
1322, 316, 515, 523, 522
1323, 515, 317, 316, 325
1324, 316, 515, 325, 516
1325, 516, 325, 316, 324
1326, 316, 515, 516, 523
1327, 324, 316, 516, 523
1328, 324, 516, 524, 523
1329, 516, 325, 324, 333
1330, 324, 516, 333, 517
1331, 517, 333, 324, 332
1332, 324, 516, 517, 524
1333, 332, 324, 517, 524
1334, 332, 517, 525, 524
1335, 517, 333, 332, 341
1336, 332, 517, 341, 518
1337, 518, 341, 332, 340
1338, 332, 517, 518, 525
1339, 340, 332, 518, 525
1340, 340, 518, 526, 525
1341, 518, 341, 340, 349
1342, 340, 518, 349, 519
1343, 519, 349, 340, 348
1344, 340, 518, 519, 526
1345, 348, 340, 519, 526
1346, 348, 519, 527, 526
1347, 519, 349, 348, 357
1348, 348, 519, 357, 520
1349, 520, 357, 348, 356
1350, 348, 519, 520, 527
1351, 356, 348, 520, 527
1352, 356, 520, 528, 527
1353, 520, 357, 356, 92
1354, 356, 520, 92, 429
1355, 429, 92, 356, 93
1356, 356, 520, 429, 528
1357, 93, 356, 429, 528
1358, 93, 429, 428, 528
1359, 365, 77, 78, 300
1360, 78, 365, 300, 521
1361, 521, 300, 78, 299
1362, 78, 365, 521, 366
1363, 299, 78, 521, 366
1364, 299, 521, 529, 366
1365, 521, 300, 299, 308
1366, 299, 521, 308, 522
1367, 522, 308, 299, 307
1368, 299, 521, 522, 529
1369, 307, 299, 522, 529
1370, 307, 522, 530, 529
1371, 522, 308, 307, 316
1372, 307, 522, 316, 523
1373, 523, 316, 307, 315
1374, 307, 522, 523, 530
1375, 315, 307, 523, 530
1376, 315, 523, 531, 530
1377, 523, 316, 315, 324
1378, 315, 523, 324, 524
1379, 524, 324, 315, 323
1380, 315, 523, 524, 531
1381, 323, 315, 524, 531
1382, 323, 524, 532, 531
1383, 524, 324, 323, 332
1384, 323, 524, 332, 525
1385, 525, 332, 323, 331
1386, 323, 524, 525, 532
1387, 331, 323, 525, 532
1388, 331, 525, 533, 532
1389, 525, 332, 331, 340
1390, 331, 525, 340, 526
1391, 526, 340, 331, 339
1392, 331, 525, 526, 533
1393, 339, 331, 526, 533
1394, 339, 526, 534, 533
1395, 526, 340, 339, 348
1396, 339, 526, 348, 527
1397, 527, 348, 339, 347
1398, 339, 526, 527, 534
1399, 347, 339, 527, 534
1400, 347, 527, 535, 534
1401, 527, 348, 347, 356
1402, 347, 527, 356, 528
1403, 528, 356, 347, 355
1404, 347, 527, 528, 535
1405, 355, 347, 528, 535
1406, 355, 528, 536, 535
1407, 528, 356, 355, 93
1408, 355, 528, 93, 428
1409, 428, 93, 355, 94
1410, 355, 528, 428, 536
1411, 94, 355, 428, 536
1412, 94, 428, 427, 536
1413, 366, 78, 79, 299
1414, 79, 366, 299, 529
1415, 529, 299, 79, 298
1416, 79, 366, 529, 367
1417, 298, 79, 529, 367
1418, 298, 529, 537, 367
1419, 529, 299, 298, 307
1420, 298, 529, 307, 530
1421, 530, 307, 298, 306
1422, 298, 529, 530, 537
1423, 306, 298, 530, 537
1424, 306, 530, 538, 537
1425, 530, 307, 306, 315
1426, 306, 530, 315, 531
1427, 531, 315, 306, 314
1428, 306, 530, 531, 538
1429, 314, 306, 531, 538
1430, 314, 531, 539, 538
1431, 531, 315, 314, 323
1432, 314, 531, 323, 532
1433, 532, 323, 314, 322
1434, 314, 531, 532, 539
1435, 322, 314, 532, 539
1436, 322, 532, 540, 539
1437, 532, 323, 322, 331
1438, 322, 532, 331, 533
1439, 533, 331, 322, 330
1440, 322, 532, 533, 540
1441, 330, 322, 533, 540
1442, 330, 533, 541, 540
1443, 533, 331, 330, 339
1444, 330, 533, 339, 534
1445, 534, 339, 330, 338
1446, 330, 533, 534, 541
1447, 338, 330, 534, 541
1448, 338, 534, 542, 541
1449, 534, 339, 338, 347
1450, 338, 534, 347, 535
1451, 535, 347, 338, 346
1452, 338, 534, 535, 542
1453, 346, 338, 535, 542
1454, 346, 535, 543, 542
1455, 535, 347, 346, 355
1456, 346, 535, 355, 536
1457, 536, 355, 346, 354
1458, 346, 535, 536, 543
1459, 354, 346, 536, 543
1460, 354, 536, 544, 543
1461, 536, 355, 354, 94
1462, 354, 536, 94, 427
1463, 427, 94, 354, 95
1464, 354, 536, 427, 544
1465, 95, 354, 427, 544
1466, 95, 427, 426, 544
1467, 367, 79, 80, 298
1468, 80, 367, 298, 537
1469, 537, 298, 80, 297
1470, 80, 367, 537, 368
1471, 297, 80, 537, 368
1472, 297, 537, 545, 368
1473, 537, 298, 297, 306
1474, 297, 537, 306, 538
1475, 538, 306, 297, 305
1476, 297, 537, 538, 545
1477, 305, 297, 538, 545
1478, 305, 538, 546, 545
1479, 538, 306, 305, 314
1480, 305, 538, 314, 539
1481, 539, 314, 305, 313
1482, 305, 538, 539, 546
1483, 313, 305, 539, 546
1484, 313, 539, 547, 546
1485, 539, 314, 313, 322
1486, 313, 539, 322, 540
1487, 540, 322, 313, 321
1488, 313, 539, 540, 547
1489, 321, 313, 540, 547
1490, 321, 540, 548, 547
1491, 540, 322, 321, 330
1492, 321, 540, 330, 541
1493, 541, 330, 321, 329
1494, 321, 540, 541, 548
1495, 329, 321, 541, 548
1496, 329, 541, 549, 548
1497, 541, 330, 329, 338
1498, 329, 541, 338, 542
1499, 542, 338, 329, 337
1500, 329, 541, 542, 549
1501, 337, 329, 542, 549
1502, 337, 542, 550, 549
1503, 542, 338, 337, 346
1504, 337, 542, 346, 543
1505, 543, 346, 337, 345
1506, 337, 542, 543, 550
1507, 345, 337, 543, 550
1508, 345, 543, 551, 550
1509, 543, 346, 345, 354
1510, 345, 543, 354, 544
1511, 544, 354, 345, 353
1512, 345, 543, 544, 551
1513, 353, 345, 544, 551
1514, 353, 544, 552, 551
1515, 544, 354, 353, 95
1516, 353, 544, 95, 426
1517, 426, 95, 353, 96
1518, 353, 544, 426, 552
1519, 96, 353, 426, 552
1520, 96, 426, 425, 552
1521, 368, 80, 8, 297
1522, 8, 368, 297, 545
1523, 545, 297, 8, 65
1524, 8, 368, 545, 41
1525, 65, 8, 545, 41
1526, 65, 545, 240, 41
1527, 545, 297, 65, 305
1528, 65, 545, 305, 546
1529, 546, 305, 65, 66
1530, 65, 545, 546, 240
1531, 66, 65, 546, 240
1532, 66, 546, 239, 240
1533, 546, 305, 66, 313
1534, 66, 546, 313, 547
1535, 547, 313, 66, 67
1536, 66, 546, 547, 239
1537, 67, 66, 547, 239
1538, 67, 547, 238, 239
1539, 547, 313, 67, 321
1540, 67, 547, 321, 548
1541, 548, 321, 67, 68
1542, 67, 547, 548, 238
1543, 68, 67, 548, 238
1544, 68, 548, 237, 238
1545, 548, 321, 68, 329
1546, 68, 548, 329, 549
1547, 549, 329, 68, 69
1548, 68, 548, 549, 237
1549, 69, 68, 549, 237
1550, 69, 549, 236, 237
1551, 549, 329, 69, 337
1552, 69, 549, 337, 550
1553, 550, 337, 69, 70
1554, 69, 549, 550, 236
1555, 70, 69, 550, 236
1556, 70, 550, 235, 236
1557, 550, 337, 70, 345
1558, 70, 550, 345, 551
1559, 551, 345, 70, 71
1560, 70, 550, 551, 235
1561, 71, 70, 551, 235
1562, 71, 551, 234, 235
1563, 551, 345, 71, 353
1564, 71, 551, 353, 552
1565, 552, 353, 71, 72
1566, 71, 551, 552, 234
1567, 72, 71, 552, 234
1568, 72, 552, 233, 234
1569, 552, 353, 72, 96
1570, 72, 552, 96, 425
1571, 425, 96, 72, 4
1572, 72, 552, 425, 233
1573, 4, 72, 425, 233
1574, 4, 425, 49, 233
1575, 26, 25, 361, 105
1576, 361, 26, 105, 113
1577, 113, 105, 361, 489
1578, 361, 26, 113, 369
1579, 489, 361, 113, 369
1580, 489, 113, 553, 369
1581, 113, 105, 489, 106
1582, 489, 113, 106, 114
1583, 114, 106, 489, 490
1584, 489, 113, 114, 553
1585, 490, 489, 114, 553
1586, 490, 114, 554, 553
1587, 114, 106, 490, 107
1588, 490, 114, 107, 115
1589, 115, 107, 490, 491
1590, 490, 114, 115, 554
1591, 491, 490, 115, 554
1592, 491, 115, 555, 554
1593, 115, 107, 491, 108
1594, 491, 115, 108, 116
1595, 116, 108, 491, 492
1596, 491, 115, 116, 555
1597, 492, 491, 116, 555
1598, 492, 116, 556, 555
1599, 116, 108, 492, 109
1600, 492, 116, 109, 117
1601, 117, 109, 492, 493
1602, 492, 116, 117, 556
1603, 493, 492, 117, 556
1604, 493, 117, 557, 556
1605, 117, 109, 493, 110
1606, 493, 117, 110, 118
1607, 118, 110, 493, 494
1608, 493, 117, 118, 557
1609, 494, 493, 118, 557
1610, 494, 118, 558, 557
1611, 118, 110, 494, 111
1612, 494, 118, 111, 119
1613, 119, 111, 494, 495
1614, 494, 118, 119, 558
1615, 495, 494, 119, 558
1616, 495, 119, 559, 558
1617, 119, 111, 495, 112
1618, 495, 119, 112, 120
1619, 120, 112, 495, 496
1620, 495, 119, 120, 559
1621, 496, 495, 120, 559
1622, 496, 120, 560, 559
1623, 120, 112, 496, 33
1624, 496, 120, 33, 34
1625, 34, 33, 496, 432
1626, 496, 120, 34, 560
1627, 432, 496, 34, 560
1628, 432, 34, 440, 560
1629, 369, 361, 362, 489
1630, 362, 369, 489, 553
1631, 553, 489, 362, 497
1632, 362, 369, 553, 370
1633, 497, 362, 553, 370
1634, 497, 553, 561, 370
1635, 553, 489, 497, 490
1636, 497, 553, 490, 554
1637, 554, 490, 497, 498
1638, 497, 553, 554, 561
1639, 498, 497, 554, 561
1640, 498, 554, 562, 561
1641, 554, 490, 498, 491
1642, 498, 554, 491, 555
1643, 555, 491, 498, 499
1644, 498, 554, 555, 562
1645, 499, 498, 555, 562
1646, 499, 555, 563, 562
1647, 555, 491, 499, 492
1648, 499, 555, 492, 556
1649, 556, 492, 499, 500
1650, 499, 555, 556, 563
1651, 500, 499, 556, 563
1652, 500, 556, 564, 563
1653, 556, 492, 500, 493
1654, 500, 556, 493, 557
1655, 557, 493, 500, 501
1656, 500, 556, 557, 564
1657, 501, 500, 557, 564
1658, 501, 557, 565, 564
1659, 557, 493, 501, 494
1660, 501, 557, 494, 558
1661, 558, 494, 501, 502
1662, 501, 557, 558, 565
1663, 502, 501, 558, 565
1664, 502, 558, 566, 565
1665, 558, 494, 502, 495
1666, 502, 558, 495, 559
1667, 559, 495, 502, 503
1668, 502, 558, 559, 566
1669, 503, 502, 559, 566
1670, 503, 559, 567, 566
1671, 559, 495, 503, 496
1672, 503, 559, 496, 560
1673, 560, 496, 503, 504
1674, 503, 559, 560, 567
1675, 504, 503, 560, 567
1676, 504, 560, 568, 567
1677, 560, 496, 504, 432
1678, 504, 560, 432, 440
1679, 440, 432, 504, 431
1680, 504, 560, 440, 568
1681, 431, 504, 440, 568
1682, 431, 440, 439, 568
1683, 370, 362, 363, 497
1684, 363, 370, 497, 561
1685, 561, 497, 363, 505
1686, 363, 370, 561, 371
1687, 505, 363, 561, 371
1688, 505, 561, 569, 371
1689, 561, 497, 505, 498
1690, 505, 561, 498, 562
1691, 562, 498, 505, 506
1692, 505, 561, 562, 569
1693, 506, 505, 562, 569
1694, 506, 562, 570, 569
1695, 562, 498, 506, 499
1696, 506, 562, 499, 563
1697, 563, 499, 506, 507
1698, 506, 562, 563, 570
1699, 507, 506, 563, 570
1700, 507, 563, 571, 570
1701, 563, 499, 507, 500
1702, 507, 563, 500, 564
1703, 564, 500, 507, 508
1704, 507, 563, 564, 571
1705, 508, 507, 564, 571
1706, 508, 564, 572, 571
1707, 564, 500, 508, 501
1708, 508, 564, 501, 565
1709, 565, 501, 508, 509
1710, 508, 564, 565, 572
1711, 509, 508, 565, 572
1712, 509, 565, 573, 572
1713, 565, 501, 509, 502
1714, 509, 565, 502, 566
1715, 566, 502, 509, 510
1716, 509, 565, 566, 573
1717, 510, 509, 566, 573
1718, 510, 566, 574, 573
1719, 566, 502, 510, 503
1720, 510, 566, 503, 567
1721, 567, 503, 510, 511
1722, 510, 566, 567, 574
1723, 511, 510, 567, 574
1724, 511, 567, 575, 574
1725, 567, 503, 511, 504
1726, 511, 567, 504, 568
1727, 568, 504, 511, 512
1728, 511, 567, 568, 575
1729, 512, 511, 568, 575
1730, 512, 568, 576, 575
1731, 568, 504, 512, 431
1732, 512, 568, 431, 439
1733, 439, 431, 512, 430
1734, 512, 568, 439, 576
1735, 430, 512, 439, 576
1736, 430, 439, 438, 576
1737, 371, 363, 364, 505
1738, 364, 371, 505, 569
1739, 569, 505, 364, 513
1740, 364, 371, 569, 372
1741, 513, 364, 569, 372
1742, 513, 569, 577, 372
1743, 569, 505, 513, 506
1744, 513, 569, 506, 570
1745, 570, 506, 513, 514
1746, 513, 569, 570, 577
1747, 514, 513, 570, 577
1748, 514, 570, 578, 577
1749, 570, 506, 514, 507
1750, 514, 570, 507, 571
1751, 571, 507, 514, 515
1752, 514, 570, 571, 578
1753, 515, 514, 571, 578
1754, 515, 571, 579, 578
1755, 571, 507, 515, 508
1756, 515, 571, 508, 572
1757, 572, 508, 515, 516
1758, 515, 571, 572, 579
1759, 516, 515, 572, 579
1760, 516, 572, 580, 579
1761, 572, 508, 516, 509
1762, 516, 572, 509, 573
1763, 573, 509, 516, 517
1764, 516, 572, 573, 580
1765, 517, 516, 573, 580
1766, 517, 573, 581, 580
1767, 573, 509, 517, 510
1768, 517, 573, 510, 574
1769, 574, 510, 517, 518
1770, 517, 573, 574, 581
1771, 518, 517, 574, 581
1772, 518, 574, 582, 581
1773, 574, 510, 518, 511
1774, 518, 574, 511, 575
1775, 575, 511, 518, 519
1776, 518, 574, 575, 582
1777, 519, 518, 575, 582
1778, 519, 575, 583, 582
1779, 575, 511, 519, 512
1780, 519, 575, 512, 576
1781, 576, 512, 519, 520
1782, 519, 575, 576, 583
1783, 520, 519, 576, 583
1784, 520, 576, 584, 583
1785, 576, 512, 520, 430
1786, 520, 576, 430, 438
1787, 438, 430, 520, 429
1788, 520, 576, 438, 584
1789, 429, 520, 438, 584
1790, 429, 438, 437, 584
1791, 372, 364, 365, 513
1792, 365, 372, 513, 577
1793, 577, 513, 365, 521
1794, 365, 372, 577, 373
1795, 521, 365, 577, 373
1796, 521, 577, 585, 373
1797, 577, 513, 521, 514
1798, 521, 577, 514, 578
1799, 578, 514, 521, 522
1800, 521, 577, 578, 585
1801, 522, 521, 578, 585
1802, 522, 578, 586, 585
1803, 578, 514, 522, 515
1804, 522, 578, 515, 579
1805, 579, 515, 522, 523
1806, 522, 578, 579, 586
1807, 523, 522, 579, 586
1808, 523, 579, 587, 586
1809, 579, 515, 523, 516
1810, 523, 579, 516, 580
1811, 580, 516, 523, 524
1812, 523, 579, 580, 587
1813, 524, 523, 580, 587
1814, 524, 580, 588, 587
1815, 580, 516, 524, 517
1816, 524, 580, 517, 581
1817, 581, 517, 524, 525
1818, 524, 580, 581, 588
1819, 525, 524, 581, 588
1820, 525, 581, 589, 588
1821, 581, 517, 525, 518
1822, 525, 581, 518, 582
1823, 582, 518, 525, 526
1824, 525, 581, 582, 589
1825, 526, 525, 582, 589
1826, 526, 582, 590, 589
1827, 582, 518, 526, 519
1828, 526, 582, 519, 583
1829, 583, 519, 526, 527
1830, 526, 582, 583, 590
1831, 527, 526, 583, 590
1832, 527, 583, 591, 590
1833, 583, 519, 527, 520
1834, 527, 583, 520, 584
1835, 584, 520, 527, 528
1836, 527, 583, 584, 591
1837, 528, 527, 584, 591
1838, 528, 584, 592, 591
1839, 584, 520, 528, 429
1840, 528, 584, 429, 437
1841, 437, 429, 528, 428
1842, 528, 584, 437, 592
1843, 428, 528, 437, 592
1844, 428, 437, 436, 592
1845, 373, 365, 366, 521
1846, 366, 373, 521, 585
1847, 585, 521, 366, 529
1848, 366, 373, 585, 374
1849, 529, 366, 585, 374
1850, 529, 585, 593, 374
1851, 585, 521, 529, 522
1852, 529, 585, 522, 586
1853, 586, 522, 529, 530
1854, 529, 585, 586, 593
1855, 530, 529, 586, 593
1856, 530, 586, 594, 593
1857, 586, 522, 530, 523
1858, 530, 586, 523, 587
1859, 587, 523, 530, 531
1860, 530, 586, 587, 594
1861, 531, 530, 587, 594
1862, 531, 587, 595, 594
1863, 587, 523, 531, 524
1864, 531, 587, 524, 588
1865, 588, 524, 531, 532
1866, 531, 587, 588, 595
1867, 532, 531, 588, 595
1868, 532, 588, 596, 595
1869, 588, 524, 532, 525
1870, 532, 588, 525, 589
1871, 589, 525, 532, 533
1872, 532, 588, 589, 596
1873, 533, 532, 589, 596
1874, 533, 589, 597, 596
1875, 589, 525, 533, 526
1876, 533, 589, 526, 590
1877, 590, 526, 533, 534
1878, 533, 589, 590, 597
1879, 534, 533, 590, 597
1880, 534, 590, 598, 597
1881, 590, 526, 534, 527
1882, 534, 590, 527, 591
1883, 591, 527, 534, 535
1884, 534, 590, 591, 598
1885, 535, 534, 591, 598
1886, 535, 591, 599, 598
1887, 591, 527, 535, 528
1888, 535, 591, 528, 592
1889, 592, 528, 535, 536
1890, 535, 591, 592, 599
1891, 536, 535, 592, 599
1892, 536, 592, 600, 599
1893, 592, 528, 536, 428
1894, 536, 592, 428, 436
1895, 436, 428, 536, 427
1896, 536, 592, 436, 600
1897, 427, 536, 436, 600
1898, 427, 436, 435, 600
1899, 374, 366, 367, 529
1900, 367, 374, 529, 593
1901, 593, 529, 367, 537
1902, 367, 374, 593, 375
1903, 537, 367, 593, 375
1904, 537, 593, 601, 375
1905, 593, 529, 537, 530
1906, 537, 593, 530, 594
1907, 594, 530, 537, 538
1908, 537, 593, 594, 601
1909, 538, 537, 594, 601
1910, 538, 594, 602, 601
1911, 594, 530, 538, 531
1912, 538, 594, 531, 595
1913, 595, 531, 538, 539
1914, 538, 594, 595, 602
1915, 539, 538, 595, 602
1916, 539, 595, 603, 602
1917, 595, 531, 539, 532
1918, 539, 595, 532, 596
1919, 596, 532, 539, 540
1920, 539, 595, 596, 603
1921, 540, 539, 596, 603
1922, 540, 596, 604, 603
1923, 596, 532, 540, 533
1924, 540, 596, 533, 597
1925, 597, 533, 540, 541
1926, 540, 596, 597, 604
1927, 541, 540, 597, 604
1928, 541, 597, 605, 604
1929, 597, 533, 541, 534
1930, 541, 597, 534, 598
1931, 598, 534, 541, 542
1932, 541, 597, 598, 605
1933, 542, 541, 598, 605
1934, 542, 598, 606, 605
1935, 598, 534, 542, 535
1936, 542, 598, 535, 599
1937, 599, 535, 542, 543
1938, 542, 598, 599, 606
1939, 543, 542, 599, 606
1940, 543, 599, 607, 606
1941, 599, 535, 543, 536
1942, 543, 599, 536, 600
1943, 600, 536, 543, 544
1944, 543, 599, 600, 607
1945, 544, 543, 600, 607
1946, 544, 600, 608, 607
1947, 600, 536, 544, 427
1948, 544, 600, 427, 435
1949, 435, 427, 544, 426
1950, 544, 600, 435, 608
1951, 426, 544, 435, 608
1952, 426, 435, 434, 608
1953, 375, 367, 368, 537
1954, 368, 375, 537, 601
1955, 601, 537, 368, 545
1956, 368, 375, 601, 376
1957, 545, 368, 601, 376
1958, 545, 601, 609, 376
1959, 601, 537, 545, 538
1960, 545, 601, 538, 602
1961, 602, 538, 545, 546
1962, 545, 601, 602, 609
1963, 546, 545, 602, 609
1964, 546, 602, 610, 609
1965, 602, 538, 546, 539
1966, 546, 602, 539, 603
1967, 603, 539, 546, 547
1968, 546, 602, 603, 610
1969, 547, 546, 603, 610
1970, 547, 603, 611, 610
1971, 603, 539, 547, 540
1972, 547, 603, 540, 604
1973, 604, 540, 547, 548
1974, 547, 603, 604, 611
1975, 548, 547, 604, 611
1976, 548, 604, 612, 611
1977, 604, 540, 548, 541
1978, 548, 604, 541, 605
1979, 605, 541, 548, 549
1980, 548, 604, 605, 612
1981, 549, 548, 605, 612
1982, 549, 605, 613, 612
1983, 605, 541, 549, 542
1984, 549, 605, 542, 606
1985, 606, 542, 549, 550
1986, 549, 605, 606, 613
1987, 550, 549, 606, 613
1988, 550, 606, 614, 613
1989, 606, 542, 550, 543
1990, 550, 606, 543, 607
1991, 607, 543, 550, 551
1992, 550, 606, 607, 614
1993, 551, 550, 607, 614
1994, 551, 607, 615, 614
1995, 607, 543, 551, 544
1996, 551, 607, 544, 608
1997, 608, 544, 551, 552
1998, 551, 607, 608, 615
1999, 552, 551, 608, 615
2000, 552, 608, 616, 615
2001, 608, 544, 552, 426
2002, 552, 608, 426, 434
2003, 434, 426, 552, 425
2004, 552, 608, 434, 616
2005, 425, 552, 434, 616
2006, 425, 434, 433, 616
2007, 376, 368, 41, 545
2008, 41, 376, 545, 609
2009, 609, 545, 41, 240
2010, 41, 376, 609, 42
2011, 240, 41, 609, 42
2012, 240, 609, 248, 42
2013, 609, 545, 240, 546
2014, 240, 609, 546, 610
2015, 610, 546, 240, 239
2016, 240, 609, 610, 248
2017, 239, 240, 610, 248
2018, 239, 610, 247, 248
2019, 610, 546, 239, 547
2020, 239, 610, 547, 611
2021, 611, 547, 239, 238
2022, 239, 610, 611, 247
2023, 238, 239, 611, 247
2024, 238, 611, 246, 247
2025, 611, 547, 238, 548
2026, 238, 611, 548, 612
2027, 612, 548, 238, 237
2028, 238, 611, 612, 246
2029, 237, 238, 612, 246
2030, 237, 612, 245, 246
2031, 612, 548, 237, 549
2032, 237, 612, 549, 613
2033, 613, 549, 237, 236
2034, 237, 612, 613, 245
2035, 236, 237, 613, 245
2036, 236, 613, 244, 245
2037, 613, 549, 236, 550
2038, 236, 613, 550, 614
2039, 614, 550, 236, 235
2040, 236, 613, 614, 244
2041, 235, 236, 614, 244
2042, 235, 614, 243, 244
2043, 614, 550, 235, 551
2044, 235, 614, 551, 615
2045, 615, 551, 235, 234
2046, 235, 614, 615, 243
2047, 234, 235, 615, 243
2048, 234, 615, 242, 243
2049, 615, 551, 234, 552
2050, 234, 615, 552, 616
2051, 616, 552, 234, 233
2052, 234, 615, 616, 242
2053, 233, 234, 616, 242
2054, 233, 616, 241, 242
2055, 616, 552, 233, 425
2056, 233, 616, 425, 433
2057, 433, 425, 233, 49
2058, 233, 616, 433, 241
2059, 49, 233, 433, 241
2060, 49, 433, 50, 241
2061, 27, 26, 369, 113
2062, 369, 27, 113, 121
2063, 121, 113, 369, 553
2064, 369, 27, 121, 377
2065, 553, 369, 121, 377
2066, 553, 121, 617, 377
2067, 121, 113, 553, 114
2068, 553, 121, 114, 122
2069, 122, 114, 553, 554
2070, 553, 121, 122, 617
2071, 554, 553, 122, 617
2072, 554, 122, 618, 617
2073, 122, 114, 554, 115
2074, 554, 122, 115, 123
2075, 123, 115, 554, 555
2076, 554, 122, 123, 618
2077, 555, 554, 123, 618
2078, 555, 123, 619, 618
2079, 123, 115, 555, 116
2080, 555, 123, 116, 124
2081, 124, 116, 555, 556
2082, 555, 123, 124, 619
2083, 556, 555, 124, 619
2084, 556, 124, 620, 619
2085, 124, 116, 556, 117
2086, 556, 124, 117, 125
2087, 125, 117, 556, 557
2088, 556, 124, 125, 620
2089, 557, 556, 125, 620
2090, 557, 125, 621, 620
2091, 125, 117, 557, 118
2092, 557, 125, 118, 126
2093, 126, 118, 557, 558
2094, 557, 125, 126, 621
2095, 558, 557, 126, 621
2096, 558, 126, 622, 621
2097, 126, 118, 558, 119
2098, 558, 126, 119, 127
2099, 127, 119, 558, 559
2100, 558, 126, 127, 622
2101, 559, 558, 127, 622
2102, 559, 127, 623, 622
2103, 127, 119, 559, 120
2104, 559, 127, 120, 128
2105, 128, 120, 559, 560
2106, 559, 127, 128, 623
2107, 560, 559, 128, 623
2108, 560, 128, 624, 623
2109, 128, 120, 560, 34
2110, 560, 128, 34, 35
2111, 35, 34, 560, 440
2112, 560, 128, 35, 624
2113, 440, 560, 35, 624
2114, 440, 35, 448, 624
2115, 377, 369, 370, 553
2116, 370, 377, 553, 617
2117, 617, 553, 370, 561
2118, 370, 377, 617, 378
2119, 561, 370, 617, 378
2120, 561, 617, 625, 378
2121, 617, 553, 561, 554
2122, 561, 617, 554, 618
2123, 618, 554, 561, 562
2124, 561, 617, 618, 625
2125, 562, 561, 618, 625
2126, 562, 618, 626, 625
2127, 618, 554, 562, 555
2128, 562, 618, 555, 619
2129, 619, 555, 562, 563
2130, 562, 618, 619, 626
2131, 563, 562, 619, 626
2132, 563, 619, 627, 626
2133, 619, 555, 563, 556
2134, 563, 619, 556, 620
2135, 620, 556, 563, 564
2136, 563, 619, 620, 627
2137, 564, 563, 620, 627
2138, 564, 620, 628, 627
2139, 620, 556, 564, 557
2140, 564, 620, 557, 621
2141, 621, 557, 564, 565
2142, 564, 620, 621, 628
2143, 565, 564, 621, 628
2144, 565, 621, 629, 628
2145, 621, 557, 565, 558
2146, 565, 621, 558, 622
2147, 622, 558, 565, 566
2148, 565, 621, 622, 629
2149, 566, 565, 622, 629
2150, 566, 622, 630, 629
2151, 622, 558, 566, 559
2152, 566, 622, 559, 623
2153, 623, 559, 566, 567
2154, 566, 622, 623, 630
2155, 567, 566, 623, 630
2156, 567, 623, 631, 630
2157, 623, 559, 567, 560
2158, 567, 623, 560, 624
2159, 624, 560, 567, 568
2160, 567, 623, 624, 631
2161, 568, 567, 624, 631
2162, 568, 624, 632, 631
2163, 624, 560, 568, 440
2164, 568, 624, 440, 448
2165, 448, 440, 568, 439
2166, 568, 624, 448, 632
2167, 439, 568, 448, 632
2168, 439, 448, 447, 632
2169, 378, 370, 371, 561
2170, 371, 378, 561, 625
2171, 625, 561, 371, 569
2172, 371, 378, 625, 379
2173, 569, 371, 625, 379
2174, 569, 625, 633, 379
2175, 625, 561, 569, 562
2176, 569, 625, 562, 626
2177, 626, 562, 569, 570
2178, 569, 625, 626, 633
2179, 570, 569, 626, 633
2180, 570, 626, 634, 633
2181, 626, 562, 570, 563
2182, 570, 626, 563, 627
2183, 627, 563, 570, 571
2184, 570, 626, 627, 634
2185, 571, 570, 627, 634
2186, 571, 627, 635, 634
2187, 627, 563, 571, 564
2188, 571, 627, 564, 628
2189, 628, 564, 571, 572
2190, 571, 627, 628, 635
2191, 572, 571, 628, 635
2192, 572, 628, 636, 635
2193, 628, 564, 572, 565
2194, 572, 628, 565, 629
2195, 629, 565, 572, 573
2196, 572, 628, 629, 636
2197, 573, 572, 629, 636
2198, 573, 629, 637, 636
2199, 629, 565, 573, 566
2200, 573, 629, 566, 630
2201, 630, 566, 573, 574
2202, 573, 629, 630, 637
2203, 574, 573, 630, 637
2204, 574, 630, 638, 637
2205, 630, 566, 574, 567
2206, 574, 630, 567, 631
2207, 631, 567, 574, 575
2208, 574, 630, 631, 638
2209, 575, 574, 631, 638
2210, 575, 631, 639, 638
2211, 631, 567, 575, 568
2212, 575, 631, 568, 632
2213, 632, 568, 575, 576
2214, 575, 631, 632, 639
2215, 576, 575, 632, 639
2216, 576, 632, 640, 639
2217, 632, 568, 576, 439
2218, 576, 632, 439, 447
2219, 447, 439, 576, 438
2220, 576, 632, 447, 640
2221, 438, 576, 447, 640
2222, 438, 447, 446, 640
2223, 379, 371, 372, 569
2224, 372, 379, 569, 633
2225, 633, 569, 372, 577
2226, 372, 379, 633, 380
2227, 577, 372, 633, 380
2228, 577, 633, 641, 380
2229, 633, 569, 577, 570
2230, 577, 633, 570, 634
2231, 634, 570, 577, 578
2232, 577, 633, 634, 641
2233, 578, 577, 634, 641
2234, 578, 634, 642, 641
2235, 634, 570, 578, 571
2236, 578, 634, 571, 635
2237, 635, 571, 578, 579
2238, 578, 634, 635, 642
2239, 579, 578, 635, 642
2240, 579, 635, 643, 642
2241, 635, 571, 579, 572
2242, 579, 635, 572, 636
2243, 636, 572, 579, 580
2244, 579, 635, 636, 643
2245, 580, 579, 636, 643
2246, 580, 636, 644, 643
2247, 636, 572, 580, 573
2248, 580, 636, 573, 637
2249, 637, 573, 580, 581
2250, 580, 636, 637, 644
2251, 581, 580, 637, 644
2252, 581, 637, 645, 644
2253, 637, 573, 581, 574
2254, 581, 637, 574, 638
2255, 638, 574, 581, 582
2256, 581, 637, 638, 645
2257, 582, 581, 638, 645
2258, 582, 638, 646, 645
2259, 638, 574, 582, 575
2260, 582, 638, 575, 639
2261, 639, 575, 582, 583
2262, 582, 638, 639, 646
2263, 583, 582, 639, 646
2264, 583, 639, 647, 646
2265, 639, 575, 583, 576
2266, 583, 639, 576, 640
2267, 640, 576, 583, 584
2268, 583, 639, 640, 647
2269, 584, 583, 640, 647
2270, 584, 640, 648, 647
2271, 640, 576, 584, 438
2272, 584, 640, 438, 446
2273, 446, 438, 584, 437
2274, 584, 640, 446, 648
2275, 437, 584, 446, 648
2276, 437, 446, 445, 648
2277, 380, 372, 373, 577
2278, 373, 380, 577, 641
2279, 641, 577, 373, 585
2280, 373, 380, 641, 381
2281, 585, 373, 641, 381
2282, 585, 641, 649, 381
2283, 641, 577, 585, 578
2284, 585, 641, 578, 642
2285, 642, 578, 585, 586
2286, 585, 641, 642, 649
2287, 586, 585, 642, 649
2288, 586, 642, 650, 649
2289, 642, 578, 586, 579
2290, 586, 642, 579, 643
2291, 643, 579, 586, 587
2292, 586, 642, 643, 650
2293, 587, 586, 643, 650
2294, 587, 643, 651, 650
2295, 643, 579, 587, 580
2296, 587, 643, 580, 644
2297, 644, 580, 587, 588
2298, 587, 643, 644, 651
2299, 588, 587, 644, 651
2300, 588, 644, 652, 651
2301, 644, 580, 588, 581
2302, 588, 644, 581, 645
2303, 645, 581, 588, 589
2304, 588, 644, 645, 652
2305, 589, 588, 645, 652
2306, 589, 645, 653, 652
2307, 645, 581, 589, 582
2308, 589, 645, 582, 646
2309, 646, 582, 589, 590
2310, 589, 645, 646, 653
2311, 590, 589, 646, 653
2312, 590, 646, 654, 653
2313, 646, 582, 590, 583
2314, 590, 646, 583, 647
2315, 647, 583, 590, 591
2316, 590, 646, 647, 654
2317, 591, 590, 647, 654
2318, 591, 647, 655, 654
2319, 647, 583, 591, 584
2320, 591, 647, 584, 648
2321, 648, 584, 591, 592
2322, 591, 647, 648, 655
2323, 592, 591, 648, 655
2324, 592, 648, 656, 655
2325, 648, 584, 592, 437
2326, 592, 648, 437, 445
2327, 445, 437, 592, 436
2328, 592, 648, 445, 656
2329, 436, 592, 445, 656
2330, 436, 445, 444, 656
2331, 381, 373, 374, 585
2332, 374, 381, 585, 649
2333, 649, 585, 374, 593
2334, 374, 381, 649, 382
2335, 593, 374, 649, 382
2336, 593, 649, 657, 382
2337, 649, 585, 593, 586
2338, 593, 649, 586, 650
2339, 650, 586, 593, 594
2340, 593, 649, 650, 657
2341, 594, 593, 650, 657
2342, 594, 650, 658, 657
2343, 650, 586, 594, 587
2344, 594, 650, 587, 651
2345, 651, 587, 594, 595
2346, 594, 650, 651, 658
2347, 595, 594, 651, 658
2348, 595, 651, 659, 658
2349, 651, 587, 595, 588
2350, 595, 651, 588, 652
2351, 652, 588, 595, 596
2352, 595, 651, 652, 659
2353, 596, 595, 652, 659
2354, 596, 652, 660, 659
2355, 652, 588, 596, 589
2356, 596, 652, 589, 653
2357, 653, 589, 596, 597
2358, 596, 652, 653, 660
2359, 597, 596, 653, 660
2360, 597, 653, 661, 660
2361, 653, 589, 597, 590
2362, 597, 653, 590, 654
2363, 654, 590, 597, 598
2364, 597, 653, 654, 661
2365, 598, 597, 654, 661
2366, 598, 654, 662, 661
2367, 654, 590, 598, 591
2368, 598, 654, 591, 655
2369, 655, 591, 598, 599
2370, 598, 654, 655, 662
2371, 599, 598, 655, 662
2372, 599, 655, 663, 662
2373, 655, 591, 599, 592
2374, 599, 655, 592, 656
2375, 656, 592, 599, 600
2376, 599, 655, 656, 663
2377, 600, 599, 656, 663
2378, 600, 656, 664, 663
2379, 656, 592, 600, 436
2380, 600, 656, 436, 444
2381, 444, 436, 600, 435
2382, 600, 656, 444, 664
2383, 435, 600, 444, 664
2384, 435, 444, 443, 664
2385, 382, 374, 375, 593
2386, 375, 382, 593, 657
2387, 657, 593, 375, 601
2388, 375, 382, 657, 383
2389, 601, 375, 657, 383
2390, 601, 657, 665, 383
2391, 657, 593, 601, 594
2392, 601, 657, 594, 658
2393, 658, 594, 601, 602
2394, 601, 657, 658, 665
2395, 602, 601, 658, 665
2396, 602, 658, 666, 665
2397, 658, 594, 602, 595
2398, 602, 658, 595, 659
2399, 659, 595, 602, 603
2400, 602, 658, 659, 666
2401, 603, 602, 659, 666
2402, 603, 659, 667, 666
2403, 659, 595, 603, 596
2404, 603, 659, 596, 660
2405, 660, 596, 603, 604
2406, 603, 659, 660, 667
2407, 604, 603, 660, 667
2408, 604, 660, 668, 667
2409, 660, 596, 604, 597
2410, 604, 660, 597, 661
2411, 661, 597, 604, 605
2412, 604, 660, 661, 668
2413, 605, 604, 661, 668
2414, 605, 661, 669, 668
2415, 661, 597, 605, 598
2416, 605, 661, 598, 662
2417, 662, 598, 605, 606
2418, 605, 661, 662, 669
2419, 606, 605, 662, 669
2420, 606, 662, 670, 669
2421, 662, 598, 606, 599
2422, 606, 662, 599, 663
2423, 663, 599, 606, 607
2424, 606, 662, 663, 670
2425, 607, 606, 663, 670
2426, 607, 663, 671, 670
2427, 663, 599, 607, 600
2428, 607, 663, 600, 664
2429, 664, 600, 607, 608
2430, 607, 663, 664, 671
2431, 608, 607, 664, 671
2432, 608, 664, 672, 671
2433, 664, 600, 608, 435
2434, 608, 664, 435, 443
2435, 443, 435, 608, 434
2436, 608, 664, 443, 672
2437, 434, 608, 443, 672
2438, 434, 443, 442, 672
2439, 383, 375, 376, 601
2440, 376, 383, 601, 665
2441, 665, 601, 376, 609
2442, 376, 383, 665, 384
2443, 609, 376, 665, 384
2444, 609, 665, 673, 384
2445, 665, 601, 609, 602
2446, 609, 665, 602, 666
2447, 666, 602, 609, 610
2448, 609, 665, 666, 673
2449, 610, 609, 666, 673
2450, 610, 666, 674, 673
2451, 666, 602, 610, 603
2452, 610, 666, 603, 667
2453, 667, 603, 610, 611
2454, 610, 666, 667, 674
2455, 611, 610, 667, 674
2456, 611, 667, 675, 674
2457, 667, 603, 611, 604
2458, 611, 667, 604, 668
2459, 668, 604, 611, 612
2460, 611, 667, 668, 675
2461, 612, 611, 668, 675
2462, 612, 668, 676, 675
2463, 668, 604, 612, 605
2464, 612, 668, 605, 669
2465, 669, 605, 612, 613
2466, 612, 668, 669, 676
2467, 613, 612, 669, 676
2468, 613, 669, 677, 676
2469, 669, 605, 613, 606
2470, 613, 669, 606, 670
2471, 670, 606, 613, 614
2472, 613, 669, 670, 677
2473, 614, 613, 670, 677
2474, 614, 670, 678, 677
2475, 670, 606, 614, 607
2476, 614, 670, 607, 671
2477, 671, 607, 614, 615
2478, 614, 670, 671, 678
2479, 615, 614, 671, 678
2480, 615, 671, 679, 678
2481, 671, 607, 615, 608
2482, 615, 671, 608, 672
2483, 672, 608, 615, 616
2484, 615, 671, 672, 679
2485, 616, 615, 672, 679
2486, 616, 672, 680, 679
2487, 672, 608, 616, 434
2488, 616, 672, 434, 442
2489, 442, 434, 616, 433
2490, 616, 672, 442, 680
2491, 433, 616, 442, 680
2492, 433, 442, 441, 680
2493, 384, 376, 42, 609
2494, 42, 384, 609, 673
2495, 673, 609, 42, 248
2496, 42, 384, 673, 43
2497, 248, 42, 673, 43
2498, 248, 673, 256, 43
2499, 673, 609, 248, 610
2500, 248, 673, 610, 674
2501, 674, 610, 248, 247
2502, 248, 673, 674, 256
2503, 247, 248, 674, 256
2504, 247, 674, 255, 256
2505, 674, 610, 247, 611
2506, 247, 674, 611, 675
2507, 675, 611, 247, 246
2508, 247, 674, 675, 255
2509, 246, 247, 675, 255
2510, 246, 675, 254, 255
2511, 675, 611, 246, 612
2512, 246, 675, 612, 676
2513, 676, 612, 246, 245
2514, 246, 675, 676, 254
2515, 245, 246, 676, 254
2516, 245, 676, 253, 254
2517, 676, 612, 245, 613
2518, 245, 676, 613, 677
2519, 677, 613, 245, 244
2520, 245, 676, 677, 253
2521, 244, 245, 677, 253
2522, 244, 677, 252, 253
2523, 677, 613, 244, 614
2524, 244, 677, 614, 678
2525, 678, 614, 244, 243
2526, 244, 677, 678, 252
2527, 243, 244, 678, 252
2528, 243, 678, 251, 252
2529, 678, 614, 243, 615
2530, 243, 678, 615, 679
2531, 679, 615, 243, 242
2532, 243, 678, 679, 251
2533, 242, 243, 679, 251
2534, 242, 679, 250, 251
2535, 679, 615, 242, 616
2536, 242, 679, 616, 680
2537, 680, 616, 242, 241
2538, 242, 679, 680, 250
2539, 241, 242, 680, 250
2540, 241, 680, 249, 250
2541, 680, 616, 241, 433
2542, 241, 680, 433, 441
2543, 441, 433, 241, 50
2544, 241, 680, 441, 249
2545, 50, 241, 441, 249
2546, 50, 441, 51, 249
2547, 28, 27, 377, 121
2548, 377, 28, 121, 129
2549, 129, 121, 377, 617
2550, 377, 28, 129, 385
2551, 617, 377, 129, 385
2552, 617, 129, 681, 385
2553, 129, 121, 617, 122
2554, 617, 129, 122, 130
2555, 130, 122, 617, 618
2556, 617, 129, 130, 681
2557, 618, 617, 130, 681
2558, 618, 130, 682, 681
2559, 130, 122, 618, 123
2560, 618, 130, 123, 131
2561, 131, 123, 618, 619
2562, 618, 130, 131, 682
2563, 619, 618, 131, 682
2564, 619, 131, 683, 682
2565, 131, 123, 619, 124
2566, 619, 131, 124, 132
2567, 132, 124, 619, 620
2568, 619, 131, 132, 683
2569, 620, 619, 132, 683
2570, 620, 132, 684, 683
2571, 132, 124, 620, 125
2572, 620, 132, 125, 133
2573, 133, 125, 620, 621
2574, 620, 132, 133, 684
2575, 621, 620, 133, 684
2576, 621, 133, 685, 684
2577, 133, 125, 621, 126
2578, 621, 133, 126, 134
2579, 134, 126, 621, 622
2580, 621, 133, 134, 685
2581, 622, 621, 134, 685
2582, 622, 134, 686, 685
2583, 134, 126, 622, 127
2584, 622, 134, 127, 135
2585, 135, 127, 622, 623
2586, 622, 134, 135, 686
2587, 623, 622, 135, 686
2588, 623, 135, 687, 686
2589, 135, 127, 623, 128
2590, 623, 135, 128, 136
2591, 136, 128, 623, 624
2592, 623, 135, 136, 687
2593, 624, 623, 136, 687
2594, 624, 136, 688, 687
2595, 136, 128, 624, 35
2596, 624, 136, 35, 36
2597, 36, 35, 624, 448
2598, 624, 136, 36, 688
2599, 448, 624, 36, 688
2600, 448, 36, 456, 688
2601, 385, 377, 378, 617
2602, 378, 385, 617, 681
2603, 681, 617, 378, 625
2604, 378, 385, 681, 386
2605, 625, 378, 681, 386
2606, 625, 681, 689, 386
2607, 681, 617, 625, 618
2608, 625, 681, 618, 682
2609, 682, 618, 625, 626
2610, 625, 681, 682, 689
2611, 626, 625, 682, 689
2612, 626, 682, 690, 689
2613, 682, 618, 626, 619
2614, 626, 682, 619, 683
2615, 683, 619, 626, 627
2616, 626, 682, 683, 690
2617, 627, 626, 683, 690
2618, 627, 683, 691, 690
2619, 683, 619, 627, 620
2620, 627, 683, 620, 684
2621, 684, 620, 627, 628
2622, 627, 683, 684, 691
2623, 628, 627, 684, 691
2624, 628, 684, 692, 691
2625, 684, 620, 628, 621
2626, 628, 684, 621, 685
2627, 685, 621, 628, 629
2628, 628, 684, 685, 692
2629, 629, 628, 685, 692
2630, 629, 685, 693, 692
2631, 685, 621, 629, 622
2632, 629, 685, 622, 686
2633, 686, 622, 629, 630
2634, 629, 685, 686, 693
2635, 630, 629, 686, 693
2636, 630, 686, 694, 693
2637, 686, 622, 630, 623
2638, 630, 686, 623, 687
2639, 687, 623, 630, 631
2640, 630, 686, 687, 694
2641, 631, 630, 687, 694
2642, 631, 687, 695, 694
2643, 687, 623, 631, 624
2644, 631, 687, 624, 688
2645, 688, 624, 631, 632
2646, 631, 687, 688, 695
2647, 632, 631, 688, 695
2648, 632, 688, 696, 695
2649, 688, 624, 632, 448
2650, 632, 688, 448, 456
2651, 456, 448, 632, 447
2652, 632, 688, 456, 696
2653, 447, 632, 456, 696
2654, 447, 456, 455, 696
2655, 386, 378, 379, 625
2656, 379, 386, 625, 689
2657, 689, 625, 379, 633
2658, 379, 386, 689, 387
2659, 633, 379, 689, 387
2660, 633, 689, 697, 387
2661, 689, 625, 633, 626
2662, 633, 689, 626, 690
2663, 690, 626, 633, 634
2664, 633, 689, 690, 697
2665, 634, 633, 690, 697
2666, 634, 690, 698, 697
2667, 690, 626, 634, 627
2668, 634, 690, 627, 691
2669, 691, 627, 634, 635
2670, 634, 690, 691, 698
2671, 635, 634, 691, 698
2672, 635, 691, 699, 698
2673, 691, 627, 635, 628
2674, 635, 691, 628, 692
2675, 692, 628, 635, 636
2676, 635, 691, 692, 699
2677, 636, 635, 692, 699
2678, 636, 692, 700, 699
2679, 692, 628, 636, 629
2680, 636, 692, 629, 693
2681, 693, 629, 636, 637
2682, 636, 692, 693, 700
2683, 637, 636, 693, 700
2684, 637, 693, 701, 700
2685, 693, 629, 637, 630
2686, 637, 693, 630, 694
2687, 694, 630, 637, 638
2688, 637, 693, 694, 701
2689, 638, 637, 694, 701
2690, 638, 694, 702, 701
2691, 694, 630, 638, 631
2692, 638, 694, 631, 695
2693, 695, 631, 638, 639
2694, 638, 694, 695, 702
2695, 639, 638, 695, 702
2696, 639, 695, 703, 702
2697, 695, 631, 639, 632
2698, 639, 695, 632, 696
2699, 696, 632, 639, 640
2700, 639, 695, 696, 703
2701, 640, 639, 696, 703
2702, 640, 696, 704, 703
2703, 696, 632, 640, 447
2704, 640, 696, 447, 455
2705, 455, 447, 640, 446
2706, 640, 696, 455, 704
2707, 446, 640, 455, 704
2708, 446, 455, 454, 704
2709, 387, 379, 380, 633
2710, 380, 387, 633, 697
2711, 697, 633, 380, 641
2712, 380, 387, 697, 388
2713, 641, 380, 697, 388
2714, 641, 697, 705, 388
2715, 697, 633, 641, 634
2716, 641, 697, 634, 698
2717, 698, 634, 641, 642
2718, 641, 697, 698, 705
2719, 642, 641, 698, 705
2720, 642, 698, 706, 705
2721, 698, 634, 642, 635
2722, 642, 698, 635, 699
2723, 699, 635, 642, 643
2724, 642, 698, 699, 706
2725, 643, 642, 699, 706
2726, 643, 699, 707, 706
2727, 699, 635, 643, 636
2728, 643, 699, 636, 700
2729, 700, 636, 643, 644
2730, 643, 699, 700, 707
2731, 644, 643, 700, 707
2732, 644, 700, 708, 707
2733, 700, 636, 644, 637
2734, 644, 700, 637, 701
2735, 701, 637, 644, 645
2736, 644, 700, 701, 708
2737, 645, 644, 701, 708
2738, 645, 701, 709, 708
2739, 701, 637, 645, 638
2740, 645, 701, 638, 702
2741, 702, 638, 645, 646
2742, 645, 701, 702, 709
2743, 646, 645, 702, 709
2744, 646, 702, 710, 709
2745, 702, 638, 646, 639
2746, 646, 702, 639, 703
2747, 703, 639, 646, 647
2748, 646, 702, 703, 710
2749, 647, 646, 703, 710
2750, 647, 703, 711, 710
2751, 703, 639, 647, 640
2752, 647, 703, 640, 704
2753, 704, 640, 647, 648
2754, 647, 703, 704, 711
2755, 648, 647, 704, 711
2756, 648, 704, 712, 711
2757, 704, 640, 648, 446
2758, 648, 704, 446, 454
2759, 454, 446, 648, 445
2760, 648, 704, 454, 712
2761, 445, 648, 454, 712
2762, 445, 454, 453, 712
2763, 388, 380, 381, 641
2764, 381, 388, 641, 705
2765, 705, 641, 381, 649
2766, 381, 388, 705, 389
2767, 649, 381, 705, 389
2768, 649, 705, 713, 389
2769, 705, 641, 649, 642
2770, 649, 705, 642, 706
2771, 706, 642, 649, 650
2772, 649, 705, 706, 713
2773, 650, 649, 706, 713
2774, 650, 706, 714, 713
2775, 706, 642, 650, 643
2776, 650, 706, 643, 707
2777, 707, 643, 650, 651
2778, 650, 706, 707, 714
2779, 651, 650, 707, 714
2780, 651, 707, 715, 714
2781, 707, 643, 651, 644
2782, 651, 707, 644, 708
2783, 708, 644, 651, 652
2784, 651, 707, 708, 715
2785, 652, 651, 708, 715
2786, 652, 708, 716, 715
2787, 708, 644, 652, 645
2788, 652, 708, 645, 709
2789, 709, 645, 652, 653
2790, 652, 708, 709, 716
2791, 653, 652, 709, 716
2792, 653, 709, 717, 716
2793, 709, 645, 653, 646
2794, 653, 709, 646, 710
2795, 710, 646, 653, 654
2796, 653, 709, 710, 717
2797, 654, 653, 710, 717
2798, 654, 710, 718, 717
2799, 710, 646, 654, 647
2800, 654, 710, 647, 711
2801, 711, 647, 654, 655
2802, 654, 710, 711, 718
2803, 655, 654, 711, 718
2804, 655, 711, 719, 718
2805, 711, 647, 655, 648
2806, 655, 711, 648, 712
2807, 712, 648, 655, 656
2808, 655, 711, 712, 719
2809, 656, 655, 712, 719
2810, 656, 712, 720, 719
2811, 712, 648, 656, 445
2812, 656, 712, 445, 453
2813, 453, 445, 656, 444
2814, 656, 712, 453, 720
2815, 444, 656, 453, 720
2816, 444, 453, 452, 720
2817, 389, 381, 382, 649
2818, 382, 389, 649, 713
2819, 713, 649, 382, 657
2820, 382, 389, 713, 390
2821, 657, 382, 713, 390
2822, 657, 713, 721, 390
2823, 713, 649, 657, 650
2824, 657, 713, 650, 714
2825, 714, 650, 657, 658
2826, 657, 713, 714, 721
2827, 658, 657, 714, 721
2828, 658, 714, 722, 721
2829, 714, 650, 658, 651
2830, 658, 714, 651, 715
2831, 715, 651, 658, 659
2832, 658, 714, 715, 722
2833, 659, 658, 715, 722
2834, 659, 715, 723, 722
2835, 715, 651, 659, 652
2836, 659, 715, 652, 716
2837, 716, 652, 659, 660
2838, 659, 715, 716, 723
2839, 660, 659, 716, 723
2840, 660, 716, 724, 723
2841, 716, 652, 660, 653
2842, 660, 716, 653, 717
2843, 717, 653, 660, 661
2844, 660, 716, 717, 724
2845, 661, 660, 717, 724
2846, 661, 717, 725, 724
2847, 717, 653, 661, 654
2848, 661, 717, 654, 718
2849, 718, 654, 661, 662
2850, 661, 717, 718, 725
2851, 662, 661, 718, 725
2852, 662, 718, 726, 725
2853, 718, 654, 662, 655
2854, 662, 718, 655, 719
2855, 719, 655, 662, 663
2856, 662, 718, 719, 726
2857, 663, 662, 719, 726
2858, 663, 719, 727, 726
2859, 719, 655, 663, 656
2860, 663, 719, 656, 720
2861, 720, 656, 663, 664
2862, 663, 719, 720, 727
2863, 664, 663, 720, 727
2864, 664, 720, 728, 727
2865, 720, 656, 664, 444
2866, 664, 720, 444, 452
2867, 452, 444, 664, 443
2868, 664, 720, 452, 728
2869, 443, 664, 452, 728
2870, 443, 452, 451, 728
2871, 390, 382, 383, 657
2872, 383, 390, 657, 721
2873, 721, 657, 383, 665
2874, 383, 390, 721, 391
2875, 665, 383, 721, 391
2876, 665, 721, 729, 391
2877, 721, 657, 665, 658
2878, 665, 721, 658, 722
2879, 722, 658, 665, 666
2880, 665, 721, 722, 729
2881, 666, 665, 722, 729
2882, 666, 722, 730, 729
2883, 722, 658, 666, 659
2884, 666, 722, 659, 723
2885, 723, 659, 666, 667
2886, 666, 722, 723, 730
2887, 667, 666, 723, 730
2888, 667, 723, 731, 730
2889, 723, 659, 667, 660
2890, 667, 723, 660, 724
2891, 724, 660, 667, 668
2892, 667, 723, 724, 731
2893, 668, 667, 724, 731
2894, 668, 724, 732, 731
2895, 724, 660, 668, 661
2896, 668, 724, 661, 725
2897, 725, 661, 668, 669
2898, 668, 724, 725, 732
2899, 669, 668, 725, 732
2900, 669, 725, 733, 732
2901, 725, 661, 669, 662
2902, 669, 725, 662, 726
2903, 726, 662, 669, 670
2904, 669, 725, 726, 733
2905, 670, 669, 726, 733
2906, 670, 726, 734, 733
2907, 726, 662, 670, 663
2908, 670, 726, 663, 727
2909, 727, 663, 670, 671
2910, 670, 726, 727, 734
2911, 671, 670, 727, 734
2912, 671, 727, 735, 734
2913, 727, 663, 671, 664
2914, 671, 727, 664, 728
2915, 728, 664, 671, 672
2916, 671, 727, 728, 735
2917, 672, 671, 728, 735
2918, 672, 728, 736, 735
2919, 728, 664, 672, 443
2920, 672, 728, 443, 451
2921, 451, 443, 672, 442
2922, 672, 728, 451, 736
2923, 442, 672, 451, 736
2924, 442, 451, 450, 736
2925, 391, 383, 384, 665
2926, 384, 391, 665, 729
2927, 729, 665, 384, 673
2928, 384, 391, 729, 392
2929, 673, 384, 729, 392
2930, 673, 729, 737, 392
2931, 729, 665, 673, 666
2932, 673, 729, 666, 730
2933, 730, 666, 673, 674
2934, 673, 729, 730, 737
2935, 674, 673, 730, 737
2936, 674, 730, 738, 737
2937, 730, 666, 674, 667
2938, 674, 730, 667, 731
2939, 731, 667, 674, 675
2940, 674, 730, 731, 738
2941, 675, 674, 731, 738
2942, 675, 731, 739, 738
2943, 731, 667, 675, 668
2944, 675, 731, 668, 732
2945, 732, 668, 675, 676
2946, 675, 731, 732, 739
2947, 676, 675, 732, 739
2948, 676, 732, 740, 739
2949, 732, 668, 676, 669
2950, 676, 732, 669, 733
2951, 733, 669, 676, 677
2952, 676, 732, 733, 740
2953, 677, 676, 733, 740
2954, 677, 733, 741, 740
2955, 733, 669, 677, 670
2956, 677, 733, 670, 734
2957, 734, 670, 677, 678
2958, 677, 733, 734, 741
2959, 678, 677, 734, 741
2960, 678, 734, 742, 741
2961, 734, 670, 678, 671
2962, 678, 734, 671, 735
2963, 735, 671, 678, 679
2964, 678, 734, 735, 742
2965, 679, 678, 735, 742
2966, 679, 735, 743, 742
2967, 735, 671, 679, 672
2968, 679, 735, 672, 736
2969, 736, 672, 679, 680
2970, 679, 735, 736, 743
2971, 680, 679, 736, 743
2972, 680, 736, 744, 743
2973, 736, 672, 680, 442
2974, 680, 736, 442, 450
2975, 450, 442, 680, 441
2976, 680, 736, 450, 744
2977, 441, 680, 450, 744
2978, 441, 450, 449, 744
2979, 392, 384, 43, 673
2980, 43, 392, 673, 737
2981, 737, 673, 43, 256
2982, 43, 392, 737, 44
2983, 256, 43, 737, 44
2984, 256, 737, 264, 44
2985, 737, 673, 256, 674
2986, 256, 737, 674, 738
2987, 738, 674, 256, 255
2988, 256, 737, 738, 264
2989, 255, 256, 738, 264
2990, 255, 738, 263, 264
2991, 738, 674, 255, 675
2992, 255, 738, 675, 739
2993, 739, 675, 255, 254
2994, 255, 738, 739, 263
2995, 254, 255, 739, 263
2996, 254, 739, 262, 263
2997, 739, 675, 254, 676
2998, 254, 739, 676, 740
2999, 740, 676, 254, 253
3000, 254, 739, 740, 262
3001, 253, 254, 740, 262
3002, 253, 740, 261, 262
3003, 740, 676, 253, 677
3004, 253, 740, 677, 741
3005, 741, 677, 253, 252
3006, 253, 740, 741, 261
3007, 252, 253, 741, 261
3008, 252, 741, 260, 261
3009, 741, 677, 252, 678
3010, 252, 741, 678, 742
3011, 742, 678, 252, 251
3012, 252, 741, 742, 260
3013, 251, 252, 742, 260
3014, 251, 742, 259, 260
3015, 742, 678, 251, 679
3016, 251, 742, 679, 743
3017, 743, 679, 251, 250
3018, 251, 742, 743, 259
3019, 250, 251, 743, 259
3020, 250, 743, 258, 259
3021, 743, 679, 250, 680
3022, 250, 743, 680, 744
3023, 744, 680, 250, 249
3024, 250, 743, 744, 258
3025, 249, 250, 744, 258
3026, 249, 744, 257, 258
3027, 744, 680, 249, 441
3028, 249, 744, 441, 449
3029, 449, 441, 249, 51
3030, 249, 744, 449, 257
3031, 51, 249, 449, 257
3032, 51, 449, 52, 257
3033, 29, 28, 385, 129
3034, 385, 29, 129, 137
3035, 137, 129, 385, 681
3036, 385, 29, 137, 393
3037, 681, 385, 137, 393
3038, 681, 137, 745, 393
3039, 137, 129, 681, 130
3040, 681, 137, 130, 138
3041, 138, 130, 681, 682
3042, 681, 137, 138, 745
3043, 682, 681, 138, 745
3044, 682, 138, 746, 745
3045, 138, 130, 682, 131
3046, 682, 138, 131, 139
3047, 139, 131, 682, 683
3048, 682, 138, 139, 746
3049, 683, 682, 139, 746
3050, 683, 139, 747, 746
3051, 139, 131, 683, 132
3052, 683, 139, 132, 140
3053, 140, 132, 683, 684
3054, 683, 139, 140, 747
3055, 684, 683, 140, 747
3056, 684, 140, 748, 747
3057, 140, 132, 684, 133
3058, 684, 140, 133, 141
3059, 141, 133, 684, 685
3060, 684, 140, 141, 748
3061, 685, 684, 141, 748
3062, 685, 141, 749, 748
3063, 141, 133, 685, 134
3064, 685, 141, 134, 142
3065, 142, 134, 685, 686
3066, 685, 141, 142, 749
3067, 686, 685, 142, 749
3068, 686, 142, 750, 749
3069, 142, 134, 686, 135
3070, 686, 142, 135, 143
3071, 143, 135, 686, 687
3072, 686, 142, 143, 750
3073, 687, 686, 143, 750
3074, 687, 143, 751, 750
3075, 143, 135, 687, 136
3076, 687, 143, 136, 144
3077, 144, 136, 687, 688
3078, 687, 143, 144, 751
3079, 688, 687, 144, 751
3080, 688, 144, 752, 751
3081, 144, 136, 688, 36
3082, 688, 144, 36, 37
3083, 37, 36, 688, 456
3084, 688, 144, 37, 752
3085, 456, 688, 37, 752
3086, 456, 37, 464, 752
3087, 393, 385, 386, 681
3088, 386, 393, 681, 745
3089, 745, 681, 386, 689
3090, 386, 393, 745, 394
3091, 689, 386, 745, 394
3092, 689, 745, 753, 394
3093, 745, 681, 689, 682
3094, 689, 745, 682, 746
3095, 746, 682, 689, 690
3096, 689, 745, 746, 753
3097, 690, 689, 746, 753
3098, 690, 746, 754, 753
3099, 746, 682, 690, 683
3100, 690, 746, 683, 747
3101, 747, 683, 690, 691
3102, 690, 746, 747, 754
3103, 691, 690, 747, 754
3104, 691, 747, 755, 754
3105, 747, 683, 691, 684
3106, 691, 747, 684, 748
3107, 748, 684, 691, 692
3108, 691, 747, 748, 755
3109, 692, 691, 748, 755
3110, 692, 748, 756, 755
3111, 748, 684, 692, 685
3112, 692, 748, 685, 749
3113, 749, 685, 692, 693
3114, 692, 748, 749, 756
3115, 693, 692, 749, 756
3116, 693, 749, 757, 756
3117, 749, 685, 693, 686
3118, 693, 749, 686, 750
3119, 750, 686, 693, 694
3120, 693, 749, 750, 757
3121, 694, 693, 750, 757
3122, 694, 750, 758, 757
3123, 750, 686, 694, 687
3124, 694, 750, 687, 751
3125, 751, 687, 694, 695
3126, 694, 750, 751, 758
3127, 695, 694, 751, 758
3128, 695, 751, 759, 758
3129, 751, 687, 695, 688
3130, 695, 751, 688, 752
3131, 752, 688, 695, 696
3132, 695, 751, 752, 759
3133, 696, 695, 752, 759
3134, 696, 752, 760, 759
3135, 752, 688, 696, 456
3136, 696, 752, 456, 464
3137, 464, 456, 696, 455
3138, 696, 752, 464, 760
3139, 455, 696, 464, 760
3140, 455, 464, 463, 760
3141, 394, 386, 387, 689
3142, 387, 394, 689, 753
3143, 753, 689, 387, 697
3144, 387, 394, 753, 395
3145, 697, 387, 753, 395
3146, 697, 753, 761, 395
3147, 753, 689, 697, 690
3148, 697, 753, 690, 754
3149, 754, 690, 697, 698
3150, 697, 753, 754, 761
3151, 698, 697, 754, 761
3152, 698, 754, 762, 761
3153, 754, 690, 698, 691
3154, 698, 754, 691, 755
3155, 755, 691, 698, 699
3156, 698, 754, 755, 762
3157, 699, 698, 755, 762
3158, 699, 755, 763, 762
3159, 755, 691, 699, 692
3160, 699, 755, 692, 756
3161, 756, 692, 699, 700
3162, 699, 755, 756, 763
3163, 700, 699, 756, 763
3164, 700, 756, 764, 763
3165, 756, 692, 700, 693
3166, 700, 756, 693, 757
3167, 757, 693, 700, 701
3168, 700, 756, 757, 764
3169, 701, 700, 757, 764
3170, 701, 757, 765, 764
3171, 757, 693, 701, 694
3172, 701, 757, 694, 758
3173, 758, 694, 701, 702
3174, 701, 757, 758, 765
3175, 702, 701, 758, 765
3176, 702, 758, 766, 765
3177, 758, 694, 702, 695
3178, 702, 758, 695, 759
3179, 759, 695, 702, 703
3180, 702, 758, 759, 766
3181, 703, 702, 759, 766
3182, 703, 759, 767, 766
3183, 759, 695, 703, 696
3184, 703, 759, 696, 760
3185, 760, 696, 703, 704
3186, 703, 759, 760, 767
3187, 704, 703, 760, 767
3188, 704, 760, 768, 767
3189, 760, 696, 704, 455
3190, 704, 760, 455, 463
3191, 463, 455, 704, 454
3192, 704, 760, 463, 768
3193, 454, 704, 463, 768
3194, 454, 463, 462, 768
3195, 395, 387, 388, 697
3196, 388, 395, 697, 761
3197, 761, 697, 388, 705
3198, 388, 395, 761, 396
3199, 705, 388, 761, 396
3200, 705, 761, 769, 396
3201, 761, 697, 705, 698
3202, 705, 761, 698, 762
3203, 762, 698, 705, 706
3204, 705, 761, 762, 769
3205, 706, 705, 762, 769
3206, 706, 762, 770, 769
3207, 762, 698, 706, 699
3208, 706, 762, 699, 763
3209, 763, 699, 706, 707
3210, 706, 762, 763, 770
3211, 707, 706, 763, 770
3212, 707, 763, 771, 770
3213, 763, 699, 707, 700
3214, 707, 763, 700, 764
3215, 764, 700, 707, 708
3216, 707, 763, 764, 771
3217, 708, 707, 764, 771
3218, 708, 764, 772, 771
3219, 764, 700, 708, 701
3220, 708, 764, 701, 765
3221, 765, 701, 708, 709
3222, 708, 764, 765, 772
3223, 709, 708, 765, 772
3224, 709, 765, 773, 772
3225, 765, 701, 709, 702
3226, 709, 765, 702, 766
3227, 766, 702, 709, 710
3228, 709, 765, 766, 773
3229, 710, 709, 766, 773
3230, 710, 766, 774, 773
3231, 766, 702, 710, 703
3232, 710, 766, 703, 767
3233, 767, 703, 710, 711
3234, 710, 766, 767, 774
3235, 711, 710, 767, 774
3236, 711, 767, 775, 774
3237, 767, 703, 711, 704
3238, 711, 767, 704, 768
3239, 768, 704, 711, 712
3240, 711, 767, 768, 775
3241, 712, 711, 768, 775
3242, 712, 768, 776, 775
3243, 768, 704, 712, 454
3244, 712, 768, 454, 462
3245, 462, 454, 712, 453
3246, 712, 768, 462, 776
3247, 453, 712, 462, 776
3248, 453, 462, 461, 776
3249, 396, 388, 389, 705
3250, 389, 396, 705, 769
3251, 769, 705, 389, 713
3252, 389, 396, 769, 397
3253, 713, 389, 769, 397
3254, 713, 769, 777, 397
3255, 769, 705, 713, 706
3256, 713, 769, 706, 770
3257, 770, 706, 713, 714
3258, 713, 769, 770, 777
3259, 714, 713, 770, 777
3260, 714, 770, 778, 777
3261, 770, 706, 714, 707
3262, 714, 770, 707, 771
3263, 771, 707, 714, 715
3264, 714, 770, 771, 778
3265, 715, 714, 771, 778
3266, 715, 771, 779, 778
3267, 771, 707, 715, 708
3268, 715, 771, 708, 772
3269, 772, 708, 715, 716
3270, 715, 771, 772, 779
3271, 716, 715, 772, 779
3272, 716, 772, 780, 779
3273, 772, 708, 716, 709
3274, 716, 772, 709, 773
3275, 773, 709, 716, 717
3276, 716, 772, 773, 780
3277, 717, 716, 773, 780
3278, 717, 773, 781, 780
3279, 773, 709, 717, 710
3280, 717, 773, 710, 774
3281, 774, 710, 717, 718
3282, 717, 773, 774, 781
3283, 718, 717, 774, 781
3284, 718, 774, 782, 781
3285, 774, 710, 718, 711
3286, 718, 774, 711, 775
3287, 775, 711, 718, 719
3288, 718, 774, 775, 782
3289, 719, 718, 775, 782
3290, 719, 775, 783, 782
3291, 775, 711, 719, 712
3292, 719, 775, 712, 776
3293, 776, 712, 719, 720
3294, 719, 775, 776, 783
3295, 720, 719, 776, 783
3296, 720, 776, 784, 783
3297, 776, 712, 720, 453
3298, 720, 776, 453, 461
3299, 461, 453, 720, 452
3300, 720, 776, 461, 784
3301, 452, 720, 461, 784
3302, 452, 461, 460, 784
3303, 397, 389, 390, 713
3304, 390, 397, 713, 777
3305, 777, 713, 390, 721
3306, 390, 397, 777, 398
3307, 721, 390, 777, 398
3308, 721, 777, 785, 398
3309, 777, 713, 721, 714
3310, 721, 777, 714, 778
3311, 778, 714, 721, 722
3312, 721, 777, 778, 785
3313, 722, 721, 778, 785
3314, 722, 778, 786, 785
3315, 778, 714, 722, 715
3316, 722, 778, 715, 779
3317, 779, 715, 722, 723
3318, 722, 778, 779, 786
3319, 723, 722, 779, 786
3320, 723, 779, 787, 786
3321, 779, 715, 723, 716
3322, 723, 779, 716, 780
3323, 780, 716, 723, 724
3324, 723, 779, 780, 787
3325, 724, 723, 780, 787
3326, 724, 780, 788, 787
3327, 780, 716, 724, 717
3328, 724, 780, 717, 781
3329, 781, 717, 724, 725
3330, 724, 780, 781, 788
3331, 725, 724, 781, 788
3332, 725, 781, 789, 788
3333, 781, 717, 725, 718
3334, 725, 781, 718, 782
3335, 782, 718, 725, 726
3336, 725, 781, 782, 789
3337, 726, 725, 782, 789
3338, 726, 782, 790, 789
3339, 782, 718, 726, 719
3340, 726, 782, 719, 783
3341, 783, 719, 726, 727
3342, 726, 782, 783, 790
3343, 727, 726, 783, 790
3344, 727, 783, 791, 790
3345, 783, 719, 727, 720
3346, 727, 783, 720, 784
3347, 784, 720, 727, 728
3348, 727, 783, 784, 791
3349, 728, 727, 784, 791
3350, 728, 784, 792, 791
3351, 784, 720, 728, 452
3352, 728, 784, 452, 460
3353, 460, 452, 728, 451
3354, 728, 784, 460, 792
3355, 451, 728, 460, 792
3356, 451, 460, 459, 792
3357, 398, 390, 391, 721
3358, 391, 398, 721, 785
3359, 785, 721, 391, 729
3360, 391, 398, 785, 399
3361, 729, 391, 785, 399
3362, 729, 785, 793, 399
3363, 785, 721, 729, 722
3364, 729, 785, 722, 786
3365, 786, 722, 729, 730
3366, 729, 785, 786, 793
3367, 730, 729, 786, 793
3368, 730, 786, 794, 793
3369, 786, 722, 730, 723
3370, 730, 786, 723, 787
3371, 787, 723, 730, 731
3372, 730, 786, 787, 794
3373, 731, 730, 787, 794
3374, 731, 787, 795, 794
3375, 787, 723, 731, 724
3376, 731, 787, 724, 788
3377, 788, 724, 731, 732
3378, 731, 787, 788, 795
3379, 732, 731, 788, 795
3380, 732, 788, 796, 795
3381, 788, 724, 732, 725
3382, 732, 788, 725, 789
3383, 789, 725, 732, 733
3384, 732, 788, 789, 796
3385, 733, 732, 789, 796
3386, 733, 789, 797, 796
3387, 789, 725, 733, 726
3388, 733, 789, 726, 790
3389, 790, 726, 733, 734
3390, 733, 789, 790, 797
3391, 734, 733, 790, 797
3392, 734, 790, 798, 797
3393, 790, 726, 734, 727
3394, 734, 790, 727, 791
3395, 791, 727, 734, 735
3396, 734, 790, 791, 798
3397, 735, 734, 791, 798
3398, 735, 791, 799, 798
3399, 791, 727, 735, 728
3400, 735, 791, 728, 792
3401, 792, 728, 735, 736
3402, 735, 791, 792, 799
3403, 736, 735, 792, 799
3404, 736, 792, 800, 799
3405, 792, 728, 736, 451
3406, 736, 792, 451, 459
3407, 459, 451, 736, 450
3408, 736, 792, 459, 800
3409, 450, 736, 459, 800
3410, 450, 459, 458, 800
3411, 399, 391, 392, 729
3412, 392, 399, 729, 793
3413, 793, 729, 392, 737
3414, 392, 399, 793, 400
3415, 737, 392, 793, 400
3416, 737, 793, 801, 400
3417, 793, 729, 737, 730
3418, 737, 793, 730, 794
3419, 794, 730, 737, 738
3420, 737, 793, 794, 801
3421, 738, 737, 794, 801
3422, 738, 794, 802, 801
3423, 794, 730, 738, 731
3424, 738, 794, 731, 795
3425, 795, 731, 738, 739
3426, 738, 794, 795, 802
3427, 739, 738, 795, 802
3428, 739, 795, 803, 802
3429, 795, 731, 739, 732
3430, 739, 795, 732, 796
3431, 796, 732, 739, 740
3432, 739, 795, 796, 803
3433, 740, 739, 796, 803
3434, 740, 796, 804, 803
3435, 796, 732, 740, 733
3436, 740, 796, 733, 797
3437, 797, 733, 740, 741
3438, 740, 796, 797, 804
3439, 741, 740, 797, 804
3440, 741, 797, 805, 804
3441, 797, 733, 741, 734
3442, 741, 797, 734, 798
3443, 798, 734, 741, 742
3444, 741, 797, 798, 805
3445, 742, 741, 798, 805
3446, 742, 798, 806, 805
3447, 798, 734, 742, 735
3448, 742, 798, 735, 799
3449, 799, 735, 742, 743
3450, 742, 798, 799, 806
3451, 743, 742, 799, 806
3452, 743, 799, 807, 806
3453, 799, 735, 743, 736
3454, 743, 799, 736, 800
3455, 800, 736, 743, 744
3456, 743, 799, 800, 807
3457, 744, 743, 800, 807
3458, 744, 800, 808, 807
3459, 800, 736, 744, 450
3460, 744, 800, 450, 458
3461, 458, 450, 744, 449
3462, 744, 800, 458, 808
3463, 449, 744, 458, 808
3464, 449, 458, 457, 808
3465, 400, 392, 44, 737
3466, 44, 400, 737, 801
3467, 801, 737, 44, 264
3468, 44, 400, 801, 45
3469, 264, 44, 801, 45
3470, 264, 801, 272, 45
3471, 801, 737, 264, 738
3472, 264, 801, 738, 802
3473, 802, 738, 264, 263
3474, 264, 801, 802, 272
3475, 263, 264, 802, 272
3476, 263, 802, 271, 272
3477, 802, 738, 263, 739
3478, 263, 802, 739, 803
3479, 803, 739, 263, 262
3480, 263, 802, 803, 271
3481, 262, 263, 803, 271
3482, 262, 803, 270, 271
3483, 803, 739, 262, 740
3484, 262, 803, 740, 804
3485, 804, 740, 262, 261
3486, 262, 803, 804, 270
3487, 261, 262, 804, 270
3488, 261, 804, 269, 270
3489, 804, 740, 261, 741
3490, 261, 804, 741, 805
3491, 805, 741, 261, 260
3492, 261, 804, 805, 269
3493, 260, 261, 805, 269
3494, 260, 805, 268, 269
3495, 805, 741, 260, 742
3496, 260, 805, 742, 806
3497, 806, 742, 260, 259
3498, 260, 805, 806, 268
3499, 259, 260, 806, 268
3500, 259, 806, 267, 268
3501, 806, 742, 259, 743
3502, 259, 806, 743, 807
3503, 807, 743, 259, 258
3504, 259, 806, 807, 267
3505, 258, 259, 807, 267
3506, 258, 807, 266, 267
3507, 807, 743, 258, 744
3508, 258, 807, 744, 808
3509, 808, 744, 258, 257
3510, 258, 807, 808, 266
3511, 257, 258, 808, 266
3512, 257, 808, 265, 266
3513, 808, 744, 257, 449
3514, 257, 808, 449, 457
3515, 457, 449, 257, 52
3516, 257, 808, 457, 265
3517, 52, 257, 457, 265
3518, 52, 457, 53, 265
3519, 30, 29, 393, 137
3520, 393, 30, 137, 145
3521, 145, 137, 393, 745
3522, 393, 30, 145, 401
3523, 745, 393, 145, 401
3524, 745, 145, 809, 401
3525, 145, 137, 745, 138
3526, 745, 145, 138, 146
3527, 146, 138, 745, 746
3528, 745, 145, 146, 809
3529, 746, 745, 146, 809
3530, 746, 146, 810, 809
3531, 146, 138, 746, 139
3532, 746, 146, 139, 147
3533, 147, 139, 746, 747
3534, 746, 146, 147, 810
3535, 747, 746, 147, 810
3536, 747, 147, 811, 810
3537, 147, 139, 747, 140
3538, 747, 147, 140, 148
3539, 148, 140, 747, 748
3540, 747, 147, 148, 811
3541, 748, 747, 148, 811
3542, 748, 148, 812, 811
3543, 148, 140, 748, 141
3544, 748, 148, 141, 149
3545, 149, 141, 748, 749
3546, 748, 148, 149, 812
3547, 749, 748, 149, 812
3548, 749, 149, 813, 812
3549, 149, 141, 749, 142
3550, 749, 149, 142, 150
3551, 150, 142, 749, 750
3552, 749, 149, 150, 813
3553, 750, 749, 150, 813
3554, 750, 150, 814, 813
3555, 150, 142, 750, 143
3556, 750, 150, 143, 151
3557, 151, 143, 750, 751
3558, 750, 150, 151, 814
3559, 751, 750, 151, 814
3560, 751, 151, 815, 814
3561, 151, 143, 751, 144
3562, 751, 151, 144, 152
3563, 152, 144, 751, 752
3564, 751, 151, 152, 815
3565, 752, 751, 152, 815
3566, 752, 152, 816, 815
3567, 152, 144, 752, 37
3568, 752, 152, 37, 38
3569, 38, 37, 752, 464
3570, 752, 152, 38, 816
3571, 464, 752, 38, 816
3572, 464, 38, 472, 816
3573, 401, 393, 394, 745
3574, 394, 401, 745, 809
3575, 809, 745, 394, 753
3576, 394, 401, 809, 402
3577, 753, 394, 809, 402
3578, 753, 809, 817, 402
3579, 809, 745, 753, 746
3580, 753, 809, 746, 810
3581, 810, 746, 753, 754
3582, 753, 809, 810, 817
3583, 754, 753, 810, 817
3584, 754, 810, 818, 817
3585, 810, 746, 754, 747
3586, 754, 810, 747, 811
3587, 811, 747, 754, 755
3588, 754, 810, 811, 818
3589, 755, 754, 811, 818
3590, 755, 811, 819, 818
3591, 811, 747, 755, 748
3592, 755, 811, 748, 812
3593, 812, 748, 755, 756
3594, 755, 811, 812, 819
3595, 756, 755, 812, 819
3596, 756, 812, 820, 819
3597, 812, 748, 756, 749
3598, 756, 812, 749, 813
3599, 813, 749, 756, 757
3600, 756, 812, 813, 820
3601, 757, 756, 813, 820
3602, 757, 813, 821, 820
3603, 813, 749, 757, 750
3604, 757, 813, 750, 814
3605, 814, 750, 757, 758
3606, 757, 813, 814, 821
3607, 758, 757, 814, 821
3608, 758, 814, 822, 821
3609, 814, 750, 758, 751
3610, 758, 814, 751, 815
3611, 815, 751, 758, 759
3612, 758, 814, 815, 822
3613, 759, 758, 815, 822
3614, 759, 815, 823, 822
3615, 815, 751, 759, 752
3616, 759, 815, 752, 816
3617, 816, 752, 759, 760
3618, 759, 815, 816, 823
3619, 760, 759, 816, 823
3620, 760, 816, 824, 823
3621, 816, 752, 760, 464
3622, 760, 816, 464, 472
3623, 472, 464, 760, 463
3624, 760, 816, 472, 824
3625, 463, 760, 472, 824
3626, 463, 472, 471, 824
3627, 402, 394, 395, 753
3628, 395, 402, 753, 817
3629, 817, 753, 395, 761
3630, 395, 402, 817, 403
3631, 761, 395, 817, 403
3632, 761, 817, 825, 403
3633, 817, 753, 761, 754
3634, 761, 817, 754, 818
3635, 818, 754, 761, 762
3636, 761, 817, 818, 825
3637, 762, 761, 818, 825
3638, 762, 818, 826, 825
3639, 818, 754, 762, 755
3640, 762, 818, 755, 819
3641, 819, 755, 762, 763
3642, 762, 818, 819, 826
3643, 763, 762, 819, 826
3644, 763, 819, 827, 826
3645, 819, 755, 763, 756
3646, 763, 819, 756, 820
3647, 820, 756, 763, 764
3648, 763, 819, 820, 827
3649, 764, 763, 820, 827
3650, 764, 820, 828, 827
3651, 820, 756, 764, 757
3652, 764, 820, 757, 821
3653, 821, 757, 764, 765
3654, 764, 820, 821, 828
3655, 765, 764, 821, 828
3656, 765, 821, 829, 828
3657, 821, 757, 765, 758
3658, 765, 821, 758, 822
3659, 822, 758, 765, 766
3660, 765, 821, 822, 829
3661, 766, 765, 822, 829
3662, 766, 822, 830, 829
3663, 822, 758, 766, 759
3664, 766, 822, 759, 823
3665, 823, 759, 766, 767
3666, 766, 822, 823, 830
3667, 767, 766, 823, 830
3668, 767, 823, 831, 830
3669, 823, 759, 767, 760
3670, 767, 823, 760, 824
3671, 824, 760, 767, 768
3672, 767, 823, 824, 831
3673, 768, 767, 824, 831
3674, 768, 824, 832, 831
3675, 824, 760, 768, 463
3676, 768, 824, 463, 471
3677, 471, 463, 768, 462
3678, 768, 824, 471, 832
3679, 462, 768, 471, 832
3680, 462, 471, 470, 832
3681, 403, 395, 396, 761
3682, 396, 403, 761, 825
3683, 825, 761, 396, 769
3684, 396, 403, 825, 404
3685, 769, 396, 825, 404
3686, 769, 825, 833, 404
3687, 825, 761, 769, 762
3688, 769, 825, 762, 826
3689, 826, 762, 769, 770
3690, 769, 825, 826, 833
3691, 770, 769, 826, 833
3692, 770, 826, 834, 833
3693, 826, 762, 770, 763
3694, 770, 826, 763, 827
3695, 827, 763, 770, 771
3696, 770, 826, 827, 834
3697, 771, 770, 827, 834
3698, 771, 827, 835, 834
3699, 827, 763, 771, 764
3700, 771, 827, 764, 828
3701, 828, 764, 771, 772
3702, 771, 827, 828, 835
3703, 772, 771, 828, 835
3704, 772, 828, 836, 835
3705, 828, 764, 772, 765
3706, 772, 828, 765, 829
3707, 829, 765, 772, 773
3708, 772, 828, 829, 836
3709, 773, 772, 829, 836
3710, 773, 829, 837, 836
3711, 829, 765, 773, 766
3712, 773, 829, 766, 830
3713, 830, 766, 773, 774
3714, 773, 829, 830, 837
3715, 774, 773, 830, 837
3716, 774, 830, 838, 837
3717, 830, 766, 774, 767
3718, 774, 830, 767, 831
3719, 831, 767, 774, 775
3720, 774, 830, 831, 838
3721, 775, 774, 831, 838
3722, 775, 831, 839, 838
3723, 831, 767, 775, 768
3724, 775, 831, 768, 832
3725, 832, 768, 775, 776
3726, 775, 831, 832, 839
3727, 776, 775, 832, 839
3728, 776, 832, 840, 839
3729, 832, 768, 776, 462
3730, 776, 832, 462, 470
3731, 470, 462, 776, 461
3732, 776, 832, 470, 840
3733, 461, 776, 470, 840
3734, 461, 470, 469, 840
3735, 404, 396, 397, 769
3736, 397, 404, 769, 833
3737, 833, 769, 397, 777
3738, 397, 404, 833, 405
3739, 777, 397, 833, 405
3740, 777, 833, 841, 405
3741, 833, 769, 777, 770
3742, 777, 833, 770, 834
3743, 834, 770, 777, 778
3744, 777, 833, 834, 841
3745, 778, 777, 834, 841
3746, 778, 834, 842, 841
3747, 834, 770, 778, 771
3748, 778, 834, 771, 835
3749, 835, 771, 778, 779
3750, 778, 834, 835, 842
3751, 779, 778, 835, 842
3752, 779, 835, 843, 842
3753, 835, 771, 779, 772
3754, 779, 835, 772, 836
3755, 836, 772, 779, 780
3756, 779, 835, 836, 843
3757, 780, 779, 836, 843
3758, 780, 836, 844, 843
3759, 836, 772, 780, 773
3760, 780, 836, 773, 837
3761, 837, 773, 780, 781
3762, 780, 836, 837, 844
3763, 781, 780, 837, 844
3764, 781, 837, 845, 844
3765, 837, 773, 781, 774
3766, 781, 837, 774, 838
3767, 838, 774, 781, 782
3768, 781, 837, 838, 845
3769, 782, 781, 838, 845
3770, 782, 838, 846, 845
3771, 838, 774, 782, 775
3772, 782, 838, 775, 839
3773, 839, 775, 782, 783
3774, 782, 838, 839, 846
3775, 783, 782, 839, 846
3776, 783, 839, 847, 846
3777, 839, 775, 783, 776
3778, 783, 839, 776, 840
3779, 840, 776, 783, 784
3780, 783, 839, 840, 847
3781, 784, 783, 840, 847
3782, 784, 840, 848, 847
3783, 840, 776, 784, 461
3784, 784, 840, 461, 469
3785, 469, 461, 784, 460
3786, 784, 840, 469, 848
3787, 460, 784, 469, 848
3788, 460, 469, 468, 848
3789, 405, 397, 398, 777
3790, 398, 405, 777, 841
3791, 841, 777, 398, 785
3792, 398, 405, 841, 406
3793, 785, 398, 841, 406
3794, 785, 841, 849, 406
3795, 841, 777, 785, 778
3796, 785, 841, 778, 842
3797, 842, 778, 785, 786
3798, 785, 841, 842, 849
3799, 786, 785, 842, 849
3800, 786, 842, 850, 849
3801, 842, 778, 786, 779
3802, 786, 842, 779, 843
3803, 843, 779, 786, 787
3804, 786, 842, 843, 850
3805, 787, 786, 843, 850
3806, 787, 843, 851, 850
3807, 843, 779, 787, 780
3808, 787, 843, 780, 844
3809, 844, 780, 787, 788
3810, 787, 843, 844, 851
3811, 788, 787, 844, 851
3812, 788, 844, 852, 851
3813, 844, 780, 788, 781
3814, 788, 844, 781, 845
3815, 845, 781, 788, 789
3816, 788, 844, 845, 852
3817, 789, 788, 845, 852
3818, 789, 845, 853, 852
3819, 845, 781, 789, 782
3820, 789, 845, 782, 846
3821, 846, 782, 789, 790
3822, 789, 845, 846, 853
3823, 790, 789, 846, 853
3824, 790, 846, 854, 853
3825, 846, 782, 790, 783
3826, 790, 846, 783, 847
3827, 847, 783, 790, 791
3828, 790, 846, 847, 854
3829, 791, 790, 847, 854
3830, 791, 847, 855, 854
3831, 847, 783, 791, 784
3832, 791, 847, 784, 848
3833, 848, 784, 791, 792
3834, 791, 847, 848, 855
3835, 792, 791, 848, 855
3836, 792, 848, 856, 855
3837, 848, 784, 792, 460
3838, 792, 848, 460, 468
3839, 468, 460, 792, 459
3840, 792, 848, 468, 856
3841, 459, 792, 468, 856
3842, 459, 468, 467, 856
3843, 406, 398, 399, 785
3844, 399, 406, 785, 849
3845, 849, 785, 399, 793
3846, 399, 406, 849, 407
3847, 793, 399, 849, 407
3848, 793, 849, 857, 407
3849, 849, 785, 793, 786
3850, 793, 849, 786, 850
3851, 850, 786, 793, 794
3852, 793, 849, 850, 857
3853, 794, 793, 850, 857
3854, 794, 850, 858, 857
3855, 850, 786, 794, 787
3856, 794, 850, 787, 851
3857, 851, 787, 794, 795
3858, 794, 850, 851, 858
3859, 795, 794, 851, 858
3860, 795, 851, 859, 858
3861, 851, 787, 795, 788
3862, 795, 851, 788, 852
3863, 852, 788, 795, 796
3864, 795, 851, 852, 859
3865, 796, 795, 852, 859
3866, 796, 852, 860, 859
3867, 852, 788, 796, 789
3868, 796, 852, 789, 853
3869, 853, 789, 796, 797
3870, 796, 852, 853, 860
3871, 797, 796, 853, 860
3872, 797, 853, 861, 860
3873, 853, 789, 797, 790
3874, 797, 853, 790, 854
3875, 854, 790, 797, 798
3876, 797, 853, 854, 861
3877, 798, 797, 854, 861
3878, 798, 854, 862, 861
3879, 854, 790, 798, 791
3880, 798, 854, 791, 855
3881, 855, 791, 798, 799
3882, 798, 854, 855, 862
3883, 799, 798, 855, 862
3884, 799, 855, 863, 862
3885, 855, 791, 799, 792
3886, 799, 855, 792, 856
3887, 856, 792, 799, 800
3888, 799, 855, 856, 863
3889, 800, 799, 856, 863
3890, 800, 856, 864, 863
3891, 856, 792, 800, 459
3892, 800, 856, 459, 467
3893, 467, 459, 800, 458
3894, 800, 856, 467, 864
3895, 458, 800, 467, 864
3896, 458, 467, 466, 864
3897, 407, 399, 400, 793
3898, 400, 407, 793, 857
3899, 857, 793, 400, 801
3900, 400, 407, 857, 408
3901, 801, 400, 857, 408
3902, 801, 857, 865, 408
3903, 857, 793, 801, 794
3904, 801, 857, 794, 858
3905, 858, 794, 801, 802
3906, 801, 857, 858, 865
3907, 802, 801, 858, 865
3908, 802, 858, 866, 865
3909, 858, 794, 802, 795
3910, 802, 858, 795, 859
3911, 859, 795, 802, 803
3912, 802, 858, 859, 866
3913, 803, 802, 859, 866
3914, 803, 859, 867, 866
3915, 859, 795, 803, 796
3916, 803, 859, 796, 860
3917, 860, 796, 803, 804
3918, 803, 859, 860, 867
3919, 804, 803, 860, 867
3920, 804, 860, 868, 867
3921, 860, 796, 804, 797
3922, 804, 860, 797, 861
3923, 861, 797, 804, 805
3924, 804, 860, 861, 868
3925, 805, 804, 861, 868
3926, 805, 861, 869, 868
3927, 861, 797, 805, 798
3928, 805, 861, 798, 862
3929, 862, 798, 805, 806
3930, 805, 861, 862, 869
3931, 806, 805, 862, 869
3932, 806, 862, 870, 869
3933, 862, 798, 806, 799
3934, 806, 862, 799, 863
3935, 863, 799, 806, 807
3936, 806, 862, 863, 870
3937, 807, 806, 863, 870
3938, 807, 863, 871, 870
3939, 863, 799, 807, 800
3940, 807, 863, 800, 864
3941, 864, 800, 807, 808
3942, 807, 863, 864, 871
3943, 808, 807, 864, 871
3944, 808, 864, 872, 871
3945, 864, 800, 808, 458
3946, 808, 864, 458, 466
3947, 466, 458, 808, 457
3948, 808, 864, 466, 872
3949, 457, 808, 466, 872
3950, 457, 466, 465, 872
3951, 408, 400, 45, 801
3952, 45, 408, 801, 865
3953, 865, 801, 45, 272
3954, 45, 408, 865, 46
3955, 272, 45, 865, 46
3956, 272, 865, 280, 46
3957, 865, 801, 272, 802
3958, 272, 865, 802, 866
3959, 866, 802, 272, 271
3960, 272, 865, 866, 280
3961, 271, 272, 866, 280
3962, 271, 866, 279, 280
3963, 866, 802, 271, 803
3964, 271, 866, 803, 867
3965, 867, 803, 271, 270
3966, 271, 866, 867, 279
3967, 270, 271, 867, 279
3968, 270, 867, 278, 279
3969, 867, 803, 270, 804
3970, 270, 867, 804, 868
3971, 868, 804, 270, 269
3972, 270, 867, 868, 278
3973, 269, 270, 868, 278
3974, 269, 868, 277, 278
3975, 868, 804, 269, 805
3976, 269, 868, 805, 869
3977, 869, 805, 269, 268
3978, 269, 868, 869, 277
3979, 268, 269, 869, 277
3980, 268, 869, 276, 277
3981, 869, 805, 268, 806
3982, 268, 869, 806, 870
3983, 870, 806, 268, 267
3984, 268, 869, 870, 276
3985, 267, 268, 870, 276
3986, 267, 870, 275, 276
3987, 870, 806, 267, 807
3988, 267, 870, 807, 871
3989, 871, 807, 267, 266
3990, 267, 870, 871, 275
3991, 266, 267, 871, 275
3992, 266, 871, 274, 275
3993, 871, 807, 266, 808
3994, 266, 871, 808, 872
3995, 872, 808, 266, 265
3996, 266, 871, 872, 274
3997, 265, 266, 872, 274
3998, 265, 872, 273, 274
3999, 872, 808, 265, 457
4000, 265, 872, 457, 465
4001, 465, 457, 265, 53
4002, 265, 872, 465, 273
4003, 53, 265, 465, 273
4004, 53, 465, 54, 273
4005, 31, 30, 401, 145
4006, 401, 31, 145, 153
4007, 153, 145, 401, 809
4008, 401, 31, 153, 409
4009, 809, 401, 153, 409
4010, 809, 153, 873, 409
4011, 153, 145, 809, 146
4012, 809, 153, 146, 154
4013, 154, 146, 809, 810
4014, 809, 153, 154, 873
4015, 810, 809, 154, 873
4016, 810, 154, 874, 873
4017, 154, 146, 810, 147
4018, 810, 154, 147, 155
4019, 155, 147, 810, 811
4020, 810, 154, 155, 874
4021, 811, 810, 155, 874
4022, 811, 155, 875, 874
4023, 155, 147, 811, 148
4024, 811, 155, 148, 156
4025, 156, 148, 811, 812
4026, 811, 155, 156, 875
4027, 812, 811, 156, 875
4028, 812, 156, 876, 875
4029, 156, 148, 812, 149
4030, 812, 156, 149, 157
4031, 157, 149, 812, 813
4032, 812, 156, 157, 876
4033, 813, 812, 157, 876
4034, 813, 157, 877, 876
4035, 157, 149, 813, 150
4036, 813, 157, 150, 158
4037, 158, 150, 813, 814
4038, 813, 157, 158, 877
4039, 814, 813, 158, 877
4040, 814, 158, 878, 877
4041, 158, 150, 814, 151
4042, 814, 158, 151, 159
4043, 159, 151, 814, 815
4044, 814, 158, 159, 878
4045, 815, 814, 159, 878
4046, 815, 159, 879, 878
4047, 159, 151, 815, 152
4048, 815, 159, 152, 160
4049, 160, 152, 815, 816
4050, 815, 159, 160, 879
4051, 816, 815, 160, 879
4052, 816, 160, 880, 879
4053, 160, 152, 816, 38
4054, 816, 160, 38, 39
4055, 39, 38, 816, 472
4056, 816, 160, 39, 880
4057, 472, 816, 39, 880
4058, 472, 39, 480, 880
4059, 409, 401, 402, 809
4060, 402, 409, 809, 873
4061, 873, 809, 402, 817
4062, 402, 409, 873, 410
4063, 817, 402, 873, 410
4064, 817, 873, 881, 410
4065, 873, 809, 817, 810
4066, 817, 873, 810, 874
4067, 874, 810, 817, 818
4068, 817, 873, 874, 881
4069, 818, 817, 874, 881
4070, 818, 874, 882, 881
4071, 874, 810, 818, 811
4072, 818, 874, 811, 875
4073, 875, 811, 818, 819
4074, 818, 874, 875, 882
4075, 819, 818, 875, 882
4076, 819, 875, 883, 882
4077, 875, 811, 819, 812
4078, 819, 875, 812, 876
4079, 876, 812, 819, 820
4080, 819, 875, 876, 883
4081, 820, 819, 876, 883
4082, 820, 876, 884, 883
4083, 876, 812, 820, 813
4084, 820, 876, 813, 877
4085, 877, 813, 820, 821
4086, 820, 876, 877, 884
4087, 821, 820, 877, 884
4088, 821, 877, 885, 884
4089, 877, 813, 821, 814
4090, 821, 877, 814, 878
4091, 878, 814, 821, 822
4092, 821, 877, 878, 885
4093, 822, 821, 878, 885
4094, 822, 878, 886, 885
4095, 878, 814, 822, 815
4096, 822, 878, 815, 879
4097, 879, 815, 822, 823
4098, 822, 878, 879, 886
4099, 823, 822, 879, 886
4100, 823, 879, 887, 886
4101, 879, 815, 823, 816
4102, 823, 879, 816, 880
4103, 880, 816, 823, 824
4104, 823, 879, 880, 887
4105, 824, 823, 880, 887
4106, 824, 880, 888, 887
4107, 880, 816, 824, 472
4108, 824, 880, 472, 480
4109, 480, 472, 824, 471
4110, 824, 880, 480, 888
4111, 471, 824, 480, 888
4112, 471, 480, 479, 888
4113, 410, 402, 403, 817
4114, 403, 410, 817, 881
4115, 881, 817, 403, 825
4116, 403, 410, 881, 411
4117, 825, 403, 881, 411
4118, 825, 881, 889, 411
4119, 881, 817, 825, 818
4120, 825, 881, 818, 882
4121, 882, 818, 825, 826
4122, 825, 881, 882, 889
4123, 826, 825, 882, 889
4124, 826, 882, 890, 889
4125, 882, 818, 826, 819
4126, 826, 882, 819, 883
4127, 883, 819, 826, 827
4128, 826, 882, 883, 890
4129, 827, 826, 883, 890
4130, 827, 883, 891, 890
4131, 883, 819, 827, 820
4132, 827, 883, 820, 884
4133, 884, 820, 827, 828
4134, 827, 883, 884, 891
4135, 828, 827, 884, 891
4136, 828, 884, 892, 891
4137, 884, 820, 828, 821
4138, 828, 884, 821, 885
4139, 885, 821, 828, 829
4140, 828, 884, 885, 892
4141, 829, 828, 885, 892
4142, 829, 885, 893, 892
4143, 885, 821, 829, 822
4144, 829, 885, 822, 886
4145, 886, 822, 829, 830
4146, 829, 885, 886, 893
4147, 830, 829, 886, 893
4148, 830, 886, 894, 893
4149, 886, 822, 830, 823
4150, 830, 886, 823, 887
4151, 887, 823, 830, 831
4152, 830, 886, 887, 894
4153, 831, 830, 887, 894
4154, 831, 887, 895, 894
4155, 887, 823, 831, 824
4156, 831, 887, 824, 888
4157, 888, 824, 831, 832
4158, 831, 887, 888, 895
4159, 832, 831, 888, 895
4160, 832, 888, 896, 895
4161, 888, 824, 832, 471
4162, 832, 888, 471, 479
4163, 479, 471, 832, 470
4164, 832, 888, 479, 896
4165, 470, 832, 479, 896
4166, 470, 479, 478, 896
4167, 411, 403, 404, 825
4168, 404, 411, 825, 889
4169, 889, 825, 404, 833
4170, 404, 411, 889, 412
4171, 833, 404, 889, 412
4172, 833, 889, 897, 412
4173, 889, 825, 833, 826
4174, 833, 889, 826, 890
4175, 890, 826, 833, 834
4176, 833, 889, 890, 897
4177, 834, 833, 890, 897
4178, 834, 890, 898, 897
4179, 890, 826, 834, 827
4180, 834, 890, 827, 891
4181, 891, 827, 834, 835
4182, 834, 890, 891, 898
4183, 835, 834, 891, 898
4184, 835, 891, 899, 898
4185, 891, 827, 835, 828
4186, 835, 891, 828, 892
4187, 892, 828, 835, 836
4188, 835, 891, 892, 899
4189, 836, 835, 892, 899
4190, 836, 892, 900, 899
4191, 892, 828, 836, 829
4192, 836, 892, 829, 893
4193, 893, 829, 836, 837
4194, 836, 892, 893, 900
4195, 837, 836, 893, 900
4196, 837, 893, 901, 900
4197, 893, 829, 837, 830
4198, 837, 893, 830, 894
4199, 894, 830, 837, 838
4200, 837, 893, 894, 901
4201, 838, 837, 894, 901
4202, 838, 894, 902, 901
4203, 894, 830, 838, 831
4204, 838, 894, 831, 895
4205, 895, 831, 838, 839
4206, 838, 894, 895, 902
4207, 839, 838, 895, 902
4208, 839, 895, 903, 902
4209, 895, 831, 839, 832
4210, 839, 895, 832, 896
4211, 896, 832, 839, 840
4212, 839, 895, 896, 903
4213, 840, 839, 896, 903
4214, 840, 896, 904, 903
4215, 896, 832, 840, 470
4216, 840, 896, 470, 478
4217, 478, 470, 840, 469
4218, 840, 896, 478, 904
4219, 469, 840, 478, 904
4220, 469, 478, 477, 904
4221, 412, 404, 405, 833
4222, 405, 412, 833, 897
4223, 897, 833, 405, 841
4224, 405, 412, 897, 413
4225, 841, 405, 897, 413
4226, 841, 897, 905, 413
4227, 897, 833, 841, 834
4228, 841, 897, 834, 898
4229, 898, 834, 841, 842
4230, 841, 897, 898, 905
4231, 842, 841, 898, 905
4232, 842, 898, 906, 905
4233, 898, 834, 842, 835
4234, 842, 898, 835, 899
4235, 899, 835, 842, 843
4236, 842, 898, 899, 906
4237, 843, 842, 899, 906
4238, 843, 899, 907, 906
4239, 899, 835, 843, 836
4240, 843, 899, 836, 900
4241, 900, 836, 843, 844
4242, 843, 899, 900, 907
4243, 844, 843, 900, 907
4244, 844, 900, 908, 907
4245, 900, 836, 844, 837
4246, 844, 900, 837, 901
4247, 901, 837, 844, 845
4248, 844, 900, 901, 908
4249, 845, 844, 901, 908
4250, 845, 901, 909, 908
4251, 901, 837, 845, 838
4252, 845, 901, 838, 902
4253, 902, 838, 845, 846
4254, 845, 901, 902, 909
4255, 846, 845, 902, 909
4256, 846, 902, 910, 909
4257, 902, 838, 846, 839
4258, 846, 902, 839, 903
4259, 903, 839, 846, 847
4260, 846, 902, 903, 910
4261, 847, 846, 903, 910
4262, 847, 903, 911, 910
4263, 903, 839, 847, 840
4264, 847, 903, 840, 904
4265, 904, 840, 847, 848
4266, 847, 903, 904, 911
4267, 848, 847, 904, 911
4268, 848, 904, 912, 911
4269, 904, 840, 848, 469
4270, 848, 904, 469, 477
4271, 477, 469, 848, 468
4272, 848, 904, 477, 912
4273, 468, 848, 477, 912
4274, 468, 477, 476, 912
4275, 413, 405, 406, 841
4276, 406, 413, 841, 905
4277, 905, 841, 406, 849
4278, 406, 413, 905, 414
4279, 849, 406, 905, 414
4280, 849, 905, 913, 414
4281, 905, 841, 849, 842
4282, 849, 905, 842, 906
4283, 906, 842, 849, 850
4284, 849, 905, 906, 913
4285, 850, 849, 906, 913
4286, 850, 906, 914, 913
4287, 906, 842, 850, 843
4288, 850, 906, 843, 907
4289, 907, 843, 850, 851
4290, 850, 906, 907, 914
4291, 851, 850, 907, 914
4292, 851, 907, 915, 914
4293, 907, 843, 851, 844
4294, 851, 907, 844, 908
4295, 908, 844, 851, 852
4296, 851, 907, 908, 915
4297, 852, 851, 908, 915
4298, 852, 908, 916, 915
4299, 908, 844, 852, 845
4300, 852, 908, 845, 909
4301, 909, 845, 852, 853
4302, 852, 908, 909, 916
4303, 853, 852, 909, 916
4304, 853, 909, 917, 916
4305, 909, 845, 853, 846
4306, 853, 909, 846, 910
4307, 910, 846, 853, 854
4308, 853, 909, 910, 917
4309, 854, 853, 910, 917
4310, 854, 910, 918, 917
4311, 910, 846, 854, 847
4312, 854, 910, 847, 911
4313, 911, 847, 854, 855
4314, 854, 910, 911, 918
4315, 855, 854, 911, 918
4316, 855, 911, 919, 918
4317, 911, 847, 855, 848
4318, 855, 911, 848, 912
4319, 912, 848, 855, 856
4320, 855, 911, 912, 919
4321, 856, 855, 912, 919
4322, 856, 912, 920, 919
4323, 912, 848, 856, 468
4324, 856, 912, 468, 476
4325, 476, 468, 856, 467
4326, 856, 912, 476, 920
4327, 467, 856, 476, 920
4328, 467, 476, 475, 920
4329, 414, 406, 407, 849
4330, 407, 414, 849, 913
4331, 913, 849, 407, 857
4332, 407, 414, 913, 415
4333, 857, 407, 913, 415
4334, 857, 913, 921, 415
4335, 913, 849, 857, 850
4336, 857, 913, 850, 914
4337, 914, 850, 857, 858
4338, 857, 913, 914, 921
4339, 858, 857, 914, 921
4340, 858, 914, 922, 921
4341, 914, 850, 858, 851
4342, 858, 914, 851, 915
4343, 915, 851, 858, 859
4344, 858, 914, 915, 922
4345, 859, 858, 915, 922
4346, 859, 915, 923, 922
4347, 915, 851, 859, 852
4348, 859, 915, 852, 916
4349, 916, 852, 859, 860
4350, 859, 915, 916, 923
4351, 860, 859, 916, 923
4352, 860, 916, 924, 923
4353, 916, 852, 860, 853
4354, 860, 916, 853, 917
4355, 917, 853, 860, 861
4356, 860, 916, 917, 924
4357, 861, 860, 917, 924
4358, 861, 917, 925, 924
4359, 917, 853, 861, 854
4360, 861, 917, 854, 918
4361, 918, 854, 861, 862
4362, 861, 917, 918, 925
4363, 862, 861, 918, 925
4364, 862, 918, 926, 925
4365, 918, 854, 862, 855
4366, 862, 918, 855, 919
4367, 919, 855, 862, 863
4368, 862, 918, 919, 926
4369, 863, 862, 919, 926
4370, 863, 919, 927, 926
4371, 919, 855, 863, 856
4372, 863, 919, 856, 920
4373, 920, 856, 863, 864
4374, 863, 919, 920, 927
4375, 864, 863, 920, 927
4376, 864, 920, 928, 927
4377, 920, 856, 864, 467
4378, 864, 920, 467, 475
4379, 475, 467, 864, 466
4380, 864, 920, 475, 928
4381, 466, 864, 475, 928
4382, 466, 475, 474, 928
4383, 415, 407, 408, 857
4384, 408, 415, 857, 921
4385, 921, 857, 408, 865
4386, 408, 415, 921, 416
4387, 865, 408, 921, 416
4388, 865, 921, 929, 416
4389, 921, 857, 865, 858
4390, 865, 921, 858, 922
4391, 922, 858, 865, 866
4392, 865, 921, 922, 929
4393, 866, 865, 922, 929
4394, 866, 922, 930, 929
4395, 922, 858, 866, 859
4396, 866, 922, 859, 923
4397, 923, 859, 866, 867
4398, 866, 922, 923, 930
4399, 867, 866, 923, 930
4400, 867, 923, 931, 930
4401, 923, 859, 867, 860
4402, 867, 923, 860, 924
4403, 924, 860, 867, 868
4404, 867, 923, 924, 931
4405, 868, 867, 924, 931
4406, 868, 924, 932, 931
4407, 924, 860, 868, 861
4408, 868, 924, 861, 925
4409, 925, 861, 868, 869
4410, 868, 924, 925, 932
4411, 869, 868, 925, 932
4412, 869, 925, 933, 932
4413, 925, 861, 869, 862
4414, 869, 925, 862, 926
4415, 926, 862, 869, 870
4416, 869, 925, 926, 933
4417, 870, 869, 926, 933
4418, 870, 926, 934, 933
4419, 926, 862, 870, 863
4420, 870, 926, 863, 927
4421, 927, 863, 870, 871
4422, 870, 926, 927, 934
4423, 871, 870, 927, 934
4424, 871, 927, 935, 934
4425, 927, 863, 871, 864
4426, 871, 927, 864, 928
4427, 928, 864, 871, 872
4428, 871, 927, 928, 935
4429, 872, 871, 928, 935
4430, 872, 928, 936, 935
4431, 928, 864, 872, 466
4432, 872, 928, 466, 474
4433, 474, 466, 872, 465
4434, 872, 928, 474, 936
4435, 465, 872, 474, 936
4436, 465, 474, 473, 936
4437, 416, 408, 46, 865
4438, 46, 416, 865, 929
4439, 929, 865, 46, 280
4440, 46, 416, 929, 47
4441, 280, 46, 929, 47
4442, 280, 929, 288, 47
4443, 929, 865, 280, 866
4444, 280, 929, 866, 930
4445, 930, 866, 280, 279
4446, 280, 929, 930, 288
4447, 279, 280, 930, 288
4448, 279, 930, 287, 288
4449, 930, 866, 279, 867
4450, 279, 930, 867, 931
4451, 931, 867, 279, 278
4452, 279, 930, 931, 287
4453, 278, 279, 931, 287
4454, 278, 931, 286, 287
4455, 931, 867, 278, 868
4456, 278, 931, 868, 932
4457, 932, 868, 278, 277
4458, 278, 931, 932, 286
4459, 277, 278, 932, 286
4460, 277, 932, 285, 286
4461, 932, 868, 277, 869
4462, 277, 932, 869, 933
4463, 933, 869, 277, 276
4464, 277, 932, 933, 285
4465, 276, 277, 933, 285
4466, 276, 933, 284, 285
4467, 933, 869, 276, 870
4468, 276, 933, 870, 934
4469, 934, 870, 276, 275
4470, 276, 933, 934, 284
4471, 275, 276, 934, 284
4472, 275, 934, 283, 284
4473, 934, 870, 275, 871
4474, 275, 934, 871, 935
4475, 935, 871, 275, 274
4476, 275, 934, 935, 283
4477, 274, 275, 935, 283
4478, 274, 935, 282, 283
4479, 935, 871, 274, 872
4480, 274, 935, 872, 936
4481, 936, 872, 274, 273
4482, 274, 935, 936, 282
4483, 273, 274, 936, 282
4484, 273, 936, 281, 282
4485, 936, 872, 273, 465
4486, 273, 936, 465, 473
4487, 473, 465, 273, 54
4488, 273, 936, 473, 281
4489, 54, 273, 473, 281
4490, 54, 473, 55, 281
4491, 32, 31, 409, 153
4492, 409, 32, 153, 161
4493, 161, 153, 409, 873
4494, 409, 32, 161, 417
4495, 873, 409, 161, 417
4496, 873, 161, 937, 417
4497, 161, 153, 873, 154
4498, 873, 161, 154, 162
4499, 162, 154, 873, 874
4500, 873, 161, 162, 937
4501, 874, 873, 162, 937
4502, 874, 162, 938, 937
4503, 162, 154, 874, 155
4504, 874, 162, 155, 163
4505, 163, 155, 874, 875
4506, 874, 162, 163, 938
4507, 875, 874, 163, 938
4508, 875, 163, 939, 938
4509, 163, 155, 875, 156
4510, 875, 163, 156, 164
4511, 164, 156, 875, 876
4512, 875, 163, 164, 939
4513, 876, 875, 164, 939
4514, 876, 164, 940, 939
4515, 164, 156, 876, 157
4516, 876, 164, 157, 165
4517, 165, 157, 876, 877
4518, 876, 164, 165, 940
4519, 877, 876, 165, 940
4520, 877, 165, 941, 940
4521, 165, 157, 877, 158
4522, 877, 165, 158, 166
4523, 166, 158, 877, 878
4524, 877, 165, 166, 941
4525, 878, 877, 166, 941
4526, 878, 166, 942, 941
4527, 166, 158, 878, 159
4528, 878, 166, 159, 167
4529, 167, 159, 878, 879
4530, 878, 166, 167, 942
4531, 879, 878, 167, 942
4532, 879, 167, 943, 942
4533, 167, 159, 879, 160
4534, 879, 167, 160, 168
4535, 168, 160, 879, 880
4536, 879, 167, 168, 943
4537, 880, 879, 168, 943
4538, 880, 168, 944, 943
4539, 168, 160, 880, 39
4540, 880, 168, 39, 40
4541, 40, 39, 880, 480
4542, 880, 168, 40, 944
4543, 480, 880, 40, 944
4544, 480, 40, 488, 944
4545, 417, 409, 410, 873
4546, 410, 417, 873, 937
4547, 937, 873, 410, 881
4548, 410, 417, 937, 418
4549, 881, 410, 937, 418
4550, 881, 937, 945, 418
4551, 937, 873, 881, 874
4552, 881, 937, 874, 938
4553, 938, 874, 881, 882
4554, 881, 937, 938, 945
4555, 882, 881, 938, 945
4556, 882, 938, 946, 945
4557, 938, 874, 882, 875
4558, 882, 938, 875, 939
4559, 939, 875, 882, 883
4560, 882, 938, 939, 946
4561, 883, 882, 939, 946
4562, 883, 939, 947, 946
4563, 939, 875, 883, 876
4564, 883, 939, 876, 940
4565, 940, 876, 883, 884
4566, 883, 939, 940, 947
4567, 884, 883, 940, 947
4568, 884, 940, 948, 947
4569, 940, 876, 884, 877
4570, 884, 940, 877, 941
4571, 941, 877, 884, 885
4572, 884, 940, 941, 948
4573, 885, 884, 941, 948
4574, 885, 941, 949, 948
4575, 941, 877, 885, 878
4576, 885, 941, 878, 942
4577, 942, 878, 885, 886
4578, 885, 941, 942, 949
4579, 886, 885, 942, 949
4580, 886, 942, 950, 949
4581, 942, 878, 886, 879
4582, 886, 942, 879, 943
4583, 943, 879, 886, 887
4584, 886, 942, 943, 950
4585, 887, 886, 943, 950
4586, 887, 943, 951, 950
4587, 943, 879, 887, 880
4588, 887, 943, 880, 944
4589, 944, 880, 887, 888
4590, 887, 943, 944, 951
4591, 888, 887, 944, 951
4592, 888, 944, 952, 951
4593, 944, 880, 888, 480
4594, 888, 944, 480, 488
4595, 488, 480, 888, 479
4596, 888, 944, 488, 952
4597, 479, 888, 488, 952
4598, 479, 488, 487, 952
4599, 418, 410, 411, 881
4600, 411, 418, 881, 945
4601, 945, 881, 411, 889
4602, 411, 418, 945, 419
4603, 889, 411, 945, 419
4604, 889, 945, 953, 419
4605, 945, 881, 889, 882
4606, 889, 945, 882, 946
4607, 946, 882, 889, 890
4608, 889, 945, 946, 953
4609, 890, 889, 946, 953
4610, 890, 946, 954, 953
4611, 946, 882, 890, 883
4612, 890, 946, 883, 947
4613, 947, 883, 890, 891
4614, 890, 946, 947, 954
4615, 891, 890, 947, 954
4616, 891, 947, 955, 954
4617, 947, 883, 891, 884
4618, 891, 947, 884, 948
4619, 948, 884, 891, 892
4620, 891, 947, 948, 955
4621, 892, 891, 948, 955
4622, 892, 948, 956, 955
4623, 948, 884, 892, 885
4624, 892, 948, 885, 949
4625, 949, 885, 892, 893
4626, 892, 948, 949, 956
4627, 893, 892, 949, 956
4628, 893, 949, 957, 956
4629, 949, 885, 893, 886
4630, 893, 949, 886, 950
4631, 950, 886, 893, 894
4632, 893, 949, 950, 957
4633, 894, 893, 950, 957
4634, 894, 950, 958, 957
4635, 950, 886, 894, 887
4636, 894, 950, 887, 951
4637, 951, 887, 894, 895
4638, 894, 950, 951, 958
4639, 895, 894, 951, 958
4640, 895, 951, 959, 958
4641, 951, 887, 895, 888
4642, 895, 951, 888, 952
4643, 952, 888, 895, 896
4644, 895, 951, 952, 959
4645, 896, 895, 952, 959
4646, 896, 952, 960, 959
4647, 952, 888, 896, 479
4648, 896, 952, 479, 487
4649, 487, 479, 896, 478
4650, 896, 952, 487, 960
4651, 478, 896, 487, 960
4652, 478, 487, 486, 960
4653, 419, 411, 412, 889
4654, 412, 419, 889, 953
4655, 953, 889, 412, 897
4656, 412, 419, 953, 420
4657, 897, 412, 953, 420
4658, 897, 953, 961, 420
4659, 953, 889, 897, 890
4660, 897, 953, 890, 954
4661, 954, 890, 897, 898
4662, 897, 953, 954, 961
4663, 898, 897, 954, 961
4664, 898, 954, 962, 961
4665, 954, 890, 898, 891
4666, 898, 954, 891, 955
4667, 955, 891, 898, 899
4668, 898, 954, 955, 962
4669, 899, 898, 955, 962
4670, 899, 955, 963, 962
4671, 955, 891, 899, 892
4672, 899, 955, 892, 956
4673, 956, 892, 899, 900
4674, 899, 955, 956, 963
4675, 900, 899, 956, 963
4676, 900, 956, 964, 963
4677, 956, 892, 900, 893
4678, 900, 956, 893, 957
4679, 957, 893, 900, 901
4680, 900, 956, 957, 964
4681, 901, 900, 957, 964
4682, 901, 957, 965, 964
4683, 957, 893, 901, 894
4684, 901, 957, 894, 958
4685, 958, 894, 901, 902
4686, 901, 957, 958, 965
4687, 902, 901, 958, 965
4688, 902, 958, 966, 965
4689, 958, 894, 902, 895
4690, 902, 958, 895, 959
4691, 959, 895, 902, 903
4692, 902, 958, 959, 966
4693, 903, 902, 959, 966
4694, 903, 959, 967, 966
4695, 959, 895, 903, 896
4696, 903, 959, 896, 960
4697, 960, 896, 903, 904
4698, 903, 959, 960, 967
4699, 904, 903, 960, 967
4700, 904, 960, 968, 967
4701, 960, 896, 904, 478
4702, 904, 960, 478, 486
4703, 486, 478, 904, 477
4704, 904, 960, 486, 968
4705, 477, 904, 486, 968
4706, 477, 486, 485, 968
4707, 420, 412, 413, 897
4708, 413, 420, 897, 961
4709, 961, 897, 413, 905
4710, 413, 420, 961, 421
4711, 905, 413, 961, 421
4712, 905, 961, 969, 421
4713, 961, 897, 905, 898
4714, 905, 961, 898, 962
4715, 962, 898, 905, 906
4716, 905, 961, 962, 969
4717, 906, 905, 962, 969
4718, 906, 962, 970, 969
4719, 962, 898, 906, 899
4720, 906, 962, 899, 963
4721, 963, 899, 906, 907
4722, 906, 962, 963, 970
4723, 907, 906, 963, 970
4724, 907, 963, 971, 970
4725, 963, 899, 907, 900
4726, 907, 963, 900, 964
4727, 964, 900, 907, 908
4728, 907, 963, 964, 971
4729, 908, 907, 964, 971
4730, 908, 964, 972, 971
4731, 964, 900, 908, 901
4732, 908, 964, 901, 965
4733, 965, 901, 908, 909
4734, 908, 964, 965, 972
4735, 909, 908, 965, 972
4736, 909, 965, 973, 972
4737, 965, 901, 909, 902
4738, 909, 965, 902, 966
4739, 966, 902, 909, 910
4740, 909, 965, 966, 973
4741, 910, 909, 966, 973
4742, 910, 966, 974, 973
4743, 966, 902, 910, 903
4744, 910, 966, 903, 967
4745, 967, 903, 910, 911
4746, 910, 966, 967, 974
4747, 911, 910, 967, 974
4748, 911, 967, 975, 974
4749, 967, 903, 911, 904
4750, 911, 967, 904, 968
4751, 968, 904, 911, 912
4752, 911, 967, 968, 975
4753, 912, 911, 968, 975
4754, 912, 968, 976, 975
4755, 968, 904, 912, 477
4756, 912, 968, 477, 485
4757, 485, 477, 912, 476
4758, 912, 968, 485, 976
4759, 476, 912, 485, 976
4760, 476, 485, 484, 976
4761, 421, 413, 414, 905
4762, 414, 421, 905, 969
4763, 969, 905, 414, 913
4764, 414, 421, 969, 422
4765, 913, 414, 969, 422
4766, 913, 969, 977, 422
4767, 969, 905, 913, 906
4768, 913, 969, 906, 970
4769, 970, 906, 913, 914
4770, 913, 969, 970, 977
4771, 914, 913, 970, 977
4772, 914, 970, 978, 977
4773, 970, 906, 914, 907
4774, 914, 970, 907, 971
4775, 971, 907, 914, 915
4776, 914, 970, 971, 978
4777, 915, 914, 971, 978
4778, 915, 971, 979, 978
4779, 971, 907, 915, 908
4780, 915, 971, 908, 972
4781, 972, 908, 915, 916
4782, 915, 971, 972, 979
4783, 916, 915, 972, 979
4784, 916, 972, 980, 979
4785, 972, 908, 916, 909
4786, 916, 972, 909, 973
4787, 973, 909, 916, 917
4788, 916, 972, 973, 980
4789, 917, 916, 973, 980
4790, 917, 973, 981, 980
4791, 973, 909, 917, 910
4792, 917, 973, 910, 974
4793, 974, 910, 917, 918
4794, 917, 973, 974, 981
4795, 918, 917, 974, 981
4796, 918, 974, 982, 981
4797, 974, 910, 918, 911
4798, 918, 974, 911, 975
4799, 975, 911, 918, 919
4800, 918, 974, 975, 982
4801, 919, 918, 975, 982
4802, 919, 975, 983, 982
4803, 975, 911, 919, 912
4804, 919, 975, 912, 976
4805, 976, 912, 919, 920
4806, 919, 975, 976, 983
4807, 920, 919, 976, 983
4808, 920, 976, 984, 983
4809, 976, 912, 920, 476
4810, 920, 976, 476, 484
4811, 484, 476, 920, 475
4812, 920, 976, 484, 984
4813, 475, 920, 484, 984
4814, 475, 484, 483, 984
4815, 422, 414, 415, 913
4816, 415, 422, 913, 977
4817, 977, 913, 415, 921
4818, 415, 422, 977, 423
4819, 921, 415, 977, 423
4820, 921, 977, 985, 423
4821, 977, 913, 921, 914
4822, 921, 977, 914, 978
4823, 978, 914, 921, 922
4824, 921, 977, 978, 985
4825, 922, 921, 978, 985
4826, 922, 978, 986, 985
4827, 978, 914, 922, 915
4828, 922, 978, 915, 979
4829, 979, 915, 922, 923
4830, 922, 978, 979, 986
4831, 923, 922, 979, 986
4832, 923, 979, 987, 986
4833, 979, 915, 923, 916
4834, 923, 979, 916, 980
4835, 980, 916, 923, 924
4836, 923, 979, 980, 987
4837, 924, 923, 980, 987
4838, 924, 980, 988, 987
4839, 980, 916, 924, 917
4840, 924, 980, 917, 981
4841, 981, 917, 924, 925
4842, 924, 980, 981, 988
4843, 925, 924, 981, 988
4844, 925, 981, 989, 988
4845, 981, 917, 925, 918
4846, 925, 981, 918, 982
4847, 982, 918, 925, 926
4848, 925, 981, 982, 989
4849, 926, 925, 982, 989
4850, 926, 982, 990, 989
4851, 982, 918, 926, 919
4852, 926, 982, 919, 983
4853, 983, 919, 926, 927
4854, 926, 982, 983, 990
4855, 927, 926, 983, 990
4856, 927, 983, 991, 990
4857, 983, 919, 927, 920
4858, 927, 983, 920, 984
4859, 984, 920, 927, 928
4860, 927, 983, 984, 991
4861, 928, 927, 984, 991
4862, 928, 984, 992, 991
4863, 984, 920, 928, 475
4864, 928, 984, 475, 483
4865, 483, 475, 928, 474
4866, 928, 984, 483, 992
4867, 474, 928, 483, 992
4868, 474, 483, 482, 992
4869, 423, 415, 416, 921
4870, 416, 423, 921, 985
4871, 985, 921, 416, 929
4872, 416, 423, 985, 424
4873, 929, 416, 985, 424
4874, 929, 985, 993, 424
4875, 985, 921, 929, 922
4876, 929, 985, 922, 986
4877, 986, 922, 929, 930
4878, 929, 985, 986, 993
4879, 930, 929, 986, 993
4880, 930, 986, 994, 993
4881, 986, 922, 930, 923
4882, 930, 986, 923, 987
4883, 987, 923, 930, 931
4884, 930, 986, 987, 994
4885, 931, 930, 987, 994
4886, 931, 987, 995, 994
4887, 987, 923, 931, 924
4888, 931, 987, 924, 988
4889, 988, 924, 931, 932
4890, 931, 987, 988, 995
4891, 932, 931, 988, 995
4892, 932, 988, 996, 995
4893, 988, 924, 932, 925
4894, 932, 988, 925, 989
4895, 989, 925, 932, 933
4896, 932, 988, 989, 996
4897, 933, 932, 989, 996
4898, 933, 989, 997, 996
4899, 989, 925, 933, 926
4900, 933, 989, 926, 990
4901, 990, 926, 933, 934
4902, 933, 989, 990, 997
4903, 934, 933, 990, 997
4904, 934, 990, 998, 997
4905, 990, 926, 934, 927
4906, 934, 990, 927, 991
4907, 991, 927, 934, 935
4908, 934, 990, 991, 998
4909, 935, 934, 991, 998
4910, 935, 991, 999, 998
4911, 991, 927, 935, 928
4912, 935, 991, 928, 992
4913, 992, 928, 935, 936
4914, 935, 991, 992, 999
4915, 936, 935, 992, 999
4916, 936, 992, 1000, 999
4917, 992, 928, 936, 474
4918, 936, 992, 474, 482
4919, 482, 474, 936, 473
4920, 936, 992, 482, 1000
4921, 473, 936, 482, 1000
4922, 473, 482, 481, 1000
4923, 424, 416, 47, 929
4924, 47, 424, 929, 993
4925, 993, 929, 47, 288
4926, 47, 424, 993, 48
4927, 288, 47, 993, 48
4928, 288, 993, 296, 48
4929, 993, 929, 288, 930
4930, 288, 993, 930, 994
4931, 994, 930, 288, 287
4932, 288, 993, 994, 296
4933, 287, 288, 994, 296
4934, 287, 994, 295, 296
4935, 994, 930, 287, 931
4936, 287, 994, 931, 995
4937, 995, 931, 287, 286
4938, 287, 994, 995, 295
4939, 286, 287, 995, 295
4940, 286, 995, 294, 295
4941, 995, 931, 286, 932
4942, 286, 995, 932, 996
4943, 996, 932, 286, 285
4944, 286, 995, 996, 294
4945, 285, 286, 996, 294
4946, 285, 996, 293, 294
4947, 996, 932, 285, 933
4948, 285, 996, 933, 997
4949, 997, 933, 285, 284
4950, 285, 996, 997, 293
4951, 284, 285, 997, 293
4952, 284, 997, 292, 293
4953, 997, 933, 284, 934
4954, 284, 997, 934, 998
4955, 998, 934, 284, 283
4956, 284, 997, 998, 292
4957, 283, 284, 998, 292
4958, 283, 998, 291, 292
4959, 998, 934, 283, 935
4960, 283, 998, 935, 999
4961, 999, 935, 283, 282
4962, 283, 998, 999, 291
4963, 282, 283, 999, 291
4964, 282, 999, 290, 291
4965, 999, 935, 282, 936
4966, 282, 999, 936, 1000
4967, 1000, 936, 282, 281
4968, 282, 999, 1000, 290
4969, 281, 282, 1000, 290
4970, 281, 1000, 289, 290
4971, 1000, 936, 281, 473
4972, 281, 1000, 473, 481
4973, 481, 473, 281, 55
4974, 281, 1000, 481, 289
4975, 55, 281, 481, 289
4976, 55, 481, 56, 289
4977, 6, 32, 417, 161
4978, 417, 6, 161, 17
4979, 17, 161, 417, 937
4980, 417, 6, 17, 97
4981, 937, 417, 17, 97
4982, 937, 17, 169, 97
4983, 17, 161, 937, 162
4984, 937, 17, 162, 18
4985, 18, 162, 937, 938
4986, 937, 17, 18, 169
4987, 938, 937, 18, 169
4988, 938, 18, 177, 169
4989, 18, 162, 938, 163
4990, 938, 18, 163, 19
4991, 19, 163, 938, 939
4992, 938, 18, 19, 177
4993, 939, 938, 19, 177
4994, 939, 19, 185, 177
4995, 19, 163, 939, 164
4996, 939, 19, 164, 20
4997, 20, 164, 939, 940
4998, 939, 19, 20, 185
4999, 940, 939, 20, 185
5000, 940, 20, 193, 185
5001, 20, 164, 940, 165
5002, 940, 20, 165, 21
5003, 21, 165, 940, 941
5004, 940, 20, 21, 193
5005, 941, 940, 21, 193
5006, 941, 21, 201, 193
5007, 21, 165, 941, 166
5008, 941, 21, 166, 22
5009, 22, 166, 941, 942
5010, 941, 21, 22, 201
5011, 942, 941, 22, 201
5012, 942, 22, 209, 201
5013, 22, 166, 942, 167
5014, 942, 22, 167, 23
5015, 23, 167, 942, 943
5016, 942, 22, 23, 209
5017, 943, 942, 23, 209
5018, 943, 23, 217, 209
5019, 23, 167, 943, 168
5020, 943, 23, 168, 24
5021, 24, 168, 943, 944
5022, 943, 23, 24, 217
5023, 944, 943, 24, 217
5024, 944, 24, 225, 217
5025, 24, 168, 944, 40
5026, 944, 24, 40, 2
5027, 2, 40, 944, 488
5028, 944, 24, 2, 225
5029, 488, 944, 2, 225
5030, 488, 2, 81, 225
5031, 97, 417, 418, 937
5032, 418, 97, 937, 169
5033, 169, 937, 418, 945
5034, 418, 97, 169, 98
5035, 945, 418, 169, 98
5036, 945, 169, 170, 98
5037, 169, 937, 945, 938
5038, 945, 169, 938, 177
5039, 177, 938, 945, 946
5040, 945, 169, 177, 170
5041, 946, 945, 177, 170
5042, 946, 177, 178, 170
5043, 177, 938, 946, 939
5044, 946, 177, 939, 185
5045, 185, 939, 946, 947
5046, 946, 177, 185, 178
5047, 947, 946, 185, 178
5048, 947, 185, 186, 178
5049, 185, 939, 947, 940
5050, 947, 185, 940, 193
5051, 193, 940, 947, 948
5052, 947, 185, 193, 186
5053, 948, 947, 193, 186
5054, 948, 193, 194, 186
5055, 193, 940, 948, 941
5056, 948, 193, 941, 201
5057, 201, 941, 948, 949
5058, 948, 193, 201, 194
5059, 949, 948, 201, 194
5060, 949, 201, 202, 194
5061, 201, 941, 949, 942
5062, 949, 201, 942, 209
5063, 209, 942, 949, 950
5064, 949, 201, 209, 202
5065, 950, 949, 209, 202
5066, 950, 209, 210, 202
5067, 209, 942, 950, 943
5068, 950, 209, 943, 217
5069, 217, 943, 950, 951
5070, 950, 209, 217, 210
5071, 951, 950, 217, 210
5072, 951, 217, 218, 210
5073, 217, 943, 951, 944
5074, 951, 217, 944, 225
5075, 225, 944, 951, 952
5076, 951, 217, 225, 218
5077, 952, 951, 225, 218
5078, 952, 225, 226, 218
5079, 225, 944, 952, 488
5080, 952, 225, 488, 81
5081, 81, 488, 952, 487
5082, 952, 225, 81, 226
5083, 487, 952, 81, 226
5084, 487, 81, 82, 226
5085, 98, 418, 419, 945
5086, 419, 98, 945, 170
5087, 170, 945, 419, 953
5088, 419, 98, 170, 99
5089, 953, 419, 170, 99
5090, 953, 170, 171, 99
5091, 170, 945, 953, 946
5092, 953, 170, 946, 178
5093, 178, 946, 953, 954
5094, 953, 170, 178, 171
5095, 954, 953, 178, 171
5096, 954, 178, 179, 171
5097, 178, 946, 954, 947
5098, 954, 178, 947, 186
5099, 186, 947, 954, 955
5100, 954, 178, 186, 179
5101, 955, 954, 186, 179
5102, 955, 186, 187, 179
5103, 186, 947, 955, 948
5104, 955, 186, 948, 194
5105, 194, 948, 955, 956
5106, 955, 186, 194, 187
5107, 956, 955, 194, 187
5108, 956, 194, 195, 187
5109, 194, 948, 956, 949
5110, 956, 194, 949, 202
5111, 202, 949, 956, 957
5112, 956, 194, 202, 195
5113, 957, 956, 202, 195
5114, 957, 202, 203, 195
5115, 202, 949, 957, 950
5116, 957, 202, 950, 210
5117, 210, 950, 957, 958
5118, 957, 202, 210, 203
5119, 958, 957, 210, 203
5120, 958, 210, 211, 203
5121, 210, 950, 958, 951
5122, 958, 210, 951, 218
5123, 218, 951, 958, 959
5124, 958, 210, 218, 211
5125, 959, 958, 218, 211
5126, 959, 218, 219, 211
5127, 218, 951, 959, 952
5128, 959, 218, 952, 226
5129, 226, 952, 959, 960
5130, 959, 218, 226, 219
5131, 960, 959, 226, 219
5132, 960, 226, 227, 219
5133, 226, 952, 960, 487
5134, 960, 226, 487, 82
5135, 82, 487, 960, 486
5136, 960, 226, 82, 227
5137, 486, 960, 82, 227
5138, 486, 82, 83, 227
5139, 99, 419, 420, 953
5140, 420, 99, 953, 171
5141, 171, 953, 420, 961
5142, 420, 99, 171, 100
5143, 961, 420, 171, 100
5144, 961, 171, 172, 100
5145, 171, 953, 961, 954
5146, 961, 171, 954, 179
5147, 179, 954, 961, 962
5148, 961, 171, 179, 172
5149, 962, 961, 179, 172
5150, 962, 179, 180, 172
5151, 179, 954, 962, 955
5152, 962, 179, 955, 187
5153, 187, 955, 962, 963
5154, 962, 179, 187, 180
5155, 963, 962, 187, 180
5156, 963, 187, 188, 180
5157, 187, 955, 963, 956
5158, 963, 187, 956, 195
5159, 195, 956, 963, 964
5160, 963, 187, 195, 188
5161, 964, 963, 195, 188
5162, 964, 195, 196, 188
5163, 195, 956, 964, 957
5164, 964, 195, 957, 203
5165, 203, 957, 964, 965
5166, 964, 195, 203, 196
5167, 965, 964, 203, 196
5168, 965, 203, 204, 196
5169, 203, 957, 965, 958
5170, 965, 203, 958, 211
5171, 211, 958, 965, 966
5172, 965, 203, 211, 204
5173, 966, 965, 211, 204
5174, 966, 211, 212, 204
5175, 211, 958, 966, 959
5176, 966, 211, 959, 219
5177, 219, 959, 966, 967
5178, 966, 211, 219, 212
5179, 967, 966, 219, 212
5180, 967, 219, 220, 212
5181, 219, 959, 967, 960
5182, 967, 219, 960, 227
5183, 227, 960, 967, 968
5184, 967, 219, 227, 220
5185, 968, 967, 227, 220
5186, 968, 227, 228, 220
5187, 227, 960, 968, 486
5188, 968, 227, 486, 83
5189, 83, 486, 968, 485
5190, 968, 227, 83, 228
5191, 485, 968, 83, 228
5192, 485, 83, 84, 228
5193, 100, 420, 421, 961
5194, 421, 100, 961, 172
5195, 172, 961, 421, 969
5196, 421, 100, 172, 101
5197, 969, 421, 172, 101
5198, 969, 172, 173, 101
5199, 172, 961, 969, 962
5200, 969, 172, 962, 180
5201, 180, 962, 969, 970
5202, 969, 172, 180, 173
5203, 970, 969, 180, 173
5204, 970, 180, 181, 173
5205, 180, 962, 970, 963
5206, 970, 180, 963, 188
5207, 188, 963, 970, 971
5208, 970, 180, 188, 181
5209, 971, 970, 188, 181
5210, 971, 188, 189, 181
5211, 188, 963, 971, 964
5212, 971, 188, 964, 196
5213, 196, 964, 971, 972
5214, 971, 188, 196, 189
5215, 972, 971, 196, 189
5216, 972, 196, 197, 189
5217, 196, 964, 972, 965
5218, 972, 196, 965, 204
5219, 204, 965, 972, 973
5220, 972, 196, 204, 197
5221, 973, 972, 204, 197
5222, 973, 204, 205, 197
5223, 204, 965, 973, 966
5224, 973, 204, 966, 212
5225, 212, 966, 973, 974
5226, 973, 204, 212, 205
5227, 974, 973, 212, 205
5228, 974, 212, 213, 205
5229, 212, 966, 974, 967
5230, 974, 212, 967, 220
5231, 220, 967, 974, 975
5232, 974, 212, 220, 213
5233, 975, 974, 220, 213
5234, 975, 220, 221, 213
5235, 220, 967, 975, 968
5236, 975, 220, 968, 228
5237, 228, 968, 975, 976
5238, 975, 220, 228, 221
5239, 976, 975, 228, 221
5240, 976, 228, 229, 221
5241, 228, 968, 976, 485
5242, 976, 228, 485, 84
5243, 84, 485, 976, 484
5244, 976, 228, 84, 229
5245, 484, 976, 84, 229
5246, 484, 84, 85, 229
5247, 101, 421, 422, 969
5248, 422, 101, 969, 173
5249, 173, 969, 422, 977
5250, 422, 101, 173, 102
5251, 977, 422, 173, 102
5252, 977, 173, 174, 102
5253, 173, 969, 977, 970
5254, 977, 173, 970, 181
5255, 181, 970, 977, 978
5256, 977, 173, 181, 174
5257, 978, 977, 181, 174
5258, 978, 181, 182, 174
5259, 181, 970, 978, 971
5260, 978, 181, 971, 189
5261, 189, 971, 978, 979
5262, 978, 181, 189, 182
5263, 979, 978, 189, 182
5264, 979, 189, 190, 182
5265, 189, 971, 979, 972
5266, 979, 189, 972, 197
5267, 197, 972, 979, 980
5268, 979, 189, 197, 190
5269, 980, 979, 197, 190
5270, 980, 197, 198, 190
5271, 197, 972, 980, 973
5272, 980, 197, 973, 205
5273, 205, 973, 980, 981
5274, 980, 197, 205, 198
5275, 981, 980, 205, 198
5276, 981, 205, 206, 198
5277, 205, 973, 981, 974
5278, 981, 205, 974, 213
5279, 213, 974, 981, 982
5280, 981, 205, 213, 206
5281, 982, 981, 213, 206
5282, 982, 213, 214, 206
5283, 213, 974, 982, 975
5284, 982, 213, 975, 221
5285, 221, 975, 982, 983
5286, 982, 213, 221, 214
5287, 983, 982, 221, 214
5288, 983, 221, 222, 214
5289, 221, 975, 983, 976
5290, 983, 221, 976, 229
5291, 229, 976, 983, 984
5292, 983, 221, 229, 222
5293, 984, 983, 229, 222
5294, 984, 229, 230, 222
5295, 229, 976, 984, 484
5296, 984, 229, 484, 85
5297, 85, 484, 984, 483
5298, 984, 229, 85, 230
5299, 483, 984, 85, 230
5300, 483, 85, 86, 230
5301, 102, 422, 423, 977
5302, 423, 102, 977, 174
5303, 174, 977, 423, 985
5304, 423, 102, 174, 103
5305, 985, 423, 174, 103
5306, 985, 174, 175, 103
5307, 174, 977, 985, 978
5308, 985, 174, 978, 182
5309, 182, 978, 985, 986
5310, 985, 174, 182, 175
5311, 986, 985, 182, 175
5312, 986, 182, 183, 175
5313, 182, 978, 986, 979
5314, 986, 182, 979, 190
5315, 190, 979, 986, 987
5316, 986, 182, 190, 183
5317, 987, 986, 190, 183
5318, 987, 190, 191, 183
5319, 190, 979, 987, 980
5320, 987, 190, 980, 198
5321, 198, 980, 987, 988
5322, 987, 190, 198, 191
5323, 988, 987, 198, 191
5324, 988, 198, 199, 191
5325, 198, 980, 988, 981
5326, 988, 198, 981, 206
5327, 206, 981, 988, 989
5328, 988, 198, 206, 199
5329, 989, 988, 206, 199
5330, 989, 206, 207, 199
5331, 206, 981, 989, 982
5332, 989, 206, 982, 214
5333, 214, 982, 989, 990
5334, 989, 206, 214, 207
5335, 990, 989, 214, 207
5336, 990, 214, 215, 207
5337, 214, 982, 990, 983
5338, 990, 214, 983, 222
5339, 222, 983, 990, 991
5340, 990, 214, 222, 215
5341, 991, 990, 222, 215
5342, 991, 222, 223, 215
5343, 222, 983, 991, 984
5344, 991, 222, 984, 230
5345, 230, 984, 991, 992
5346, 991, 222, 230, 223
5347, 992, 991, 230, 223
5348, 992, 230, 231, 223
5349, 230, 984, 992, 483
5350, 992, 230, 483, 86
5351, 86, 483, 992, 482
5352, 992, 230, 86, 231
5353, 482, 992, 86, 231
5354, 482, 86, 87, 231
5355, 103, 423, 424, 985
5356, 424, 103, 985, 175
5357, 175, 985, 424, 993
5358, 424, 103, 175, 104
5359, 993, 424, 175, 104
5360, 993, 175, 176, 104
5361, 175, 985, 993, 986
5362, 993, 175, 986, 183
5363, 183, 986, 993, 994
5364, 993, 175, 183, 176
5365, 994, 993, 183, 176
5366, 994, 183, 184, 176
5367, 183, 986, 994, 987
5368, 994, 183, 987, 191
5369, 191, 987, 994, 995
5370, 994, 183, 191, 184
5371, 995, 994, 191, 184
5372, 995, 191, 192, 184
5373, 191, 987, 995, 988
5374, 995, 191, 988, 199
5375, 199, 988, 995, 996
5376, 995, 191, 199, 192
5377, 996, 995, 199, 192
5378, 996, 199, 200, 192
5379, 199, 988, 996, 989
5380, 996, 199, 989, 207
5381, 207, 989, 996, 997
5382, 996, 199, 207, 200
5383, 997, 996, 207, 200
5384, 997, 207, 208, 200
5385, 207, 989, 997, 990
5386, 997, 207, 990, 215
5387, 215, 990, 997, 998
5388, 997, 207, 215, 208
5389, 998, 997, 215, 208
5390, 998, 215, 216, 208
5391, 215, 990, 998, 991
5392, 998, 215, 991, 223
5393, 223, 991, 998, 999
5394, 998, 215, 223, 216
5395, 999, 998, 223, 216
5396, 999, 223, 224, 216
5397, 223, 991, 999, 992
5398, 999, 223, 992, 231
5399, 231, 992, 999, 1000
5400, 999, 223, 231, 224
5401, 1000, 999, 231, 224
5402, 1000, 231, 232, 224
5403, 231, 992, 1000, 482
5404, 1000, 231, 482, 87
5405, 87, 482, 1000, 481
5406, 1000, 231, 87, 232
5407, 481, 1000, 87, 232
5408, 481, 87, 88, 232
5409, 104, 424, 48, 993
5410, 48, 104, 993, 176
5411, 176, 993, 48, 296
5412, 48, 104, 176, 7
5413, 296, 48, 176, 7
5414, 296, 176, 57, 7
5415, 176, 993, 296, 994
5416, 296, 176, 994, 184
5417, 184, 994, 296, 295
5418, 296, 176, 184, 57
5419, 295, 296, 184, 57
5420, 295, 184, 58, 57
5421, 184, 994, 295, 995
5422, 295, 184, 995, 192
5423, 192, 995, 295, 294
5424, 295, 184, 192, 58
5425, 294, 295, 192, 58
5426, 294, 192, 59, 58
5427, 192, 995, 294, 996
5428, 294, 192, 996, 200
5429, 200, 996, 294, 293
5430, 294, 192, 200, 59
5431, 293, 294, 200, 59
5432, 293, 200, 60, 59
5433, 200, 996, 293, 997
5434, 293, 200, 997, 208
5435, 208, 997, 293, 292
5436, 293, 200, 208, 60
5437, 292, 293, 208, 60
5438, 292, 208, 61, 60
5439, 208, 997, 292, 998
5440, 292, 208, 998, 216
5441, 216, 998, 292, 291
5442, 292, 208, 216, 61
5443, 291, 292, 216, 61
5444, 291, 216, 62, 61
5445, 216, 998, 291, 999
5446, 291, 216, 999, 224
5447, 224, 999, 291, 290
5448, 291, 216, 224, 62
5449, 290, 291, 224, 62
5450, 290, 224, 63, 62
5451, 224, 999, 290, 1000
5452, 290, 224, 1000, 232
5453, 232, 1000, 290, 289
5454, 290, 224, 232, 63
5455, 289, 290, 232, 63
5456, 289, 232, 64, 63
5457, 232, 1000, 289, 481
5458, 289, 232, 481, 88
5459, 88, 481, 289, 56
5460, 289, 232, 88, 64
5461, 56, 289, 88, 64
5462, 56, 88, 3, 64
