*Heading
 D:\Work_folder\Bizon\для Гоши ТО\Korpus
*NODE
1, 65.296428571429, 22.069237506048, 255.92374050163
2, 66.250062263535, 22.070127707482, 255.99999889742
3, 66.250002170985, 39.92987508632, 255.9999988978
4, 65.296428571429, 39.930762493866, 255.92374050163
5, 82.508758862525, 192.99820510203, 250
6, 82.500304563294, 193.48255158059, 305.50060917298
7, 82.176472033053, 212.03490481288, 250
8, 82.176472033053, 212.03490481288, 305.17677664274
9, 2.7755575615629e-14, 193, 250
10, 3.4106698453136e-14, 193, 275.93184761406
11, 25.931847614057, 193, 250
12, 80.176776642741, 214, 250
13, 80.176776642741, 214, 305.17677664274
14, 3.3950807862258e-14, 214, 307.67677664274
15, 16.830987767525, 214, 302.54706967522
16, 17.495048227797, 212.03490481288, 304.50460405192
17, 2.7755575615629e-14, 212.03490481288, 309.67647203342
18, 72.249999255535, 22.000304656087, 250
19, 72.25, 39.999695343912, 250
20, 30.92880175669, 188.17449748351, 250
21, 2.7755575615629e-14, 188.17449748351, 280.92880175669
22, 2.7755575615629e-14, 214, 250
23, 32.512067768783, 214, 294.58073720881
24, 66.003517336636, 214, 303.41385545432
25, 68.736286080114, 214, 305.17677664274
26, 2.7755575615629e-14, 193.5, 310
27, 17.638050116006, 193.5, 304.79742090579
28, 3.6944796663339e-14, -0.56979899340505, 287.5198978193
29, 37.519897819305, -0.56979899340505, 250
30, 2.7755575615629e-14, -2.5, 310
31, 17.638034756719, -2.5, 304.79743083004
32, 18.094092539698, -2.5, 304.57887700535
33, 57.5, -2.5, 250
34, 57.5, 17.999695343912, 250
35, 56.205152668755, 18.218859710666, 262.13387049251
36, 56.205152668755, 43.781140289334, 262.13387049251
37, 57.5, 44.000304656088, 250
38, 57.5, 162.43709494868, 250
39, 57.241131669613, 162.36873724691, 255.45003166798
40, 56.762357744291, 169.45313741411, 259.18067226891
41, 56.762357744291, 191.16841419444, 259.18067226891
42, 18.094092569575, 191.49085339258, 304.57887709548
43, 39.518679473343, -2.5, 250
44, 2.7755575615629e-14, -2.5, 289.51867947334
45, 80.500304609688, 193.5, 307.5
46, 80.176776642741, 212.03490481288, 307.17647203305
47, 68.526624071747, 193.5, 307.5
48, 68.736286080115, 212.03490481288, 307.17647203305
49, 17.954387670645, 212.03490481288, 304.28433399719
50, 76.159986421193, 192.99820510203, 250
51, 74.431631241034, 192.00586623367, 250
52, 74.234809973091, 192.0544731331, 255.56979899341
53, 75.961315393352, 193.04726881741, 255.62214491581
54, 71.352973741201, 191.08103418927, 257.5
55, 71.352973741201, 193.0809580354, 259.482546929
56, 64.960108060976, 191.08103418927, 257.5
57, 64.993089444909, 193.0809580354, 259.482546929
58, 64.99979049859, 193.4872962616, 306.04429576539
59, 63.954993162942, 193.49999840517, 304.52377325175
60, 64.18167150755, 212.03490480646, 304.2382700524
61, 58.751806055025, 193.16828099404, 259.48254692707
62, 58.736700622353, 191.16841419444, 257.5
63, 65.614285708708, 41.930457883571, 253.98406518193
64, 70.249847703855, 42, 250
65, 70.249847703856, 20, 250
66, 65.614285714286, 20.069542115824, 253.98406514729
67, 33.690357549422, 212.03490481288, 296.19641503773
68, 18.094056926735, 193.50000004166, 304.57888881117
69, 57.505622133518, 163.37586540812, 255.56979899341
70, 57.773453639393, 163.44899034514, 250
71, 58.736700622353, 169.45313741411, 257.5
72, 40.898908907489, 193.49999876591, 293.19341113356
73, 33.897876577539, 191.85829518399, 296.48096634196
74, 18.420301612068, 191.83200236498, 304.50038148145
75, 59.282037786575, 20.088205899349, 255.05331258929
76, 59.499989748557, 20, 250
77, 60.230630494089, 39.912098711045, 256.77913847796
78, 59.282037786574, 41.911794100651, 255.05331258929
79, 60.230630494098, 22.087901290157, 256.77913847795
80, 59.499989748557, 42, 250
81, 65.77172290383, 22.069904445785, 255.980907207
82, 66.25, 25.046752270622, 256
83, 66.25, 28.023376833761, 256
84, 66.25, 31.000001396901, 256
85, 66.25, 33.976625960041, 256
86, 66.25, 36.95325052318, 256
87, 65.771692742873, 39.930097550962, 255.98090507896
88, 65.296428571429, 36.953841662563, 255.92374050163
89, 65.296428571429, 33.97692083126, 255.92374050163
90, 65.296428571429, 30.999999999957, 255.92374050163
91, 65.296428571429, 28.023079168654, 255.92374050163
92, 65.296428571429, 25.046158337351, 255.92374050163
93, 82.508313899407, 193.02369702196, 252.92108469331
94, 82.50786893629, 193.04918894188, 255.84216938663
95, 82.507423973172, 193.0746808618, 258.76325407994
96, 82.506979010055, 193.10017278173, 261.68433877326
97, 82.506534046938, 193.12566470165, 264.60542346657
98, 82.50608908382, 193.15115662158, 267.52650815989
99, 82.505644120703, 193.1766485415, 270.4475928532
100, 82.505199157585, 193.20214046142, 273.36867754652
101, 82.504754194468, 193.22763238135, 276.28976223983
102, 82.504309231351, 193.25312430127, 279.21084693315
103, 82.503864268233, 193.2786162212, 282.13193162646
104, 82.503419305116, 193.30410814112, 285.05301631978
105, 82.502974341998, 193.32960006105, 287.97410101309
106, 82.502529378881, 193.35509198097, 290.89518570641
107, 82.502084415764, 193.38058390089, 293.81627039972
108, 82.501639452646, 193.40607582082, 296.73735509304
109, 82.501194489529, 193.43156774074, 299.65843978635
110, 82.500749526411, 193.45705966067, 302.57952447967
111, 82.461289315457, 195.71773363215, 250
112, 82.41381976839, 198.43726216227, 250
113, 82.366350221323, 201.15679069239, 250
114, 82.318880674255, 203.87631922251, 250
115, 82.271411127188, 206.59584775263, 250
116, 82.22394158012, 209.31537628275, 250
117, 82.176472033053, 212.03490481288, 302.27273576681
118, 82.176472033053, 212.03490481288, 299.36869489087
119, 82.176472033053, 212.03490481288, 296.46465401494
120, 82.176472033053, 212.03490481288, 293.56061313901
121, 82.176472033053, 212.03490481288, 290.65657226307
122, 82.176472033053, 212.03490481288, 287.75253138714
123, 82.176472033053, 212.03490481288, 284.8484905112
124, 82.176472033053, 212.03490481288, 281.94444963527
125, 82.176472033053, 212.03490481288, 279.04040875934
126, 82.176472033053, 212.03490481288, 276.1363678834
127, 82.176472033053, 212.03490481288, 273.23232700747
128, 82.176472033053, 212.03490481288, 270.32828613154
129, 82.176472033053, 212.03490481288, 267.4242452556
130, 82.176472033053, 212.03490481288, 264.52020437967
131, 82.176472033053, 212.03490481288, 261.61616350373
132, 82.176472033053, 212.03490481288, 258.7121226278
133, 82.176472033053, 212.03490481288, 255.80808175187
134, 82.176472033053, 212.03490481288, 252.90404087593
135, 82.222733823087, 209.38456863683, 305.22303843277
136, 82.268995613122, 206.73423246079, 305.26930022281
137, 82.315257403156, 204.08389628475, 305.31556201284
138, 82.361519193191, 201.43356010871, 305.36182380288
139, 82.407780983225, 198.78322393267, 305.40808559291
140, 82.454042773259, 196.13288775663, 305.45434738295
141, 2.7755575615629e-14, 193, 252.88131640156
142, 2.7755575615629e-14, 193, 255.76263280312
143, 2.7755575615629e-14, 193, 258.64394920469
144, 2.7755575615629e-14, 193, 261.52526560625
145, 2.7755575615629e-14, 193, 264.40658200781
146, 2.7755575615629e-14, 193, 267.28789840937
147, 2.7755575615629e-14, 193, 270.16921481093
148, 2.7755575615629e-14, 193, 273.0505312125
149, 23.050531212495, 193, 250
150, 20.169214810933, 193, 250
151, 17.287898409372, 193, 250
152, 14.40658200781, 193, 250
153, 11.525265606248, 193, 250
154, 8.6439492046858, 193, 250
155, 5.7626328031239, 193, 250
156, 2.881316401562, 193, 250
157, 25.76898874726, 193, 252.90347040153
158, 25.280983526595, 193, 255.77024829781
159, 24.47674525845, 193, 258.56483389736
160, 23.363599628147, 193, 261.25141069467
161, 21.957113820379, 193, 263.79666296106
162, 20.273399082369, 193, 266.16768497369
163, 18.336419881695, 193, 268.33675070659
164, 16.168282305629, 193, 270.27475170171
165, 13.796475302743, 193, 271.95739368802
166, 11.251953767392, 193, 273.36516269127
167, 8.5649263792499, 193, 274.47733866289
168, 5.7703791215655, 193, 275.28182003128
169, 2.9035121043958, 193, 275.76940131381
170, 81.57859517134, 213.42650089831, 250
171, 80.176776642741, 214, 302.27273576681
172, 80.176776642741, 214, 299.36869489087
173, 80.176776642741, 214, 296.46465401494
174, 80.176776642741, 214, 293.56061313901
175, 80.176776642741, 214, 290.65657226307
176, 80.176776642741, 214, 287.75253138714
177, 80.176776642741, 214, 284.8484905112
178, 80.176776642741, 214, 281.94444963527
179, 80.176776642741, 214, 279.04040875934
180, 80.176776642741, 214, 276.1363678834
181, 80.176776642741, 214, 273.23232700747
182, 80.176776642741, 214, 270.32828613154
183, 80.176776642741, 214, 267.4242452556
184, 80.176776642741, 214, 264.52020437967
185, 80.176776642741, 214, 261.61616350373
186, 80.176776642741, 214, 258.7121226278
187, 80.176776642741, 214, 255.80808175187
188, 80.176776642741, 214, 252.90404087593
189, 81.57859517134, 213.42650089831, 305.17677664274
190, 2.9706649578174, 214, 307.52724838151
191, 5.9126395162766, 214, 307.08858070772
192, 8.7979159867799, 214, 306.36576931848
193, 11.596607482175, 214, 305.35841565596
194, 14.28344075936, 214, 304.08243241774
195, 17.288440128412, 213.43898329475, 303.91038114211
196, 15.220861748192, 212.03490481288, 305.84873401294
197, 12.844079065298, 212.03490481288, 307.00177936088
198, 10.380720880396, 212.03490481288, 307.95596799475
199, 7.8473914568508, 212.03490481288, 308.70486820701
200, 5.2611666990914, 212.03490481288, 309.24343203654
201, 2.6394790524937, 212.03490481288, 309.56802929438
202, 3.3183848273855e-14, 213.42650089646, 309.07859517328
203, 68.546143622896, 22.063502040273, 255.54315422838
204, 70.492533823857, 22.047681548909, 254.24239163916
205, 71.793286815801, 22.026042762294, 252.29599637011
206, 72.25, 25.000203104058, 250
207, 72.25, 28.000101552029, 250
208, 72.25, 31, 250
209, 72.25, 33.999898447971, 250
210, 72.25, 36.999796895941, 250
211, 71.793308543343, 39.973321982487, 252.2960241816
212, 70.492742314304, 39.950387491306, 254.2425478671
213, 68.546214307845, 39.935239726734, 255.54322960263
214, 30.796864933485, 188.17449748351, 252.85374979756
215, 30.402180124874, 188.17449748351, 255.68315240805
216, 29.748114634944, 188.17449748351, 258.46406836602
217, 28.840248719838, 188.17449748351, 261.17277187704
218, 27.68632797144, 188.17449748351, 263.78615323781
219, 26.296197234714, 188.17449748351, 266.28191600001
220, 24.681716614959, 188.17449748351, 268.63876719575
221, 22.856660291574, 188.17449748351, 270.83659900161
222, 20.836599001612, 188.17449748351, 272.85666029157
223, 18.638767195747, 188.17449748351, 274.68171661496
224, 16.281916000011, 188.17449748351, 276.29619723471
225, 13.786153237806, 188.17449748351, 277.68632797144
226, 11.172771877036, 188.17449748351, 278.84024871984
227, 8.4640683660198, 188.17449748351, 279.74811463494
228, 5.6831524080511, 188.17449748351, 280.40218012487
229, 2.8537497975601, 188.17449748351, 280.79686493349
230, 3.2670687060184e-14, 190.60008061456, 280.2026298397
231, 3.4364156902887e-14, 192.35892207148, 278.38129620025
232, 28.381296200253, 192.35892207148, 250
233, 30.202629839703, 190.60008061456, 250
234, 77.207266396713, 214, 250
235, 74.237756150686, 214, 250
236, 71.268245904658, 214, 250
237, 68.298735658631, 214, 250
238, 65.329225412603, 214, 250
239, 62.359715166576, 214, 250
240, 59.390204920549, 214, 250
241, 56.420694674521, 214, 250
242, 53.451184428494, 214, 250
243, 50.481674182466, 214, 250
244, 47.512163936439, 214, 250
245, 44.542653690411, 214, 250
246, 41.573143444384, 214, 250
247, 38.603633198357, 214, 250
248, 35.634122952329, 214, 250
249, 32.664612706302, 214, 250
250, 29.695102460274, 214, 250
251, 26.725592214247, 214, 250
252, 23.756081968219, 214, 250
253, 20.786571722192, 214, 250
254, 17.817061476165, 214, 250
255, 14.847551230137, 214, 250
256, 11.87804098411, 214, 250
257, 8.9085307380823, 214, 250
258, 5.9390204920549, 214, 250
259, 2.9695102460274, 214, 250
260, 2.7755575615629e-14, 214, 252.88383883214
261, 2.7755575615629e-14, 214, 255.76767766427
262, 2.7755575615629e-14, 214, 258.65151649641
263, 2.7755575615629e-14, 214, 261.53535532855
264, 2.7755575615629e-14, 214, 264.41919416069
265, 2.7755575615629e-14, 214, 267.30303299282
266, 2.7755575615629e-14, 214, 270.18687182496
267, 2.7755575615629e-14, 214, 273.0707106571
268, 2.7755575615629e-14, 214, 275.95454948923
269, 2.7755575615629e-14, 214, 278.83838832137
270, 2.7755575615629e-14, 214, 281.72222715351
271, 2.7755575615629e-14, 214, 284.60606598564
272, 2.7755575615629e-14, 214, 287.48990481778
273, 2.7755575615629e-14, 214, 290.37374364992
274, 2.7755575615629e-14, 214, 293.25758248205
275, 2.7755575615629e-14, 214, 296.14142131419
276, 2.7755575615629e-14, 214, 299.02526014633
277, 2.7755575615629e-14, 214, 301.90909897847
278, 2.7755575615629e-14, 214, 304.7929378106
279, 19.609385028526, 214, 301.57469151017
280, 22.33197068856, 214, 300.45552328555
281, 24.990996296582, 214, 299.19275134338
282, 27.578894582099, 214, 297.78997102674
283, 30.088299300224, 214, 296.25117339412
284, 34.898612079136, 214, 293.06029808051
285, 37.459712898031, 214, 291.85679728043
286, 40.151981507567, 214, 290.98549395822
287, 42.932944522429, 214, 290.4624829471
288, 45.757877734943, 214, 290.29722374868
289, 48.581269944312, 214, 290.48741114159
290, 51.358128838907, 214, 291.03181766479
291, 54.042329924378, 214, 291.92757588378
292, 56.592312922333, 214, 293.15448270954
293, 58.968358356376, 214, 294.69135268882
294, 61.129271937189, 214, 296.51825711378
295, 63.039959382896, 214, 298.60555910943
296, 64.673848277469, 214, 300.91599522228
297, 67.115520445425, 214, 304.68967670354
298, 71.596408720771, 214, 305.17677664274
299, 74.456531361427, 214, 305.17677664274
300, 77.316654002084, 214, 305.17677664274
301, 2.7755575615629e-14, 209.38706126818, 309.72269031436
302, 2.7755575615629e-14, 206.73921772348, 309.7689085953
303, 2.7755575615629e-14, 204.09137417879, 309.81512687624
304, 2.7755575615629e-14, 201.44353063409, 309.86134515718
305, 2.7755575615629e-14, 198.79568708939, 309.90756343812
306, 2.7755575615629e-14, 196.1478435447, 309.95378171906
307, 15.344297597584, 193.5, 306.14965150289
308, 12.947550112206, 193.5, 307.30957809315
309, 10.463895260247, 193.5, 308.26941494378
310, 7.9100039872377, 193.5, 309.02271937701
311, 5.3030186840665, 193.5, 309.56443501508
312, 2.6604381227368, 193.5, 309.89092571995
313, 17.617666429476, 196.14784348564, 304.75556415458
314, 17.597267240108, 198.79568699215, 304.71371627748
315, 17.576852818675, 201.44353051882, 304.67187710445
316, 17.556423435953, 204.09137406493, 304.63004646542
317, 17.535979362716, 206.73921762978, 304.58822419036
318, 17.515520869739, 209.38706121266, 304.54641010921
319, 2.9437772547039, -0.56979899340501, 287.40423649596
320, 5.8694051437272, -0.56979899340501, 287.05796561645
321, 8.7588461982641, -0.56979899340501, 286.48322005589
322, 11.594286053377, -0.56979899340501, 285.68354331178
323, 14.358243279479, -0.56979899340501, 284.66386565717
324, 17.033677161163, -0.56979899340501, 283.43047374388
325, 19.604092758876, -0.56979899340501, 281.9909718432
326, 22.053642605708, -0.56979899340501, 280.35423496303
327, 24.367224412296, -0.56979899340501, 278.5303541305
328, 26.530574177457, -0.56979899340501, 276.53057417746
329, 28.530354130503, -0.56979899340501, 274.3672244123
330, 30.35423496303, -0.56979899340501, 272.05364260571
331, 31.990971843201, -0.56979899340501, 269.60409275888
332, 33.430473743882, -0.56979899340501, 267.03367716116
333, 34.663865657171, -0.56979899340501, 264.35824327948
334, 35.683543311779, -0.56979899340501, 261.59428605338
335, 36.483220055887, -0.56979899340501, 258.75884619826
336, 37.057965616449, -0.56979899340501, 255.86940514373
337, 37.404236495961, -0.56979899340501, 252.9437772547
338, 37.415277246883, 2.4261422205141, 250
339, 37.31065667446, 5.4220834344335, 250
340, 37.206036102038, 8.4180246483529, 250
341, 37.101415529615, 11.413965862272, 250
342, 36.996794957193, 14.409907076192, 250
343, 36.892174384771, 17.405848290111, 250
344, 36.787553812348, 20.40178950403, 250
345, 36.682933239926, 23.39773071795, 250
346, 36.578312667503, 26.393671931869, 250
347, 36.473692095081, 29.389613145788, 250
348, 36.369071522658, 32.385554359708, 250
349, 36.264450950236, 35.381495573627, 250
350, 36.159830377813, 38.377436787546, 250
351, 36.055209805391, 41.373378001466, 250
352, 35.950589232968, 44.369319215385, 250
353, 35.845968660546, 47.365260429304, 250
354, 35.741348088124, 50.361201643224, 250
355, 35.636727515701, 53.357142857143, 250
356, 35.532106943279, 56.353084071062, 250
357, 35.427486370856, 59.349025284982, 250
358, 35.322865798434, 62.344966498901, 250
359, 35.218245226011, 65.34090771282, 250
360, 35.113624653589, 68.33684892674, 250
361, 35.009004081166, 71.332790140659, 250
362, 34.904383508744, 74.328731354578, 250
363, 34.799762936321, 77.324672568498, 250
364, 34.695142363899, 80.320613782417, 250
365, 34.590521791476, 83.316554996336, 250
366, 34.485901219054, 86.312496210256, 250
367, 34.381280646632, 89.308437424175, 250
368, 34.276660074209, 92.304378638094, 250
369, 34.172039501787, 95.300319852014, 250
370, 34.067418929364, 98.296261065933, 250
371, 33.962798356942, 101.29220227985, 250
372, 33.858177784519, 104.28814349377, 250
373, 33.753557212097, 107.28408470769, 250
374, 33.648936639674, 110.28002592161, 250
375, 33.544316067252, 113.27596713553, 250
376, 33.439695494829, 116.27190834945, 250
377, 33.335074922407, 119.26784956337, 250
378, 33.230454349984, 122.26379077729, 250
379, 33.125833777562, 125.25973199121, 250
380, 33.02121320514, 128.25567320513, 250
381, 32.916592632717, 131.25161441905, 250
382, 32.811972060295, 134.24755563297, 250
383, 32.707351487872, 137.24349684688, 250
384, 32.60273091545, 140.2394380608, 250
385, 32.498110343027, 143.23537927472, 250
386, 32.393489770605, 146.23132048864, 250
387, 32.288869198182, 149.22726170256, 250
388, 32.18424862576, 152.22320291648, 250
389, 32.079628053337, 155.2191441304, 250
390, 31.975007480915, 158.21508534432, 250
391, 31.870386908493, 161.21102655824, 250
392, 31.76576633607, 164.20696777216, 250
393, 31.661145763648, 167.20290898608, 250
394, 31.556525191225, 170.1988502, 250
395, 31.451904618803, 173.19479141392, 250
396, 31.34728404638, 176.19073262784, 250
397, 31.242663473958, 179.18667384176, 250
398, 31.138042901535, 182.18261505567, 250
399, 31.033422329113, 185.17855626959, 250
400, 2.7755575615629e-14, 185.17855626959, 281.03342232911
401, 2.7755575615629e-14, 182.18261505567, 281.13804290154
402, 2.7755575615629e-14, 179.18667384175, 281.24266347396
403, 2.7755575615629e-14, 176.19073262784, 281.34728404638
404, 2.7755575615629e-14, 173.19479141392, 281.4519046188
405, 2.7755575615629e-14, 170.1988502, 281.55652519123
406, 2.7755575615629e-14, 167.20290898608, 281.66114576365
407, 2.7755575615629e-14, 164.20696777216, 281.76576633607
408, 2.7755575615629e-14, 161.21102655824, 281.87038690849
409, 2.7755575615629e-14, 158.21508534432, 281.97500748092
410, 2.7755575615629e-14, 155.2191441304, 282.07962805334
411, 2.7755575615629e-14, 152.22320291648, 282.18424862576
412, 2.7755575615629e-14, 149.22726170256, 282.28886919818
413, 2.7755575615629e-14, 146.23132048864, 282.3934897706
414, 2.7755575615629e-14, 143.23537927472, 282.49811034303
415, 2.7755575615629e-14, 140.2394380608, 282.60273091545
416, 2.7755575615629e-14, 137.24349684688, 282.70735148787
417, 2.7755575615629e-14, 134.24755563296, 282.81197206029
418, 2.7755575615629e-14, 131.25161441905, 282.91659263272
419, 2.7755575615629e-14, 128.25567320513, 283.02121320514
420, 2.7755575615629e-14, 125.25973199121, 283.12583377756
421, 2.7755575615629e-14, 122.26379077729, 283.23045434998
422, 2.7755575615629e-14, 119.26784956337, 283.33507492241
423, 2.7755575615629e-14, 116.27190834945, 283.43969549483
424, 2.7755575615629e-14, 113.27596713553, 283.54431606725
425, 2.7755575615629e-14, 110.28002592161, 283.64893663967
426, 2.7755575615629e-14, 107.28408470769, 283.7535572121
427, 2.7755575615629e-14, 104.28814349377, 283.85817778452
428, 2.7755575615629e-14, 101.29220227985, 283.96279835694
429, 2.7755575615629e-14, 98.296261065933, 284.06741892936
430, 2.7755575615629e-14, 95.300319852013, 284.17203950179
431, 2.7755575615629e-14, 92.304378638094, 284.27666007421
432, 2.7755575615629e-14, 89.308437424175, 284.38128064663
433, 2.7755575615629e-14, 86.312496210256, 284.48590121905
434, 2.7755575615629e-14, 83.316554996336, 284.59052179148
435, 2.7755575615629e-14, 80.320613782417, 284.6951423639
436, 2.7755575615629e-14, 77.324672568497, 284.79976293632
437, 2.7755575615629e-14, 74.328731354578, 284.90438350874
438, 2.7755575615629e-14, 71.332790140659, 285.00900408117
439, 2.7755575615629e-14, 68.336848926739, 285.11362465359
440, 2.7755575615629e-14, 65.34090771282, 285.21824522601
441, 2.7755575615629e-14, 62.344966498901, 285.32286579843
442, 2.7755575615629e-14, 59.349025284982, 285.42748637086
443, 2.7755575615629e-14, 56.353084071062, 285.53210694328
444, 2.7755575615629e-14, 53.357142857143, 285.6367275157
445, 2.7755575615629e-14, 50.361201643223, 285.74134808812
446, 2.7755575615629e-14, 47.365260429304, 285.84596866055
447, 2.7755575615629e-14, 44.369319215385, 285.95058923297
448, 2.7755575615629e-14, 41.373378001465, 286.05520980539
449, 2.7755575615629e-14, 38.377436787546, 286.15983037781
450, 2.7755575615629e-14, 35.381495573627, 286.26445095024
451, 2.7755575615629e-14, 32.385554359707, 286.36907152266
452, 2.7755575615629e-14, 29.389613145788, 286.47369209508
453, 2.7755575615629e-14, 26.393671931869, 286.5783126675
454, 2.7755575615629e-14, 23.39773071795, 286.68293323993
455, 2.7755575615629e-14, 20.40178950403, 286.78755381235
456, 2.7755575615629e-14, 17.405848290111, 286.89217438477
457, 2.7755575615629e-14, 14.409907076192, 286.99679495719
458, 2.7755575615629e-14, 11.413965862272, 287.10141552962
459, 2.7755575615629e-14, 8.4180246483529, 287.20603610204
460, 2.7755575615629e-14, 5.4220834344335, 287.31065667446
461, 2.7755575615629e-14, 2.4261422205143, 287.41527724688
462, 2.7755575615629e-14, 190.5303030303, 310
463, 2.7755575615629e-14, 187.56060606061, 310
464, 2.7755575615629e-14, 184.59090909091, 310
465, 2.7755575615629e-14, 181.62121212121, 310
466, 2.7755575615629e-14, 178.65151515152, 310
467, 2.7755575615629e-14, 175.68181818182, 310
468, 2.7755575615629e-14, 172.71212121212, 310
469, 2.7755575615629e-14, 169.74242424242, 310
470, 2.7755575615629e-14, 166.77272727273, 310
471, 2.7755575615629e-14, 163.80303030303, 310
472, 2.7755575615629e-14, 160.83333333333, 310
473, 2.7755575615629e-14, 157.86363636364, 310
474, 2.7755575615629e-14, 154.89393939394, 310
475, 2.7755575615629e-14, 151.92424242424, 310
476, 2.7755575615629e-14, 148.95454545455, 310
477, 2.7755575615629e-14, 145.98484848485, 310
478, 2.7755575615629e-14, 143.01515151515, 310
479, 2.7755575615629e-14, 140.04545454545, 310
480, 2.7755575615629e-14, 137.07575757576, 310
481, 2.7755575615629e-14, 134.10606060606, 310
482, 2.7755575615629e-14, 131.13636363636, 310
483, 2.7755575615629e-14, 128.16666666667, 310
484, 2.7755575615629e-14, 125.19696969697, 310
485, 2.7755575615629e-14, 122.22727272727, 310
486, 2.7755575615629e-14, 119.25757575758, 310
487, 2.7755575615629e-14, 116.28787878788, 310
488, 2.7755575615629e-14, 113.31818181818, 310
489, 2.7755575615629e-14, 110.34848484849, 310
490, 2.7755575615629e-14, 107.37878787879, 310
491, 2.7755575615629e-14, 104.40909090909, 310
492, 2.7755575615629e-14, 101.43939393939, 310
493, 2.7755575615629e-14, 98.469696969697, 310
494, 2.7755575615629e-14, 95.5, 310
495, 2.7755575615629e-14, 92.530303030303, 310
496, 2.7755575615629e-14, 89.560606060606, 310
497, 2.7755575615629e-14, 86.590909090909, 310
498, 2.7755575615629e-14, 83.621212121212, 310
499, 2.7755575615629e-14, 80.651515151515, 310
500, 2.7755575615629e-14, 77.681818181818, 310
501, 2.7755575615629e-14, 74.712121212121, 310
502, 2.7755575615629e-14, 71.742424242424, 310
503, 2.7755575615629e-14, 68.772727272727, 310
504, 2.7755575615629e-14, 65.80303030303, 310
505, 2.7755575615629e-14, 62.833333333333, 310
506, 2.7755575615629e-14, 59.863636363636, 310
507, 2.7755575615629e-14, 56.89393939394, 310
508, 2.7755575615629e-14, 53.924242424243, 310
509, 2.7755575615629e-14, 50.954545454546, 310
510, 2.7755575615629e-14, 47.984848484849, 310
511, 2.7755575615629e-14, 45.015151515152, 310
512, 2.7755575615629e-14, 42.045454545455, 310
513, 2.7755575615629e-14, 39.075757575758, 310
514, 2.7755575615629e-14, 36.106060606061, 310
515, 2.7755575615629e-14, 33.136363636364, 310
516, 2.7755575615629e-14, 30.166666666667, 310
517, 2.7755575615629e-14, 27.19696969697, 310
518, 2.7755575615629e-14, 24.227272727273, 310
519, 2.7755575615629e-14, 21.257575757576, 310
520, 2.7755575615629e-14, 18.287878787879, 310
521, 2.7755575615629e-14, 15.318181818182, 310
522, 2.7755575615629e-14, 12.348484848485, 310
523, 2.7755575615629e-14, 9.3787878787879, 310
524, 2.7755575615629e-14, 6.4090909090909, 310
525, 2.7755575615629e-14, 3.4393939393939, 310
526, 2.7755575615629e-14, 0.46969696969694, 310
527, 2.6604355191378, -2.5, 309.89092593379
528, 5.3030135293554, -2.5, 309.5644358676
529, 7.909996385801, -2.5, 309.02272128444
530, 10.463885367202, -2.5, 308.26941830815
531, 12.94753813166, -2.5, 307.30958329681
532, 15.344283780342, -2.5, 306.14965890318
533, 17.638034756719, 0.46969696969697, 304.79743083004
534, 17.638034756719, 3.4393939393939, 304.79743083004
535, 17.638034756719, 6.4090909090909, 304.79743083004
536, 17.638034756719, 9.3787878787878, 304.79743083004
537, 17.638034756719, 12.348484848485, 304.79743083004
538, 17.638034756719, 15.318181818182, 304.79743083004
539, 17.638034756719, 18.287878787879, 304.79743083004
540, 17.638034756719, 21.257575757576, 304.79743083004
541, 17.638034756719, 24.227272727273, 304.79743083004
542, 17.638034756719, 27.19696969697, 304.79743083004
543, 17.638034756719, 30.166666666667, 304.79743083004
544, 17.638034756719, 33.136363636364, 304.79743083004
545, 17.638034756719, 36.106060606061, 304.79743083004
546, 17.638034756719, 39.075757575758, 304.79743083004
547, 17.638034756719, 42.045454545455, 304.79743083004
548, 17.638034756719, 45.015151515151, 304.79743083004
549, 17.638034756719, 47.984848484848, 304.79743083004
550, 17.638034756719, 50.954545454545, 304.79743083004
551, 17.638034756719, 53.924242424242, 304.79743083004
552, 17.638034756719, 56.893939393939, 304.79743083004
553, 17.638034756719, 59.863636363636, 304.79743083004
554, 17.638034756719, 62.833333333333, 304.79743083004
555, 17.638034756719, 65.80303030303, 304.79743083004
556, 17.638034756719, 68.772727272727, 304.79743083004
557, 17.638034756719, 71.742424242424, 304.79743083004
558, 17.638034756719, 74.712121212121, 304.79743083004
559, 17.638034756719, 77.681818181818, 304.79743083004
560, 17.638034756719, 80.651515151515, 304.79743083004
561, 17.638034756719, 83.621212121212, 304.79743083004
562, 17.638034756719, 86.590909090909, 304.79743083004
563, 17.638034756719, 89.560606060606, 304.79743083004
564, 17.638034756719, 92.530303030303, 304.79743083004
565, 17.638034756719, 95.5, 304.79743083004
566, 17.638034756719, 98.469696969697, 304.79743083004
567, 17.638034756719, 101.43939393939, 304.79743083004
568, 17.638034756719, 104.40909090909, 304.79743083004
569, 17.638034756719, 107.37878787879, 304.79743083004
570, 17.638034756719, 110.34848484848, 304.79743083004
571, 17.638034756719, 113.31818181818, 304.79743083004
572, 17.638034756719, 116.28787878788, 304.79743083004
573, 17.638034756719, 119.25757575758, 304.79743083004
574, 17.638034756719, 122.22727272727, 304.79743083004
575, 17.638034756719, 125.19696969697, 304.79743083004
576, 17.638034756719, 128.16666666667, 304.79743083004
577, 17.638034756719, 131.13636363636, 304.79743083004
578, 17.638034756719, 134.10606060606, 304.79743083004
579, 17.638034756719, 137.07575757576, 304.79743083004
580, 17.638034756719, 140.04545454545, 304.79743083004
581, 17.638034756719, 143.01515151515, 304.79743083004
582, 17.638034756719, 145.98484848485, 304.79743083004
583, 17.638034756719, 148.95454545455, 304.79743083004
584, 17.638034756719, 151.92424242424, 304.79743083004
585, 17.638034756719, 154.89393939394, 304.79743083004
586, 17.638034756719, 157.86363636364, 304.79743083004
587, 17.638034756719, 160.83333333333, 304.79743083004
588, 17.638034756719, 163.80303030303, 304.79743083004
589, 17.638034756719, 166.77272727273, 304.79743083004
590, 17.638034756719, 169.74242424242, 304.79743083004
591, 17.638034756719, 172.71212121212, 304.79743083004
592, 17.638034756719, 175.68181818182, 304.79743083004
593, 17.638034756719, 178.65151515152, 304.79743083004
594, 17.638034756719, 181.62121212121, 304.79743083004
595, 17.638034756719, 184.59090909091, 304.79743083004
596, 17.638034756719, 187.56060606061, 304.79743083004
597, 17.638034756719, 190.5303030303, 304.79743083004
598, 20.912432036067, -2.5, 303.5623019141
599, 23.673994319416, -2.5, 302.40030527549
600, 26.371281753419, -2.5, 301.09604190817
601, 28.996971207848, -2.5, 299.6530528847
602, 31.54393394085, -2.5, 298.07525591752
603, 34.005254953472, -2.5, 296.36693472238
604, 36.374251763867, -2.5, 294.53272738806
605, 38.644492550221, -2.5, 292.57761378396
606, 40.809813613137, -2.5, 290.50690203979
607, 42.864336110066, -2.5, 288.32621413397
608, 44.802482016355, -2.5, 286.04147063001
609, 46.61898926957, -2.5, 283.65887460216
610, 48.308926055991, -2.5, 281.18489479406
611, 49.867704200471, -2.5, 278.62624805619
612, 51.291091623325, -2.5, 275.98988110953
613, 52.575223830421, -2.5, 273.28295168532
614, 53.716614405269, -2.5, 270.51280909177
615, 54.712164474641, -2.5, 267.68697426073
616, 55.559171121999, -2.5, 264.81311932837
617, 56.255334725914, -2.5, 261.89904680533
618, 56.798765203532, -2.5, 258.95266839295
619, 57.187987142144, -2.5, 255.98198350298
620, 57.421943804931, -2.5, 252.99505753924
621, 57.5, 0.42852790627316, 250
622, 57.5, 3.3570558125463, 250
623, 57.5, 6.2855837188195, 250
624, 57.5, 9.2141116250927, 250
625, 57.5, 12.142639531366, 250
626, 57.5, 15.071167437639, 250
627, 57.448233381236, 18.04383923909, 252.44442859288
628, 57.292179526762, 18.087913797737, 254.88442801355
629, 57.032731409941, 18.131850205902, 257.31557377962
630, 56.670196060152, 18.175515396295, 259.73353720065
631, 56.205152671756, 21.059113108296, 262.13387049315
632, 56.205152671756, 23.899366505925, 262.13387049315
633, 56.205152671756, 26.739619903555, 262.13387049315
634, 56.205152671756, 29.579873301185, 262.13387049315
635, 56.205152671756, 32.420126698815, 262.13387049315
636, 56.205152671756, 35.260380096445, 262.13387049315
637, 56.205152671756, 38.100633494075, 262.13387049315
638, 56.205152671756, 40.940886891704, 262.13387049315
639, 56.670174087945, 43.824485998153, 259.73351784843
640, 57.032729396617, 43.86814962987, 257.31558456713
641, 57.292259020609, 43.912086091599, 254.88442246815
642, 57.44823352208, 43.956160737872, 252.44442958763
643, 57.5, 46.961224413402, 250
644, 57.5, 49.922144170717, 250
645, 57.5, 52.883063928032, 250
646, 57.5, 55.843983685347, 250
647, 57.5, 58.804903442661, 250
648, 57.5, 61.765823199976, 250
649, 57.5, 64.726742957291, 250
650, 57.5, 67.687662714606, 250
651, 57.5, 70.64858247192, 250
652, 57.5, 73.609502229235, 250
653, 57.5, 76.57042198655, 250
654, 57.5, 79.531341743865, 250
655, 57.5, 82.492261501179, 250
656, 57.5, 85.453181258494, 250
657, 57.5, 88.414101015809, 250
658, 57.5, 91.375020773124, 250
659, 57.5, 94.335940530438, 250
660, 57.5, 97.296860287753, 250
661, 57.5, 100.25778004507, 250
662, 57.5, 103.21869980238, 250
663, 57.5, 106.1796195597, 250
664, 57.5, 109.14053931701, 250
665, 57.5, 112.10145907433, 250
666, 57.5, 115.06237883164, 250
667, 57.5, 118.02329858896, 250
668, 57.5, 120.98421834627, 250
669, 57.5, 123.94513810359, 250
670, 57.5, 126.9060578609, 250
671, 57.5, 129.86697761822, 250
672, 57.5, 132.82789737553, 250
673, 57.5, 135.78881713285, 250
674, 57.5, 138.74973689016, 250
675, 57.5, 141.71065664747, 250
676, 57.5, 144.67157640479, 250
677, 57.5, 147.6324961621, 250
678, 57.5, 150.59341591942, 250
679, 57.5, 153.55433567673, 250
680, 57.5, 156.51525543405, 250
681, 57.5, 159.47617519136, 250
682, 57.435166145853, 162.51783461398, 252.72952227214
683, 56.963112746741, 163.79933400682, 257.83924672659
684, 56.808154970987, 166.52755414508, 258.892892254
685, 56.762357744291, 172.16754701165, 259.18067226891
686, 56.762357744291, 174.88195660919, 259.18067226891
687, 56.762357744291, 177.59636620673, 259.18067226891
688, 56.762357744291, 180.31077580427, 259.18067226891
689, 56.762357744291, 183.02518540181, 259.18067226891
690, 56.762357744291, 185.73959499936, 259.18067226891
691, 56.762357744291, 188.4540045969, 259.18067226891
692, 56.20939091528, 191.19883429771, 262.11400506728
693, 55.505005327263, 191.22941619972, 265.01470293258
694, 54.651041888572, 191.26015990871, 267.8749369421
695, 53.649775259855, 191.29106541164, 270.68699135337
696, 52.503915694135, 191.3221327296, 273.44328961956
697, 51.216543654881, 191.35270676119, 276.13640479047
698, 49.791152943758, 191.38124116897, 278.75911226492
699, 48.231603465031, 191.4076796321, 281.30435070535
700, 46.542023676148, 191.43203158622, 283.76521811326
701, 44.72700108251, 191.45430658804, 286.13509906561
702, 42.791438709613, 191.47440168494, 288.40761848882
703, 40.740539520909, 191.49154044453, 290.57664736866
704, 38.579778642871, 191.50524910004, 292.63626772305
705, 36.315053284586, 191.51506554293, 294.58102063747
706, 33.952438723487, 191.52040665083, 296.40562385447
707, 31.498302840768, 191.52067013511, 298.10512968121
708, 28.959066443869, 191.51812084958, 299.67465335204
709, 26.341828592312, 191.51384912745, 301.11033800091
710, 23.653792905656, 191.50787040445, 302.40863526747
711, 20.902137155579, 191.50019993876, 303.56599605468
712, 18.094092539698, 188.506378725, 304.57887700535
713, 18.094092539698, 185.52190405742, 304.57887700535
714, 18.094092539698, 182.53742938985, 304.57887700535
715, 18.094092539698, 179.55295472227, 304.57887700535
716, 18.094092539698, 176.56848005469, 304.57887700535
717, 18.094092539698, 173.58400538711, 304.57887700535
718, 18.094092539698, 170.59953071953, 304.57887700535
719, 18.094092539698, 167.61505605195, 304.57887700535
720, 18.094092539698, 164.63058138438, 304.57887700535
721, 18.094092539698, 161.6461067168, 304.57887700535
722, 18.094092539698, 158.66163204922, 304.57887700535
723, 18.094092539698, 155.67715738164, 304.57887700535
724, 18.094092539698, 152.69268271406, 304.57887700535
725, 18.094092539698, 149.70820804649, 304.57887700535
726, 18.094092539698, 146.72373337891, 304.57887700535
727, 18.094092539698, 143.73925871133, 304.57887700535
728, 18.094092539698, 140.75478404375, 304.57887700535
729, 18.094092539698, 137.77030937617, 304.57887700535
730, 18.094092539698, 134.7858347086, 304.57887700535
731, 18.094092539698, 131.80136004102, 304.57887700535
732, 18.094092539698, 128.81688537344, 304.57887700535
733, 18.094092539698, 125.83241070586, 304.57887700535
734, 18.094092539698, 122.84793603828, 304.57887700535
735, 18.094092539698, 119.8634613707, 304.57887700535
736, 18.094092539698, 116.87898670313, 304.57887700535
737, 18.094092539698, 113.89451203555, 304.57887700535
738, 18.094092539698, 110.91003736797, 304.57887700535
739, 18.094092539698, 107.92556270039, 304.57887700535
740, 18.094092539698, 104.94108803281, 304.57887700535
741, 18.094092539698, 101.95661336524, 304.57887700535
742, 18.094092539698, 98.972138697657, 304.57887700535
743, 18.094092539698, 95.987664030079, 304.57887700535
744, 18.094092539698, 93.003189362501, 304.57887700535
745, 18.094092539698, 90.018714694923, 304.57887700535
746, 18.094092539698, 87.034240027345, 304.57887700535
747, 18.094092539698, 84.049765359766, 304.57887700535
748, 18.094092539698, 81.065290692188, 304.57887700535
749, 18.094092539698, 78.08081602461, 304.57887700535
750, 18.094092539698, 75.096341357032, 304.57887700535
751, 18.094092539698, 72.111866689454, 304.57887700535
752, 18.094092539698, 69.127392021876, 304.57887700535
753, 18.094092539698, 66.142917354298, 304.57887700535
754, 18.094092539698, 63.158442686719, 304.57887700535
755, 18.094092539698, 60.173968019141, 304.57887700535
756, 18.094092539698, 57.189493351563, 304.57887700535
757, 18.094092539698, 54.205018683985, 304.57887700535
758, 18.094092539698, 51.220544016407, 304.57887700535
759, 18.094092539698, 48.236069348829, 304.57887700535
760, 18.094092539698, 45.25159468125, 304.57887700535
761, 18.094092539698, 42.267120013672, 304.57887700535
762, 18.094092539698, 39.282645346094, 304.57887700535
763, 18.094092539698, 36.298170678516, 304.57887700535
764, 18.094092539698, 33.313696010938, 304.57887700535
765, 18.094092539698, 30.32922134336, 304.57887700535
766, 18.094092539698, 27.344746675782, 304.57887700535
767, 18.094092539698, 24.360272008203, 304.57887700535
768, 18.094092539698, 21.375797340625, 304.57887700535
769, 18.094092539698, 18.391322673047, 304.57887700535
770, 18.094092539698, 15.406848005469, 304.57887700535
771, 18.094092539698, 12.422373337891, 304.57887700535
772, 18.094092539698, 9.4378986703126, 304.57887700535
773, 18.094092539698, 6.4534240027345, 304.57887700535
774, 18.094092539698, 3.4689493351563, 304.57887700535
775, 18.094092539698, 0.48447466757818, 304.57887700535
776, 39.408177225963, -2.5, 252.95323467471
777, 39.077288465091, -2.5, 255.88995361042
778, 38.527863625726, -2.5, 258.79373366405
779, 37.762975349719, -2.5, 261.6483355057
780, 36.786901257765, -2.5, 264.4377949552
781, 35.605099803104, -2.5, 267.14651262875
782, 34.22418013273, -2.5, 269.75934010941
783, 32.651865025442, -2.5, 272.2616652045
784, 30.896947489566, -2.5, 274.63949397094
785, 28.96924159656, -2.5, 276.87952880236
786, 26.879527189257, -2.5, 278.9692430933
787, 24.639492530719, -2.5, 280.8969486381
788, 22.26166339337, -2.5, 282.65186626025
789, 19.759319213896, -2.5, 284.22419219675
790, 17.146511464533, -2.5, 285.60510036376
791, 14.437793447738, -2.5, 286.7869018494
792, 11.648333675784, -2.5, 287.76297591417
793, 8.7937323508277, -2.5, 288.52786392546
794, 5.8899521235166, -2.5, 289.07728868921
795, 2.953233571686, -2.5, 289.40817730862
796, 38.129362732425, -1.9386796006774, 250
797, 3.5686728430513e-14, -1.9386796006774, 288.12936273242
798, 2.7755575615629e-14, -2.5, 292.44458240572
799, 2.7755575615629e-14, -2.5, 295.3704853381
800, 2.7755575615629e-14, -2.5, 298.29638827048
801, 2.7755575615629e-14, -2.5, 301.22229120286
802, 2.7755575615629e-14, -2.5, 304.14819413524
803, 2.7755575615629e-14, -2.5, 307.07409706762
804, 54.503113245557, -2.5, 250
805, 51.506226491114, -2.5, 250
806, 48.509339736672, -2.5, 250
807, 45.512452982229, -2.5, 250
808, 42.515566227786, -2.5, 250
809, 80.454086328695, 196.1478435447, 307.45378171901
810, 80.407868047703, 198.79568708939, 307.40756343802
811, 80.36164976671, 201.44353063409, 307.36134515702
812, 80.315431485718, 204.09137417879, 307.31512687603
813, 80.269213204725, 206.73921772348, 307.26890859504
814, 80.222994923733, 209.38706126818, 307.22269031405
815, 81.914388536735, 193.49489015092, 306.91446929211
816, 81.590559520348, 212.04935534385, 306.59055952035
817, 68.556575787229, 196.1478435447, 307.45378171901
818, 68.58652750271, 198.79568708939, 307.40756343802
819, 68.616479218191, 201.44353063409, 307.36134515702
820, 68.646430933672, 204.09137417879, 307.31512687603
821, 68.676382649153, 206.73921772348, 307.26890859504
822, 68.706334364634, 209.38706126818, 307.22269031405
823, 77.506884475202, 193.5, 307.5
824, 74.513464340717, 193.5, 307.5
825, 71.520044206232, 193.5, 307.5
826, 71.596408720771, 212.03490481288, 307.17647203305
827, 74.456531361428, 212.03490481288, 307.17647203305
828, 77.316654002084, 212.03490481288, 307.17647203305
829, 80.176776642741, 213.42650089831, 306.57859517134
830, 17.616526256903, 213.43912102383, 303.75248094295
831, 75.163445885026, 192.73254856709, 250
832, 74.333220607063, 192.03016968338, 252.7848994967
833, 76.060650907273, 193.02273695972, 252.81107245791
834, 73.153086907757, 191.69840942022, 257.06631558583
835, 71.352973741201, 192.48906363818, 258.07962924875
836, 73.498889200967, 193.07693448067, 259.02149322385
837, 75.217456279991, 193.06513143941, 257.66899865785
838, 69.222018514459, 191.08103418927, 257.5
839, 67.091063287717, 191.08103418927, 257.5
840, 64.982398358653, 192.48898663654, 258.07966806881
841, 67.113050877006, 193.0809580354, 259.482546929
842, 69.233012309104, 193.0809580354, 259.482546929
843, 66.618884989586, 193.49697751178, 307.12175975513
844, 64.993508260764, 193.10635417454, 262.39265623128
845, 64.993927076619, 193.13175031368, 265.30276553355
846, 64.994345892474, 193.15714645281, 268.21287483583
847, 64.994764708329, 193.18254259195, 271.1229841381
848, 64.995183524184, 193.20793873109, 274.03309344037
849, 64.995602340039, 193.23333487023, 276.94320274265
850, 64.996021155894, 193.25873100936, 279.85331204492
851, 64.996439971748, 193.2841271485, 282.7634213472
852, 64.996858787603, 193.30952328764, 285.67353064947
853, 64.997277603458, 193.33491942678, 288.58363995175
854, 64.997696419313, 193.36031556591, 291.49374925402
855, 64.998115235168, 193.38571170505, 294.40385855629
856, 64.998534051023, 193.41110784419, 297.31396785857
857, 64.998952866878, 193.43650398333, 300.22407716084
858, 64.999371682733, 193.46190012246, 303.13418646312
859, 78.276243901637, 192.99820510203, 250
860, 80.392501382081, 192.99820510203, 250
861, 64.405479789251, 193.49740850258, 305.33349085543
862, 66.026293004086, 212.04153502991, 306.37809308186
863, 64.149409241575, 209.38705940982, 304.27911584626
864, 64.117107071875, 206.73921465008, 304.31994194653
865, 64.084764875056, 204.09137082391, 304.36074824037
866, 64.052382527323, 201.44352827321, 304.40153461331
867, 64.019959858786, 198.79568365654, 304.4423010066
868, 63.987496776092, 196.14783996908, 304.48304726293
869, 58.747335475952, 192.57640347965, 258.079629248
870, 60.832393779923, 193.15005811311, 259.48253314024
871, 62.912904215636, 193.12462668786, 259.48247866234
872, 62.885919504813, 191.12507249658, 257.5
873, 60.811353799812, 191.15035620239, 257.5
874, 65.391438465922, 41.332733842805, 255.35799511559
875, 71.664195377645, 41.414085824006, 250
876, 67.879144159918, 41.935760343854, 253.68028743575
877, 69.609416027986, 41.961716752842, 252.19324576081
878, 71.664184294981, 20.585903078034, 250
879, 65.391438467911, 20.667266144681, 255.35799510345
880, 69.609258103932, 20.038282678962, 252.19321320884
881, 67.879152625952, 20.064242466296, 253.68044842915
882, 33.338067795868, 213.42650089831, 295.71335327014
883, 31.254140966343, 212.03490481288, 297.87825839149
884, 28.73414006239, 212.03490481288, 299.43175243729
885, 26.137110312449, 212.03490481288, 300.85273265677
886, 23.470013685946, 212.03490481288, 302.13738976711
887, 20.739999983601, 212.03490481288, 303.2822799327
888, 36.038225651891, 212.03490481288, 294.71850999595
889, 38.565491645167, 212.03490481288, 293.57412608382
890, 41.225062499359, 212.03490481288, 292.78458773095
891, 43.967379818132, 212.03490481288, 292.36460718106
892, 46.741343308991, 212.03490481288, 292.32201034432
893, 49.495262985231, 212.03490481288, 292.65759096942
894, 52.177822356232, 212.03490481288, 293.36509585291
895, 54.739034658045, 212.03490481288, 294.4313413613
896, 57.131174305863, 212.03490481288, 295.83645909461
897, 59.309666211728, 212.03490481288, 297.55426611381
898, 61.233916395935, 212.03490481288, 299.55275283323
899, 62.868068414529, 212.03490481288, 301.79467948663
900, 64.726374199804, 213.42650089606, 303.99178330585
901, 68.736286080114, 213.42650089831, 306.57859517134
902, 17.859128611513, 193.50000000521, 304.67370473698
903, 17.974314724345, 209.38706124435, 304.32642356179
904, 17.994250344579, 206.73921768573, 304.36850969338
905, 18.01419453086, 204.09137413704, 304.41059239068
906, 18.034147282702, 201.44353059828, 304.45267165239
907, 18.05410859962, 198.79568706946, 304.49474747724
908, 18.074078481126, 196.14784355059, 304.53681986393
909, 58.899721120149, 165.7657493852, 255.56979899341
910, 60.29382010678, 168.15563336228, 255.56979899341
911, 61.687919093411, 170.54551733937, 255.56979899341
912, 63.082018080042, 172.93540131645, 255.56979899341
913, 64.476117066673, 175.32528529353, 255.56979899341
914, 65.870216053304, 177.71516927061, 255.56979899341
915, 67.264315039935, 180.10505324769, 255.56979899341
916, 68.658414026566, 182.49493722478, 255.56979899341
917, 70.052513013198, 184.88482120186, 255.56979899341
918, 71.446611999829, 187.27470517894, 255.56979899341
919, 72.84071098646, 189.66458915602, 255.56979899341
920, 57.70478808375, 163.52460466045, 252.78950670906
921, 59.161635106196, 165.82873000252, 250
922, 60.549816573, 168.20846965989, 250
923, 61.937998039803, 170.58820931727, 250
924, 63.326179506607, 172.96794897465, 250
925, 64.71436097341, 175.34768863203, 250
926, 66.102542440213, 177.7274282894, 250
927, 67.490723907017, 180.10716794678, 250
928, 68.87890537382, 182.48690760416, 250
929, 70.267086840624, 184.86664726153, 250
930, 71.655268307427, 187.24638691891, 250
931, 73.04344977423, 189.62612657629, 250
932, 60.13850874667, 171.85623705579, 257.5
933, 61.540316870986, 174.25933669748, 257.5
934, 62.942124995303, 176.66243633916, 257.5
935, 64.343933119619, 179.06553598085, 257.5
936, 65.745741243935, 181.46863562253, 257.5
937, 67.147549368252, 183.87173526422, 257.5
938, 68.549357492568, 186.2748349059, 257.5
939, 69.951165616885, 188.67793454759, 257.5
940, 58.197024876655, 167.20367116562, 257.38540008573
941, 57.71733676956, 164.98165281096, 256.95468723598
942, 58.736700622353, 188.4540045969, 257.5
943, 58.736700622353, 185.73959499936, 257.5
944, 58.736700622353, 183.02518540181, 257.5
945, 58.736700622353, 180.31077580427, 257.5
946, 58.736700622353, 177.59636620673, 257.5
947, 58.736700622353, 174.88195660919, 257.5
948, 58.736700622353, 172.16754701165, 257.5
949, 62.651720803728, 193.49999732588, 302.05984386649
950, 61.019291929327, 193.4999971643, 299.80047226536
951, 59.088198890533, 193.49999732176, 297.79044235386
952, 56.896167204217, 193.49999749212, 296.06864078394
953, 54.486650074794, 193.49999766251, 294.66731804902
954, 51.905185531445, 193.49999783288, 293.6158827899
955, 49.202861665599, 193.49999800324, 292.93247624394
956, 46.431772153759, 193.49999817564, 292.63180523051
957, 43.645765195805, 193.49999839834, 292.71985946871
958, 36.069866287613, 192.46849768174, 295.08978640055
959, 38.389128630195, 193.16992040888, 293.99386478932
960, 33.868231002448, 194.74066798812, 296.44031615538
961, 33.838585426944, 197.62304079224, 296.39966596911
962, 33.80893985144, 200.50541359637, 296.35901578283
963, 33.779294275935, 203.3877864005, 296.31836559656
964, 33.749648700431, 206.27015920462, 296.27771541028
965, 33.720003124927, 209.15253200875, 296.23706522401
966, 43.016769954326, 193.48511328888, 291.08749690762
967, 45.026335710519, 193.46727926984, 288.87802912537
968, 46.92220964911, 193.4468854709, 286.57028663344
969, 48.69868666184, 193.42425953356, 284.16946555615
970, 50.35231187604, 193.39971331141, 281.68240476357
971, 51.883310684473, 193.37354686182, 279.11806825823
972, 53.281174343011, 193.34601400311, 276.47884262231
973, 54.541167366532, 193.31740253568, 273.77107999023
974, 55.664256975529, 193.28800321044, 271.00371924433
975, 56.649428724475, 193.25809811549, 268.1843100712
976, 57.495135884792, 193.2279722001, 265.31998562909
977, 58.197711658508, 193.19792850791, 262.41723862091
978, 57.347081839035, 192.58682963026, 259.26113332491
979, 57.440293175249, 191.16841419444, 257.9770660779
980, 21.158430359183, 191.84029090067, 303.49692318435
981, 23.842154059059, 191.84734627491, 302.35591329692
982, 26.464532633006, 191.85297282785, 301.08020745329
983, 29.019064803676, 191.85692039278, 299.67354380152
984, 31.499017857136, 191.85885013013, 298.13921740444
985, 18.320125632598, 192.68950475584, 304.51834673182
986, 61.29756095938, 20.073941404482, 254.23610022568
987, 63.442133401693, 20.067620363456, 253.87396802787
988, 59.444759365011, 20.044143399516, 252.5289736645
989, 67.562383215031, 20, 250
990, 64.874918726206, 20, 250
991, 62.187454237382, 20, 250
992, 59.94769990365, 41.315357855788, 256.27847056356
993, 62.692964402744, 39.930544413691, 255.93373554536
994, 61.298779240797, 41.925964004748, 254.24151932728
995, 63.442765147871, 41.932283408166, 253.87948094791
996, 62.692964402743, 22.069455586309, 255.93373554536
997, 59.94769990365, 20.684642144212, 256.27847056356
998, 56.870534060701, 19.014805706067, 259.66183212545
999, 57.834128678108, 19.720620241933, 257.26331135948
1000, 58.201489235384, 21.379167769562, 258.33692271794
1001, 56.906569918156, 19.913595147212, 260.17131346804
1002, 62.187454237382, 42, 250
1003, 64.874918726206, 42, 250
1004, 67.562383215031, 42, 250
1005, 59.444759365011, 41.955856600484, 252.5289736645
1006, 57.834128678105, 42.279379758069, 257.26331135948
1007, 56.870534060702, 42.985194293932, 259.66183212545
1008, 56.906569918414, 42.086404855187, 260.17131346754
1009, 58.201489235861, 40.620832234981, 258.33692271744
1010, 57.569546413453, 162.96119948053, 250
1011, 57.440293175249, 169.45313741411, 257.9770660779
1012, 18.255213405373, 191.66174577942, 304.53277325135
1013, 58.086180732569, 19.413841243405, 249.99819649025
1014, 58.086162316268, 42.586292833025, 249.99765366034
1015, 2.7755575615629e-14, 196, 250
1016, 2.7755575615629e-14, 199, 250
1017, 2.7755575615629e-14, 202, 250
1018, 2.7755575615629e-14, 205, 250
1019, 2.7755575615629e-14, 208, 250
1020, 2.7755575615629e-14, 211, 250
1021, 82.347154271554, 202.25652591812, 258.90428869337
1022, 82.341163668723, 202.59972732444, 296.2267636645
1023, 82.338902677388, 202.72925943126, 268.08374032347
1024, 82.337416300836, 202.81441388687, 280.26605368733
1025, 82.312939635633, 204.21668109721, 288.04300570401
1026, 82.287722611593, 205.66136343693, 274.68434744544
1027, 82.406286245327, 198.86885740951, 274.99659825167
1028, 82.280891370233, 206.05272499229, 264.50677846224
1029, 82.407299049409, 198.8108339025, 264.12237654526
1030, 82.400785813672, 199.18397692795, 285.09026018827
1031, 82.399072036738, 199.28215914272, 291.82829011874
1032, 82.268908941337, 206.73919788401, 255.21089140897
1033, 82.419099970954, 198.13475955996, 255.3070557514
1034, 82.265394394433, 206.9405461413, 300.00583506231
1035, 82.411290362995, 198.5821717003, 300.33501855002
1036, 82.265921484502, 206.91034917145, 283.83447143022
1037, 82.269701621392, 206.69378527411, 292.80475393297
1038, 82.267561566549, 206.81638893391, 269.2743768308
1039, 82.420293581744, 198.06637764361, 268.73349984845
1040, 82.42121812927, 198.01341035133, 280.64553735938
1041, 82.258926082625, 207.31111547658, 279.11194163228
1042, 82.430899725099, 197.45875209776, 259.9166504895
1043, 82.251542557854, 207.73411732743, 259.77443474487
1044, 82.426223891175, 197.72663044387, 295.7213556702
1045, 82.342615447789, 202.51655495745, 254.01157966317
1046, 82.339581365828, 202.69037739656, 301.42168512066
1047, 82.248019364363, 207.93596094733, 288.77448800869
1048, 82.35008698022, 202.08851115117, 284.34387554571
1049, 82.334424798044, 202.98579696708, 292.08505711901
1050, 82.242226974208, 208.26780675709, 296.58334338305
1051, 82.447412783512, 196.51271961486, 288.24638384472
1052, 82.343301126089, 202.47727247395, 272.67392856096
1053, 82.344410164872, 202.4137356846, 276.9342145193
1054, 82.331972471988, 203.12629063273, 265.37142661006
1055, 82.240125462421, 208.38820228671, 271.62379682625
1056, 82.439110208875, 196.98837379725, 271.80233253697
1057, 82.438636010612, 197.01554059756, 277.80865509686
1058, 82.376318994428, 200.58568006368, 288.34900178499
1059, 82.222803468815, 209.38057863576, 265.81395465672
1060, 82.452877784033, 196.19962994469, 265.97060393858
1061, 82.237510500687, 208.53801334411, 253.51809771878
1062, 82.45476941839, 196.09125828498, 253.28710314159
1063, 82.234736232369, 208.69695106959, 276.07416721796
1064, 82.451059361251, 196.30380731611, 283.48712939546
1065, 82.231760032103, 208.86745746866, 301.69064570704
1066, 82.447650805291, 196.49908335629, 302.26880901438
1067, 82.292919395073, 205.36363991074, 271.9385567044
1068, 82.386177283065, 200.02089908589, 252.70911464871
1069, 82.301940827243, 204.84680240785, 252.52442437499
1070, 82.456765716744, 195.97689042885, 262.64228803809
1071, 82.378671174029, 200.45092378457, 302.91778898924
1072, 82.298159394391, 205.06344055089, 302.62872991919
1073, 82.22324964874, 209.35501700497, 286.40717412169
1074, 82.2286989521, 209.04282662455, 262.57808544367
1075, 82.460070881734, 195.78753765341, 257.35471886076
1076, 82.222907140923, 209.37463926469, 257.49554337075
1077, 82.449971192504, 196.3661484619, 292.91460826842
1078, 82.397853552075, 199.35196608236, 278.10523383912
1079, 82.326847501203, 203.41990001233, 262.01737173525
1080, 82.382655935539, 200.22263695059, 271.81802885856
1081, 82.453423403458, 196.16837142879, 298.28905396933
1082, 82.228706508572, 209.04239371459, 281.05635924596
1083, 82.383626779225, 200.16701735303, 261.29743917607
1084, 82.382265061812, 200.24503009141, 266.71960910447
1085, 82.29768790775, 205.09045200244, 267.09111623091
1086, 82.379961401947, 200.37700667669, 282.35699807417
1087, 82.315614274514, 204.06345113837, 256.55433142872
1088, 82.380601954264, 200.34030945902, 294.26566278219
1089, 82.291528226909, 205.44333988148, 297.0498715037
1090, 82.389556120478, 199.82732562016, 258.17220064107
1091, 82.365464423262, 201.20753802927, 298.91582233378
1092, 82.217952288248, 209.65850258434, 292.03899690968
1093, 82.286836635965, 205.71212094664, 280.88589573252
1094, 82.274952874465, 206.39294118704, 286.77778108803
1095, 82.220222691784, 209.52843125284, 299.07169127369
1096, 82.300653430179, 204.92055733627, 278.82930145418
1097, 82.297896091514, 205.07852516259, 259.43698515162
1098, 82.289367764606, 205.56711268395, 290.06126546135
1099, 82.308903732404, 204.44789783836, 294.48785444563
1100, 82.465158632758, 195.49606059248, 274.80472092058
1101, 82.456358498731, 196.00021993324, 286.12766301106
1102, 82.313962917031, 204.15805734517, 299.36989292318
1103, 82.218799676214, 209.60995576027, 268.9725888756
1104, 82.385971525264, 200.03268694247, 296.62137988874
1105, 82.369085675114, 201.00007664966, 255.98077174942
1106, 82.467312629527, 195.3726582002, 269.39598154935
1107, 82.466827139309, 195.40047191617, 280.30829607059
1108, 82.459648225475, 195.8117516143, 290.48628209583
1109, 82.217891035752, 209.66201173745, 278.34965623687
1110, 82.279699381861, 206.12101396039, 261.65694572881
1111, 82.218244660473, 209.64175259075, 294.506710415
1112, 82.473141217388, 195.03873862527, 260.20676239814
1113, 82.21038256225, 210.09217189632, 260.16414306577
1114, 82.466668471109, 195.40956201125, 295.49572868014
1115, 82.278498216615, 206.18982867129, 276.79843590323
1116, 82.342910061537, 202.49967654713, 251.81289794024
1117, 82.338717371567, 202.73987559464, 303.55063197664
1118, 82.213947666773, 209.88792719498, 283.67723611666
1119, 82.353017890073, 201.92059943813, 286.83600413281
1120, 82.348660269391, 202.17024735981, 289.74751776276
1121, 82.366187768085, 201.16609763215, 263.75600472096
1122, 82.213518576901, 209.91250973728, 273.99692667493
1123, 82.26661689078, 206.87050937246, 257.71104322407
1124, 82.373106743773, 200.76970978045, 269.24738783129
1125, 82.304021830539, 204.72758180886, 269.37564803257
1126, 82.326736939965, 203.42623406142, 274.69796124644
1127, 82.378717210293, 200.44828636881, 280.14116396841
1128, 82.471445358512, 195.1358943152, 255.10995287552
1129, 82.210848545419, 210.06547573845, 289.32988743515
1130, 82.213247369519, 209.92804719778, 254.91688969358
1131, 82.465495135897, 195.47678234051, 300.44865975272
1132, 82.319728031524, 203.8277741571, 282.77075490045
1133, 82.266121043077, 206.89891646836, 295.08650673607
1134, 82.30744606028, 204.53140781842, 254.65359318828
1135, 82.419647817619, 198.10337344553, 261.99468856223
1136, 82.373909941092, 200.72369463685, 300.82047906905
1137, 82.256811460155, 207.43226211674, 303.25093320974
1138, 82.261607067089, 207.15752197953, 251.97475043239
1139, 82.414339713555, 198.40747452374, 297.9770948393
1140, 82.423394626865, 197.8887188876, 251.96812897705
1141, 82.203580896006, 210.48183909446, 300.84486395103
1142, 82.212580338016, 209.96626140698, 252.10159767226
1143, 82.207509796922, 210.25675251174, 303.31570627777
1144, 82.417644195653, 198.2181608711, 303.50014628184
1145, 82.478089684048, 194.7552411602, 251.81528806829
1146, 82.203113555844, 210.50861299438, 271.7803065695
1147, 82.415955670406, 198.31489641773, 293.70292602296
1148, 82.471438502074, 195.1362871203, 303.6991513896
1149, 82.413256176535, 198.46955031802, 282.89498125432
1150, 82.312774482736, 204.22614270035, 285.43431546687
1151, 82.335617420119, 202.91747169414, 270.6077480256
1152, 82.341273538359, 202.59343289722, 294.26633450283
1153, 82.406807269013, 198.83900798252, 287.26245044981
1154, 82.40680829456, 198.83894922899, 289.46803038113
1155, 82.415683869249, 198.33046789555, 266.38652235919
1156, 82.26214815559, 207.12652304006, 266.83286076853
1157, 82.252400211876, 207.6849823614, 274.27411816128
1158, 82.424906674566, 197.80209373282, 257.68765643568
1159, 82.478959980638, 194.70538190194, 277.73751579881
1160, 82.479860997987, 194.65376265258, 271.89535195901
1161, 82.249117168629, 207.87306778307, 290.83189468502
1162, 82.360678082358, 201.48174731602, 274.22414628739
1163, 10.96624728856, 193, 260.7244289605
1164, 7.3020208421479, 193, 267.00386015681
1165, 16.957833338497, 193, 257.28094782007
1166, 6.2829605366511, 193, 256.16390330551
1167, 12.72157429675, 193, 265.91624533444
1168, 5.0285777499517, 193, 261.52823570281
1169, 11.980044337982, 193, 255.02570902204
1170, 16.615730729239, 193, 262.5733572276
1171, 4.5400229531811, 193, 270.85777765916
1172, 20.62408572811, 193, 254.91176361793
1173, 11.224921691322, 193, 269.11339279318
1174, 4.1061932264601, 193, 265.56619688682
1175, 15.587676896262, 193, 254.26430643716
1176, 19.219629054328, 193, 260.92865164516
1177, 3.8754582210754, 193, 253.85563750007
1178, 14.412464966663, 193, 259.70586950876
1179, 9.3856588520614, 193, 264.52788909656
1180, 3.5242189696658, 193, 258.91280137958
1181, 8.8478550827179, 193, 253.81815447843
1182, 7.5810221272508, 193, 259.42435411628
1183, 16.107056145405, 193, 265.76760323962
1184, 7.5048865531887, 193, 271.20278966644
1185, 13.376952756691, 193, 262.67858091159
1186, 21.57127831384, 193, 257.56199634542
1187, 9.3191461110526, 193, 256.8595501905
1188, 18.428227182817, 193, 252.72492836797
1189, 2.5288690215261, 193, 268.42535986047
1190, 13.602176221624, 193, 268.76194708953
1191, 2.2771350459638, 193, 263.14388014926
1192, 13.325796162237, 193, 252.17059178114
1193, 19.588321698095, 193, 263.45569900292
1194, 3.0030449770414, 193, 256.57207178895
1195, 6.2891384084328, 193, 252.57298825546
1196, 11.795193527567, 193, 258.01438279338
1197, 14.238098417312, 193, 256.85061250655
1198, 23.031535935043, 193, 253.19128604773
1199, 3.0671525823067, 193, 273.03151243975
1200, 6.7737080911857, 193, 264.12428038347
1201, 9.8636291769218, 193, 267.03832589639
1202, 8.6450678660998, 193, 261.73130353201
1203, 17.100576742057, 193, 259.91773037921
1204, 5.4152688574037, 193, 268.56603175995
1205, 18.269476811909, 193, 255.38012620807
1206, 5.9273271359125, 193, 272.92981891555
1207, 22.908824918496, 193, 255.73118432287
1208, 2.1659863531163, 193, 260.75082640852
1209, 10.864582078774, 193, 252.20289105632
1210, 2.1584171590254, 193, 270.88211507246
1211, 20.832975663661, 193, 252.21595322112
1212, 15.750979887952, 193, 268.04981345488
1213, 2.0712409750291, 193, 252.07124097503
1214, 19.297267731949, 193, 258.0277167197
1215, 8.5620499189855, 193, 269.0713082839
1216, 10.061572392928, 193, 271.50344943063
1217, 21.227170554317, 193, 261.77196595646
1218, 11.118692468896, 193, 262.91970364071
1219, 1.7357446672341, 193, 254.2552640962
1220, 4.3219746023429, 193, 251.60023424875
1221, 15.8072361317, 193, 251.83196531725
1222, 1.6644314147414, 193, 265.81762769188
1223, 5.5680768721473, 193, 258.3895922559
1224, 18.203531720905, 193, 265.39160806143
1225, 14.705328482021, 193, 264.23394667831
1226, 21.892059097249, 193, 259.71168081102
1227, 9.626520534038, 193, 258.93920309627
1228, 81.57859517134, 213.42650089831, 251.74728800894
1229, 81.57859517134, 213.42650089831, 303.4294886338
1230, 81.57859517134, 213.42650089831, 283.39647007324
1231, 81.57859517134, 213.42650089831, 254.3560613139
1232, 81.57859517134, 213.42650089831, 274.68434744544
1233, 81.57859517134, 213.42650089831, 271.7803065695
1234, 81.57859517134, 213.42650089831, 268.87626569357
1235, 81.57859517134, 213.42650089831, 265.97222481764
1236, 81.57859517134, 213.42650089831, 263.0681839417
1237, 81.57859517134, 213.42650089831, 260.16414306577
1238, 81.57859517134, 213.42650089831, 257.26010218983
1239, 81.57859517134, 213.42650089831, 277.58838832137
1240, 81.57859517134, 213.42650089831, 300.82071532884
1241, 81.57859517134, 213.42650089831, 297.91667445291
1242, 81.57859517134, 213.42650089831, 295.01263357697
1243, 81.57859517134, 213.42650089831, 292.10859270104
1244, 81.57859517134, 213.42650089831, 289.2045518251
1245, 81.57859517134, 213.42650089831, 286.30051094917
1246, 81.57859517134, 213.42650089831, 280.4924291973
1247, 16.265933736739, 212.89950345224, 305.01468936179
1248, 1.5570766630945, 213.51057063684, 308.94904621326
1249, 70.417275872194, 26.709670670038, 254.316689913
1250, 70.418312387511, 35.288778816366, 254.31568903422
1251, 70.074037126016, 30.999216243718, 254.62349868161
1252, 71.141774966997, 37.549781696507, 253.47426793329
1253, 71.141391533822, 24.448615568975, 253.47480774473
1254, 69.307620172369, 24.635691792408, 255.16245667115
1255, 69.308796521958, 37.363563438312, 255.16175976168
1256, 71.448469286706, 32.793483951537, 252.99598349047
1257, 71.443751443579, 29.206563692678, 253.00415478002
1258, 68.818044416173, 33.296444452902, 255.42265136963
1259, 68.818255029753, 28.702021847106, 255.42255162282
1260, 71.861943023145, 26.646889128838, 252.12275658166
1261, 71.861732620317, 35.350916153981, 252.12331274147
1262, 68.041402984143, 35.482095847821, 255.72633175326
1263, 68.041171863183, 26.517217571854, 255.72640405111
1264, 71.977645553747, 24.001672431607, 251.78719792151
1265, 71.977903437402, 37.997922215161, 251.78637124132
1266, 67.755582973268, 23.905742218591, 255.80803063961
1267, 67.755907783139, 38.093943237957, 255.80794643129
1268, 29.181486046423, 191.53595636035, 254.09176559925
1269, 28.209214284668, 191.65672287475, 258.07382445654
1270, 26.575728527376, 191.76262862272, 262.15777593763
1271, 4.0913309923928, 191.53595353808, 279.18154983332
1272, 8.0742672335986, 191.65564079351, 278.21029412273
1273, 12.158099993639, 191.76252004047, 276.57571671483
1274, 16.141487967544, 191.64396516505, 274.51935550462
1275, 19.079647609656, 192.19075613481, 271.38474830623
1276, 24.542913181238, 191.6695991491, 266.0554864912
1277, 22.386336935266, 190.99541170627, 269.87393243051
1278, 26.515739937155, 190.45080776148, 264.64240338264
1279, 14.720893645137, 190.43228216252, 276.48410506215
1280, 24.562931657948, 192.52387437061, 263.56830338123
1281, 13.569321725377, 192.52367279812, 274.5628582751
1282, 29.671034812804, 190.48706198034, 255.98893980939
1283, 5.9892033861317, 190.48696613554, 279.67103767216
1284, 19.098794173316, 190.43930053669, 273.51831951067
1285, 28.362316711465, 190.48581810997, 260.57638220289
1286, 10.576764498547, 190.48554251002, 278.3623426779
1287, 20.867397476516, 190.44725557968, 271.9580751674
1288, 5.182765205763, 192.48742282233, 277.65563313284
1289, 27.654847423895, 192.48782814627, 255.18247898545
1290, 30.253352800311, 190.37259203047, 252.19775218864
1291, 2.1975303370403, 190.37241856283, 280.2534626699
1292, 27.920371428474, 192.54026142013, 252.43247256338
1293, 2.4321721022626, 192.54018873543, 277.92055576842
1294, 22.123373556795, 192.48400824777, 267.39660134024
1295, 9.6183971126328, 192.47113897438, 276.47697449941
1296, 26.476575740789, 192.47148098595, 259.61749327934
1297, 24.043321174075, 190.28078990096, 268.5726850265
1298, 20.496274009531, 192.4954971468, 269.25277136566
1299, 17.144210175535, 192.49220584537, 272.29847594699
1300, 27.869584942115, 189.90914291103, 262.52089708429
1301, 12.536614068833, 189.90888577743, 277.86263496335
1302, 30.285194500403, 189.84618662599, 254.22529068328
1303, 4.2250971524316, 189.84578842251, 280.28538122442
1304, 17.238831120239, 189.77460518247, 275.28972277224
1305, 26.474312677276, 192.75069469801, 257.4070815438
1306, 7.407379886784, 192.75048505044, 276.47489238396
1307, 25.397873525811, 189.95194159681, 266.95111488429
1308, 23.139491181854, 214, 273.13135416686
1309, 59.515488842136, 214, 272.04424812139
1310, 41.066691525429, 214, 268.50707827196
1311, 15.880295995841, 214, 286.03917693955
1312, 66.359766578276, 214, 283.48456100514
1313, 13.501911937812, 214, 263.13639368876
1314, 33.646358883317, 214, 279.20977462959
1315, 29.87885996594, 214, 262.56622708175
1316, 49.029200260173, 214, 278.47870606653
1317, 67.568192919629, 214, 262.34211144468
1318, 51.562661778256, 214, 262.19827346315
1319, 11.142296256206, 214, 275.29479486598
1320, 26.482360755276, 214, 286.04034203236
1321, 69.550284837089, 214, 274.0347764857
1322, 10.194367555854, 214, 295.07323299238
1323, 69.989134377146, 214, 292.92797052421
1324, 56.990476913124, 214, 282.95881941074
1325, 38.681869466499, 214, 259.00459265369
1326, 21.536254207216, 214, 259.09738255766
1327, 31.621900921975, 214, 271.13234589967
1328, 59.593780816905, 214, 258.49088555547
1329, 41.872497821184, 214, 282.40986109349
1330, 8.1223432003941, 214, 282.89977490783
1331, 51.248408039367, 214, 270.3582291175
1332, 21.084439135847, 214, 292.33276230974
1333, 7.9201776849096, 214, 257.89463387992
1334, 19.954844806657, 214, 280.59499362564
1335, 7.7064871530114, 214, 268.74495240889
1336, 70.410765709717, 214, 300.13157483285
1337, 45.778697739851, 214, 256.90885369176
1338, 20.470263958911, 214, 265.88511885454
1339, 72.816137946049, 214, 257.67785283258
1340, 73.027658962332, 214, 279.62438229393
1341, 40.315283423981, 214, 275.36376801922
1342, 32.765434686052, 214, 286.32334717928
1343, 61.926262634798, 214, 288.07691962861
1344, 72.953856336801, 214, 267.53430174492
1345, 27.321454333895, 214, 278.7807153679
1346, 61.969139929687, 214, 278.53568728496
1347, 15.377948414101, 214, 256.93345042212
1348, 61.582111904848, 214, 265.31218814489
1349, 73.627393633873, 214, 286.63339297565
1350, 6.7243502022156, 214, 289.33581305078
1351, 50.694636527923, 214, 284.2780306757
1352, 55.026701115923, 214, 276.60946287052
1353, 33.177417790572, 214, 256.95826392345
1354, 14.886782494153, 214, 270.52956849302
1355, 6.0571678442032, 214, 299.70695398402
1356, 45.318530135773, 214, 263.69538506257
1357, 65.644820695781, 214, 256.40380814033
1358, 35.42151376833, 214, 265.95448761854
1359, 16.187923465268, 214, 296.30396318314
1360, 54.050180790567, 214, 256.31448406022
1361, 26.364797825299, 214, 267.82107996099
1362, 45.712867339364, 214, 272.8885670567
1363, 5.9027364363385, 214, 277.27347808845
1364, 17.471737581444, 214, 275.43440352817
1365, 26.272471094151, 214, 256.03487561397
1366, 14.657084156868, 214, 280.41748318735
1367, 55.751777388463, 214, 266.68246232477
1368, 66.628980888157, 214, 268.0793848267
1369, 5.8527438752456, 214, 263.50589276708
1370, 74.491441369296, 214, 296.59075945763
1371, 26.710449236223, 214, 291.79416942473
1372, 64.98167535542, 214, 292.6704678343
1373, 75.133419221437, 214, 274.96988199516
1374, 21.344199731267, 214, 286.38392141296
1375, 66.823819464847, 214, 278.19944003666
1376, 64.154338716971, 214, 273.49417160563
1377, 38.264299629869, 214, 286.14636245293
1378, 75.396975271215, 214, 261.69345670738
1379, 36.997306775391, 214, 271.52035225452
1380, 13.689369708235, 214, 291.20679402756
1381, 5.2176647596498, 214, 293.53544023286
1382, 67.449492246176, 214, 288.68562348361
1383, 24.84736627562, 214, 263.05437597258
1384, 45.882959375788, 214, 285.49695961382
1385, 11.668040264663, 214, 300.16413999159
1386, 56.846398958924, 214, 287.95335037686
1387, 41.486341017039, 214, 255.22970619384
1388, 75.700035970048, 214, 290.85638604827
1389, 4.735395200134, 214, 272.51913248023
1390, 61.68892344426, 214, 283.36449637998
1391, 29.65865767441, 214, 282.95404874754
1392, 46.930086737771, 214, 268.23130655378
1393, 31.565534144849, 214, 275.65509276969
1394, 19.480175927986, 214, 254.5644145765
1395, 10.669940297938, 214, 287.00307350773
1396, 44.075754639917, 214, 278.24778806866
1397, 40.179256876414, 214, 263.81621592308
1398, 4.1728232556889, 214, 254.82910497745
1399, 34.478558427922, 214, 261.55527658665
1400, 75.754151101332, 214, 300.73386282615
1401, 18.060280210627, 214, 262.24233437754
1402, 66.940070430687, 214, 296.43461789539
1403, 56.280414901769, 214, 261.8085328975
1404, 30.959106597793, 214, 290.31849342169
1405, 58.129577245488, 214, 254.45554794562
1406, 10.908286012096, 214, 254.36572583967
1407, 49.746269561263, 214, 254.435182224
1408, 19.310820089228, 214, 270.74085545679
1409, 36.805803012809, 214, 254.47330540921
1410, 53.396933687683, 214, 280.72252361637
1411, 4.4073911397315, 214, 285.40100614521
1412, 27.610001557187, 214, 273.10486414397
1413, 63.745606721408, 214, 260.87973764055
1414, 69.69537059776, 214, 254.30811315705
1415, 38.650303638296, 214, 279.99750368529
1416, 76.037765654614, 214, 270.43994831115
1417, 30.915414589371, 214, 266.7074283092
1418, 24.531624575149, 214, 282.13018045572
1419, 51.274511478441, 214, 274.63377393929
1420, 55.106427979379, 214, 272.32120151462
1421, 75.655836771966, 214, 254.25522018867
1422, 76.151843359852, 214, 282.95652426298
1423, 20.460657956142, 214, 296.56451084678
1424, 4.2060804161121, 214, 281.16264317213
1425, 23.164115324331, 214, 277.40003954117
1426, 9.6783431738874, 214, 261.76364424528
1427, 70.636085439785, 214, 283.3353669905
1428, 10.973736920865, 214, 271.37383543184
1429, 11.214835643544, 214, 266.9024849068
1430, 10.237972545855, 214, 279.53895402948
1431, 36.023345018674, 214, 275.69741772219
1432, 42.776539242557, 214, 260.06376991548
1433, 4.1214969827524, 214, 259.40602710621
1434, 50.590446962152, 214, 266.24686087037
1435, 62.618266474757, 214, 269.2990982897
1436, 24.317066578618, 214, 295.13578731473
1437, 4.0065842803464, 214, 267.22331458726
1438, 17.862369365706, 214, 289.61933813872
1439, 69.087208528852, 214, 258.61279199061
1440, 35.576295415585, 214, 283.20235988712
1441, 62.22889033272, 214, 254.1116334728
1442, 46.16282473272, 214, 281.31468781092
1443, 3.8654510909457, 214, 303.57423652532
1444, 23.141366832183, 214, 288.99287971525
1445, 42.203953019996, 214, 286.89507799435
1446, 49.636952462812, 214, 258.6188281369
1447, 57.872866806645, 214, 279.23295397035
1448, 17.164852090122, 214, 283.60633911258
1449, 16.227935577051, 214, 266.20377214599
1450, 68.809172238927, 214, 301.76343218998
1451, 23.291740931049, 214, 254.18615045893
1452, 52.865787020554, 214, 287.51248482525
1453, 9.1820994048647, 214, 290.82238486265
1454, 30.074362945555, 214, 253.89673817189
1455, 76.394470927308, 214, 278.11658721639
1456, 71.390450009662, 214, 263.63177215825
1457, 23.636547843484, 214, 268.92331254031
1458, 29.741002574588, 214, 259.35728817128
1459, 59.235150019798, 214, 274.68988912704
1460, 41.893720215532, 214, 272.13521624553
1461, 12.006728685678, 214, 283.39074514937
1462, 71.031638803105, 214, 268.40336913077
1463, 11.666423442252, 214, 258.52623558485
1464, 8.1607591109711, 214, 274.43432686755
1465, 71.180480556925, 214, 295.6887646327
1466, 77.317325537299, 214, 266.02783455198
1467, 61.318475428134, 214, 291.93404444028
1468, 76.420959074188, 214, 258.6883991108
1469, 46.4981462512, 214, 253.45611445516
1470, 71.051412698626, 214, 276.22602423991
1471, 58.598591653227, 214, 267.75566779688
1472, 35.146426348468, 214, 290.25936778366
1473, 3.5073867000306, 214, 291.33621732468
1474, 3.514701665077, 214, 298.07105852578
1475, 29.789973981498, 214, 287.59561387702
1476, 64.365106465532, 214, 286.04844083772
1477, 24.996566344853, 214, 259.36258188656
1478, 14.850395365974, 214, 273.10576260297
1479, 30.232820276827, 214, 279.79551551874
1480, 65.057668756761, 214, 265.06530153572
1481, 71.515926465581, 214, 288.46914730689
1482, 8.9076951887343, 214, 302.61029521122
1483, 8.6048511450329, 214, 265.25582496082
1484, 16.214216372607, 214, 253.44026323947
1485, 64.877737252761, 214, 280.5055985724
1486, 59.745162579439, 214, 262.58826745829
1487, 15.173062727716, 214, 260.45611317773
1488, 15.192727504852, 214, 277.55445681962
1489, 14.966484132546, 214, 299.03901000173
1490, 76.483652333993, 214, 287.74791842956
1491, 48.80827047506, 214, 286.77362507859
1492, 48.606042103913, 214, 261.59237235113
1493, 18.200257323509, 214, 258.71445642799
1494, 21.2326911313, 214, 263.43731664771
1495, 8.1771164843978, 214, 252.8100989678
1496, 59.326315252946, 214, 285.72040074987
1497, 53.723399374655, 214, 284.80085951799
1498, 7.5494188329902, 214, 297.18629996573
1499, 72.890212269122, 214, 272.06887500874
1500, 17.495927530141, 214, 278.78616439023
1501, 34.362482893143, 214, 252.64549422452
1502, 34.400212532122, 214, 269.2374744621
1503, 37.666402515765, 214, 268.4327504463
1504, 72.670320488584, 214, 252.67760964238
1505, 72.722640841431, 214, 302.06382644949
1506, 17.474973404371, 214, 293.85888278988
1507, 43.922035827925, 214, 266.74578592956
1508, 55.030253856806, 214, 253.1779729551
1509, 12.969112965623, 214, 296.58726886886
1510, 76.587952961621, 214, 293.64125139368
1511, 37.314651181967, 214, 263.27027929468
1512, 69.015505283469, 214, 266.76139347239
1513, 49.965422711833, 214, 281.35065703093
1514, 58.432604636571, 214, 290.50174243559
1515, 23.615254943779, 214, 265.98817996281
1516, 53.684077412785, 214, 259.63442103736
1517, 66.783459342632, 214, 253.18313252858
1518, 69.359086889415, 214, 280.29964632267
1519, 36.244051186522, 214, 257.47493722432
1520, 3.1029565524054, 214, 274.91088430668
1521, 71.871148820379, 214, 260.37320039359
1522, 27.578986969435, 214, 264.79049748789
1523, 7.4470679230335, 214, 286.10510689348
1524, 77.381678637153, 214, 298.16511947309
1525, 67.126536582791, 214, 271.58680363849
1526, 38.502939040512, 214, 282.93155297912
1527, 46.381651163312, 214, 276.02252409574
1528, 64.831918840148, 214, 289.26788001118
1529, 33.454862767844, 214, 273.79370924455
1530, 48.980956367482, 214, 272.51251897653
1531, 20.832279628772, 214, 275.35342319925
1532, 64.132770800746, 214, 295.5879597865
1533, 62.911508882478, 214, 257.57294410387
1534, 51.964450649007, 214, 277.15313218941
1535, 54.077909105762, 214, 269.83987513345
1536, 43.384667797536, 214, 275.31065191149
1537, 28.684889992084, 214, 270.20518751655
1538, 56.594861535581, 214, 258.47437876846
1539, 7.2532456084501, 214, 292.10858965568
1540, 44.437337473796, 214, 269.87850090241
1541, 26.025306473217, 214, 275.98893931658
1542, 29.623398305434, 214, 293.06669315196
1543, 32.713928849362, 214, 282.10182118976
1544, 3.2126197247276, 214, 288.93585729638
1545, 32.600994931543, 214, 264.27973814454
1546, 18.137617440391, 214, 298.35013683205
1547, 64.951573793398, 214, 276.17992672437
1548, 3.1234151071416, 214, 270.02864772184
1549, 66.226257828803, 214, 259.50036253624
1550, 67.483341736088, 214, 299.58191196706
1551, 73.314057238551, 214, 299.35520199385
1552, 73.316574242954, 214, 293.44238959033
1553, 7.3761636981795, 214, 280.18219495513
1554, 25.270958454499, 214, 271.16645160772
1555, 67.664933634487, 214, 293.67786708671
1556, 2.6796469625653, 214, 262.97727474462
1557, 13.319366164655, 214, 288.02009584847
1558, 53.033507339506, 214, 264.70433156934
1559, 2.9660914973669, 214, 278.39039185549
1560, 68.750355578061, 214, 285.03559563789
1561, 26.293829296341, 214, 253.03447625935
1562, 58.389726494718, 214, 265.11126973131
1563, 67.012861504523, 214, 275.02558804447
1564, 27.230632322013, 214, 288.84931965394
1565, 60.249749272695, 214, 280.55282833269
1566, 51.699078258532, 214, 252.40093956796
1567, 8.9399211686653, 214, 277.21019800901
1568, 37.624088858742, 214, 288.96805786822
1569, 47.754608030474, 214, 265.38412059924
1570, 23.788657726955, 214, 284.74740624032
1571, 2.4982444753827, 214, 257.22567723372
1572, 20.214989802081, 214, 288.99325442094
1573, 39.534629696636, 214, 252.9208543242
1574, 43.140152795669, 214, 252.62523170419
1575, 61.478622143168, 214, 273.61546793879
1576, 2.7910574569047, 214, 300.68393417591
1577, 77.271615802908, 214, 273.00120143525
1578, 41.275032700905, 214, 279.57611950884
1579, 27.358677078624, 214, 261.27270344954
1580, 14.565336751083, 214, 283.02182271342
1581, 6.9813000963377, 214, 260.65526120136
1582, 23.488343215483, 214, 256.90677630816
1583, 77.558371930838, 214, 263.20241212827
1584, 12.951671948252, 214, 252.48250213666
1585, 27.007469150082, 214, 294.90569632898
1586, 6.2532172724165, 214, 304.61170778075
1587, 38.909517206601, 214, 256.41218138182
1588, 57.015621813245, 214, 269.98543473605
1589, 32.374035394512, 214, 259.3805130069
1590, 23.677584516992, 214, 292.05259520242
1591, 7.7548136954886, 214, 271.72201205052
1592, 43.096843118137, 214, 257.37612596552
1593, 77.644746925981, 214, 285.22358923594
1594, 39.323009394404, 214, 272.83036814048
1595, 2.6079124951254, 214, 283.23254515783
1596, 44.550072838072, 214, 287.75138209834
1597, 26.90158859755, 214, 283.55688475576
1598, 47.730951687925, 214, 283.20705495753
1599, 67.379344610506, 214, 291.25482229413
1600, 45.154755752161, 214, 260.18031904693
1601, 18.259157813694, 214, 287.35582501383
1602, 17.319714616067, 214, 272.35294458186
1603, 12.605960567949, 214, 294.03644770439
1604, 73.509722547517, 214, 277.26427072907
1605, 77.814707994559, 214, 280.52540069099
1606, 21.254284278921, 214, 283.18995569468
1607, 38.864281954458, 214, 266.00924748626
1608, 35.344616351662, 214, 287.03037531634
1609, 17.256860944621, 214, 268.98652967859
1610, 77.60108546436, 214, 275.66790177578
1611, 55.916529820265, 214, 280.86019538923
1612, 60.279276927382, 214, 255.95073404289
1613, 56.308547891564, 214, 274.57719274778
1614, 73.477906379269, 214, 283.76269328305
1615, 33.784769447782, 214, 276.74598846706
1616, 12.025985023951, 214, 302.70338832861
1617, 77.765108333756, 214, 268.68411117809
1618, 44.627813454817, 214, 282.99216345241
1619, 40.180373439313, 214, 288.35744710586
1620, 12.231517032995, 214, 261.06811256652
1621, 2.3969359068527, 214, 294.75943660437
1622, 2.6124484612772, 214, 252.61198929493
1623, 54.649122491688, 214, 289.40156713987
1624, 30.257194715153, 214, 273.40353423622
1625, 74.27922188595, 214, 264.76120890729
1626, 20.288128845287, 214, 278.02804350785
1627, 5.3907683740445, 214, 257.07041574752
1628, 10.084086793245, 214, 297.73779376258
1629, 72.542403139454, 214, 290.79424791042
1630, 10.884342254345, 214, 263.843692744
1631, 22.860722853942, 214, 297.41218582667
1632, 72.488219591088, 214, 274.243323416
1633, 77.696387498704, 214, 256.38267493823
1634, 77.589177249411, 214, 302.5847237495
1635, 24.819066429313, 214, 279.49858980092
1636, 60.17904773328, 214, 252.61549230293
1637, 12.890307033877, 214, 285.58222649671
1638, 29.264391010359, 214, 276.36335435189
1639, 15.145425663561, 214, 293.85672257096
1640, 71.236758234669, 214, 285.77398497024
1641, 21.67986758499, 214, 252.20713638833
1642, 49.049470761561, 214, 275.52610362585
1643, 67.217909728686, 214, 281.002133577
1644, 70.166347400442, 214, 303.75009923249
1645, 78.197473068955, 214, 291.63207976566
1646, 35.934876388225, 214, 280.93211011348
1647, 36.114517579475, 214, 278.30156216924
1648, 39.357968824394, 214, 270.58581475467
1649, 49.386246772212, 214, 268.63222623891
1650, 40.652408818947, 214, 285.04248397702
1651, 56.355613112397, 214, 285.54161047814
1652, 63.900443603038, 214, 252.27902986097
1653, 14.167265200729, 214, 267.69544026321
1654, 47.089498938125, 214, 270.42862394566
1655, 51.34492163779, 214, 257.18790177008
1656, 73.437544107321, 214, 269.94041986231
1657, 42.82358326951, 214, 263.02194202096
1658, 22.952501397766, 214, 261.1418233406
1659, 39.922282963127, 214, 261.15210780004
1660, 50.558422184021, 214, 288.51760348973
1661, 43.813041252929, 214, 280.67813982082
1662, 64.054582680388, 214, 267.4791567031
1663, 61.932700767141, 214, 293.77403216474
1664, 8.8558209369468, 214, 299.62728985016
1665, 53.690105302601, 214, 274.63110487038
1666, 5.6665855258318, 214, 283.19068885002
1667, 9.0091079996859, 214, 288.72413745103
1668, 20.026154743014, 214, 273.0515069927
1669, 32.62401228419, 214, 292.00141695683
1670, 27.660722409341, 214, 281.16938024494
1671, 10.564729233388, 214, 251.93166538883
1672, 18.3976470598, 214, 264.7420762814
1673, 15.886216312098, 214, 263.73791632523
1674, 46.446355868517, 214, 278.94222806966
1675, 74.183870319154, 214, 288.83238918317
1676, 49.06636052393, 214, 252.06427641609
1677, 63.827175844171, 214, 283.21553393916
1678, 59.268773501325, 214, 288.30567464956
1679, 31.056379188072, 214, 284.8950492131
1680, 6.495198122441, 214, 266.58042343696
1681, 64.522685558254, 214, 270.60674430075
1682, 2.3437964540841, 214, 272.30280798348
1683, 52.34804926791, 214, 267.74399754239
1684, 65.448404380051, 214, 298.33292351886
1685, 43.971961352209, 214, 255.04872563482
1686, 50.150688287386, 214, 263.99082823053
1687, 2.0242441799655, 214, 285.99846940266
1688, 33.087003381821, 214, 267.13921869778
1689, 20.999024662696, 214, 256.65357344853
1690, 41.371169890747, 214, 265.62005392637
1691, 62.174593855753, 214, 285.63871398537
1692, 52.459992701291, 214, 272.49186596068
1693, 70.546123270055, 214, 256.59210761083
1694, 5.6007850568887, 214, 269.69871031371
1695, 5.7652860479665, 214, 274.83018743684
1696, 8.8669142662167, 214, 255.39468251946
1697, 75.129086888211, 214, 280.49000868233
1698, 29.861306296774, 214, 256.61585018657
1699, 77.945971912344, 214, 260.7825108156
1700, 17.679377857069, 214, 256.13754284513
1701, 18.602427133176, 214, 252.32766284879
1702, 12.32218479706, 214, 278.05588189592
1703, 77.815556161252, 214, 252.33037992548
1704, 59.456783369227, 214, 282.77375434031
1705, 9.9203931795069, 214, 284.60777471661
1706, 21.91763090816, 214, 294.57820203424
1707, 2.1965528484449, 214, 265.67579852704
1708, 66.899464174824, 214, 301.73073442466
1709, 69.277238641534, 214, 297.65012590259
1710, 68.104899222226, 214, 256.25257347717
1711, 74.205080764422, 214, 259.7206731925
1712, 9.9880999052501, 214, 269.18829847661
1713, 12.491401021947, 214, 269.49128558224
1714, 48.355453417594, 214, 256.59296178973
1715, 37.106162798871, 214, 251.97687139472
1716, 75.29847030929, 214, 267.89797075929
1717, 41.539638132579, 214, 277.14498118121
1718, 36.886949628787, 214, 260.66279244118
1719, 13.197574425884, 214, 255.61420517422
1720, 32.67810154911, 214, 288.76836867091
1721, 17.20946110589, 214, 281.45110346968
1722, 20.55595180598, 214, 268.71278849742
1723, 20.202011383235, 214, 261.01086094459
1724, 57.829955686129, 214, 252.04980264073
1725, 74.938423422973, 214, 256.82789599784
1726, 40.812232168993, 214, 258.20641398507
1727, 69.476800174611, 214, 261.05981610166
1728, 5.0866802445428, 214, 252.58656471145
1729, 67.524136549355, 214, 264.83119877086
1730, 34.46020204431, 214, 271.67804049944
1731, 69.762947728996, 214, 251.96410190171
1732, 15.666899733095, 214, 288.95888375555
1733, 62.783617331242, 214, 262.84024208773
1734, 75.567830911137, 214, 303.14719326212
1735, 62.239915041132, 214, 276.07204518075
1736, 55.471511737116, 214, 264.13624496411
1737, 7.4936319105879, 214, 294.66441159331
1738, 65.366527064158, 214, 262.60952705822
1739, 28.602731296021, 214, 252.14447128451
1740, 57.204907848408, 214, 276.92189231687
1741, 20.680070793512, 214, 298.87140966024
1742, 78.130796955794, 214, 300.46599699672
1743, 38.80208135311, 214, 277.25620479807
1744, 2.0569693495051, 214, 260.16468925497
1745, 1.980156641318, 214, 280.51878798792
1746, 53.940143520584, 214, 262.41899144947
1747, 56.270327379552, 214, 255.81412320435
1748, 12.319621857621, 214, 273.28662137754
1749, 31.33441043932, 214, 252.18905148029
1750, 10.116147997857, 214, 281.83810971128
1751, 52.352661103404, 214, 282.49639042671
1752, 58.423677172955, 214, 260.47542485498
1753, 28.676945625094, 214, 290.64451509313
1754, 2.1933441810691, 214, 305.37005985729
1755, 25.272576201848, 214, 273.70371985286
1756, 46.833643226716, 214, 288.30841544674
1757, 32.16300356549, 214, 261.76699678454
1758, 61.201721215529, 214, 260.50653992307
1759, 62.138307416115, 214, 271.42652699259
1760, 27.542137255392, 214, 258.47437634186
1761, 67.955051279395, 214, 303.42076244129
1762, 22.470922373876, 214, 280.27142510195
1763, 12.310721831879, 214, 281.02096119206
1764, 18.391146544837, 214, 295.71986907869
1765, 14.343680359242, 214, 301.57110034272
1766, 69.613163625416, 214, 290.03064580074
1767, 56.214154507688, 214, 290.85735947235
1768, 9.6820383266949, 214, 259.45585543788
1769, 78.346205306667, 214, 283.10334640178
1770, 75.510373791335, 214, 251.87668579553
1771, 28.777792039361, 214, 285.00838772515
1772, 16.476219758725, 214, 291.51913797338
1773, 34.734901500672, 214, 255.31806127361
1774, 68.464640842845, 214, 282.63146070664
1775, 5.4478572474271, 214, 287.44444584646
1776, 33.867499772387, 214, 284.58314172828
1777, 54.543499707871, 214, 278.76572577048
1778, 31.218544792362, 214, 268.71071421667
1779, 25.053053114526, 214, 289.79396017306
1780, 35.049397188622, 214, 263.74455732273
1781, 60.963953661557, 214, 267.40946872753
1782, 37.937031155235, 214, 274.4814885256
1783, 8.1101303504033, 214, 263.1150620805
1784, 59.354143209077, 214, 292.47664691197
1785, 59.795288153061, 214, 277.66754936878
1786, 28.954913850204, 214, 267.36439681448
1787, 78.018207957898, 214, 270.89741327434
1788, 64.470739968123, 214, 254.46209552452
1789, 35.774549552291, 214, 273.43420164926
1790, 29.814208564844, 214, 264.80371275511
1791, 54.476000179826, 214, 282.36775767221
1792, 40.030239410251, 214, 281.23254773743
1793, 2.0916350710546, 214, 268.00254580866
1794, 1.9718449588699, 214, 254.76156273168
1795, 50.94533247222, 214, 286.50467783451
1796, 77.985036096111, 214, 295.7927426675
1797, 43.298284221467, 214, 285.09798803824
1798, 75.000273204754, 214, 272.51889105512
1799, 23.810631091192, 214, 275.22499619293
1800, 24.157190941351, 214, 287.06427678732
1801, 47.506380295266, 214, 258.77866700329
1802, 78.244353639906, 214, 289.59022985901
1803, 25.454039371498, 214, 296.989410881
1804, 75.235332086583, 214, 298.71123593768
1805, 51.496352945865, 214, 259.98381668925
1806, 70.527231547629, 214, 301.9272331762
1807, 57.236252219955, 214, 272.37283665023
1808, 75.477108526594, 214, 285.26482363744
1809, 6.6321256681735, 214, 255.20601880359
1810, 10.128428753903, 214, 273.37735420111
1811, 72.240065158945, 214, 281.56858645155
1812, 78.521156182121, 214, 277.63075395606
1813, 58.195688713279, 214, 256.6766723337
1814, 5.342769155754, 214, 279.34611203594
1815, 11.292299899487, 214, 289.64157334837
1816, 4.345291253058, 214, 261.60270387309
1817, 63.07053553645, 214, 291.10060266406
1818, 72.720368749565, 214, 255.3897999049
1819, 54.864434493553, 214, 286.89983956706
1820, 13.192714248666, 214, 271.52229975989
1821, 1.7347608519154, 214, 303.2012230854
1822, 13.337588777762, 214, 265.42366178136
1823, 66.763713894153, 214, 286.47051841152
1824, 13.82563111999, 214, 258.60750192347
1825, 60.513942872093, 214, 290.19518597265
1826, 78.427471703006, 214, 254.36878933807
1827, 4.2461452178087, 214, 265.19254081259
1828, 62.769314092216, 214, 280.87753730405
1829, 34.56683116708, 214, 259.19973491103
1830, 21.98998735301, 214, 270.9543782103
1831, 18.842860431147, 214, 284.94065773341
1832, 19.783271839946, 214, 294.08885385533
1833, 65.91313757178, 214, 294.54854070532
1834, 5.5995026002235, 214, 302.2839615058
1835, 71.332015346076, 214, 265.81425781836
1836, 48.010615028038, 214, 280.40445926148
1837, 5.3715868198935, 214, 296.32060015101
1838, 24.370946384333, 214, 252.06418926051
1839, 9.2014520602596, 214, 292.94831469936
1840, 47.508666510309, 214, 274.18861491279
1841, 71.734796703205, 214, 297.88328536392
1842, 10.679828621869, 214, 256.63475888139
1843, 25.601601503533, 214, 265.41353334607
1844, 36.46338195568, 214, 284.9739381275
1845, 19.230503702055, 214, 291.53559855539
1846, 69.363081419262, 214, 287.40854808212
1847, 13.883160560526, 214, 275.4553201817
1848, 16.862508489096, 214, 300.42897142425
1849, 60.436648044472, 214, 269.53951284901
1850, 32.257480311006, 214, 254.60390987672
1851, 4.2390634037051, 214, 305.63436665052
1852, 70.667615755365, 214, 271.42606155612
1853, 1.4954135289162, 214, 297.58334073026
1854, 1.4900692415635, 214, 291.81566306599
1855, 11.27225561528, 214, 292.22664740207
1856, 68.811035769673, 214, 295.41539171081
1857, 52.374140820992, 214, 254.70329611547
1858, 31.767175153651, 214, 277.68172014954
1859, 68.894055462577, 214, 269.2514025249
1860, 58.097281236391, 214, 281.27571028867
1861, 64.049808311828, 214, 278.37605785038
1862, 18.514117467444, 214, 266.91520383635
1863, 69.038856766857, 214, 276.94240444941
1864, 28.055847759817, 214, 254.32804887693
1865, 5.4245597296413, 214, 291.11468520158
1866, 25.291849560371, 214, 293.32757447332
1867, 69.321419757472, 214, 263.79350149653
1868, 21.627070986032, 214, 290.49893475872
1869, 45.981315182986, 214, 266.01414953629
1870, 71.133632287639, 214, 278.81185046794
1871, 73.153970133861, 214, 262.10900381521
1872, 9.0656408291858, 214, 267.30385841188
1873, 19.037677901953, 214, 282.62038360196
1874, 51.398524392692, 214, 279.72710185526
1875, 9.1558606918339, 202.76745240644, 308.5150241603
1876, 13.332273507938, 206.72119400751, 306.88627654312
1877, 4.9507501952691, 206.81720529886, 309.38549329031
1878, 4.9399218206915, 198.85971768007, 309.52772081335
1879, 13.208382977008, 198.73539503152, 307.09488131065
1880, 9.3027579384611, 197.41681113392, 308.56878556414
1881, 9.1345661334703, 208.12548655228, 308.42379505854
1882, 14.165630756244, 202.77566049352, 306.57038265311
1883, 3.9023939098473, 202.77660510313, 309.60175225277
1884, 14.783844178601, 208.87283182704, 306.14119862698
1885, 3.1557601257209, 208.8757389342, 309.57675504798
1886, 3.1639275863164, 196.67149638282, 309.79000329703
1887, 14.87376144756, 196.67013593378, 306.3344847709
1888, 11.333023312183, 209.39879927726, 307.66373898701
1889, 6.9607134976628, 196.15216890428, 309.19844657067
1890, 6.7669136824558, 209.43252230335, 309.00332541015
1891, 2.4762622829467, 200.33819783411, 309.78581569421
1892, 11.427582236328, 196.07397122513, 307.8766688195
1893, 15.262456773794, 200.1699662071, 306.06139637495
1894, 15.471810463894, 205.1978208037, 305.84859200367
1895, 2.6986988620039, 205.38117802411, 309.67965034033
1896, 11.837315919391, 203.91427182635, 307.57233246771
1897, 8.0261411792202, 205.44764171563, 308.77809143087
1898, 6.4134636835393, 201.63296338181, 309.21608653945
1899, 10.297195670579, 200.0998121269, 308.20412061446
1900, 10.484040969968, 206.06681454854, 308.03072149047
1901, 5.8456523116876, 204.18609949211, 309.28032276098
1902, 12.338607455851, 201.43995835471, 307.41687587598
1903, 7.915594697824, 199.56306132138, 308.91218772115
1904, 9.1303116796211, 210.30369742627, 308.38540615353
1905, 9.1860685126065, 195.24129660594, 308.64307997229
1906, 1.7310598862316, 202.76745240644, 309.79187111864
1907, 16.09012329829, 202.77109015836, 305.55112001592
1908, 11.209225768652, 198.18432548458, 307.91866540245
1909, 7.0827807306154, 207.40653773138, 308.97006626744
1910, 13.827906268099, 204.7268899845, 306.69485596607
1911, 4.303628439726, 200.82532800856, 309.58479338477
1912, 13.46621869811, 195.42315630135, 307.04200581656
1913, 4.7307278679731, 195.42559305449, 309.6198786688
1914, 4.6964065834614, 210.12566488617, 309.36557466226
1915, 13.376160445914, 210.12304553919, 306.80106415133
1916, 1.9087159789705, 207.32168175017, 309.70222377443
1917, 15.897788805367, 207.31917700551, 305.56937021994
1918, 15.96486360108, 198.22497973191, 305.71380988952
1919, 1.914797001113, 198.22929692999, 309.86084988007
1920, 15.999300646686, 210.26617279522, 305.45237868797
1921, 1.7627483476585, 210.27037225444, 309.65899706229
1922, 16.11157797216, 195.26643192215, 305.68978270547
1923, 1.773153748937, 195.26948228275, 309.92066103471
1924, 25.226356000273, 27.807314923204, 276.41959394165
1925, 25.561432473827, 54.938963535589, 274.75187948251
1926, 25.085992569073, 81.804786741949, 273.89251294752
1927, 23.616756059744, 108.75409551254, 274.04347497402
1928, 24.59293731061, 132.74958502601, 271.8001946915
1929, 21.759138344938, 156.89307654038, 273.4924545695
1930, 17.150042179548, 42.086255865034, 281.6869009644
1931, 27.050020906385, 171.17646205483, 266.18509199197
1932, 16.961226867669, 68.098658924749, 280.75496095464
1933, 32.029049166304, 40.698310554568, 266.60778857451
1934, 33.099256033085, 16.427291898832, 266.37053154638
1935, 16.092616489753, 16.122275567295, 283.24709755693
1936, 16.189941609442, 95.026649193992, 280.1042740443
1937, 31.294669993668, 68.558659774389, 265.90805958268
1938, 30.134045226029, 95.569523961269, 266.09425985824
1939, 15.820572045335, 171.99249439969, 277.23186721654
1940, 15.563319456142, 121.7691062782, 279.38017322446
1941, 15.189548120082, 143.39691388945, 278.72347815928
1942, 29.542218319023, 119.91971682166, 265.39374598186
1943, 28.899197685197, 146.04674523918, 264.64896512802
1944, 13.28591362489, 81.818584389376, 281.99391056928
1945, 13.210059755361, 55.124050940034, 283.03145132533
1946, 13.183629557302, 29.277101299825, 284.01189133919
1947, 33.128923083119, 53.664286740269, 263.1029180213
1948, 29.312825275589, 158.89767946269, 262.71359854162
1949, 32.039868619314, 81.931105920247, 263.1643610493
1950, 34.257812825793, 28.684532299481, 262.59083752857
1951, 12.81846861236, 107.75593136275, 281.20700925947
1952, 26.13553125149, 12.312762231737, 276.28918116901
1953, 31.400376134921, 107.59488010695, 262.35258886453
1954, 11.979973180146, 160.61358227977, 279.55557607242
1955, 30.541712913004, 134.73112208183, 261.9466065654
1956, 10.802920816793, 132.34800896585, 281.05285634159
1957, 26.187752919068, 39.054393159217, 274.90031854865
1958, 25.166438223003, 65.681192277651, 274.61987669422
1959, 22.755639399043, 178.07901724617, 271.46400099884
1960, 24.328540613841, 92.31504472758, 274.14510309899
1961, 23.72039171648, 119.2526308356, 273.42233269791
1962, 29.648758096623, 178.41066426259, 259.93726215943
1963, 35.759190365365, 9.400872408902, 260.14971174773
1964, 23.314383925522, 142.82816737686, 272.6603428139
1965, 9.9042307214613, 9.1938313141193, 285.83545891683
1966, 9.5903313053061, 151.17546447332, 280.76049166597
1967, 21.939851260931, 166.40486664479, 272.8656190813
1968, 9.5417548900703, 178.94974161151, 279.75862896045
1969, 34.102055828503, 62.42704118652, 259.19522518336
1970, 9.3356240050874, 73.365142627408, 283.66767378615
1971, 9.2469942863128, 46.812143092911, 284.65272989274
1972, 9.0855922702971, 63.462719872324, 284.09400069814
1973, 9.2176642254645, 37.734689030365, 284.9884514599
1974, 33.112685219679, 90.231501414817, 259.13274744395
1975, 34.718794651703, 45.38934923082, 259.19186032321
1976, 9.3083004066597, 90.029723315293, 283.07108488119
1977, 8.9904514982228, 21.345499867081, 285.63807386701
1978, 20.106124059347, 50.294029715305, 279.55258737575
1979, 9.0366094266542, 116.04503177185, 282.20377079301
1980, 30.39830398916, 32.390692167668, 269.9659567172
1981, 33.722895368742, 73.811257083879, 259.07436658426
1982, 31.32819201407, 8.4080623403805, 270.07135757743
1983, 20.160786806643, 59.830106431761, 279.11115600851
1984, 8.559029749513, 99.746026016611, 282.92241104778
1985, 30.385686479162, 167.02562905826, 258.91797393767
1986, 20.21220541443, 8.391542253593, 281.23819282192
1987, 31.825113716433, 126.13258138922, 259.08099888215
1988, 20.036895402304, 33.81074458899, 280.29215372498
1989, 35.689362673454, 20.650737937809, 258.88560408646
1990, 19.576467632256, 76.310372854616, 278.81409193539
1991, 28.835658518689, 20.141406051751, 272.85821513174
1992, 35.119335398592, 36.677343968073, 258.85791465809
1993, 30.050755160832, 60.105352959132, 268.71331646546
1994, 32.891336772769, 99.645814190948, 258.69138646943
1995, 28.356487520559, 46.680668864482, 271.96719274194
1996, 21.491692755095, 100.43797639388, 276.33639953459
1997, 19.437969029313, 23.926237674733, 281.08776706126
1998, 26.899145652603, 73.700169016365, 272.27744884803
1999, 31.125661846922, 151.37207049284, 258.30259543146
2000, 18.624015013199, 129.60614025972, 277.21092230186
2001, 28.771763676022, 87.527460074311, 268.93511285065
2002, 19.370114510809, 86.825414685079, 278.51036615992
2003, 27.960800047131, 103.30613724039, 269.1544563191
2004, 8.4090906790113, 168.41070979905, 280.48026178569
2005, 18.003923269573, 113.96597337602, 278.27479320006
2006, 32.448842490257, 115.05037857953, 258.25472794971
2007, 8.2841981271367, 124.90218638645, 282.08613849733
2008, 28.535624660939, 127.96970149261, 266.63665439353
2009, 31.465457178095, 142.16692129484, 258.27518404202
2010, 28.482742480121, 112.44711364731, 267.77349672657
2011, 8.1686007964966, 140.17543116812, 281.56513542593
2012, 17.007148738549, 151.26084143863, 277.36324312757
2013, 26.703291183942, 153.45650152397, 267.88825729109
2014, 16.615926353373, 180.40375413031, 276.40759561373
2015, 26.539406112295, 180.65495389801, 266.38788374462
2016, 27.49728361138, 138.68320482975, 267.61771813605
2017, 19.177588011849, 136.82272135668, 276.51324887907
2018, 25.567033802353, 161.21154461338, 269.02753770512
2019, 32.187287323537, 23.66397423269, 267.57652122545
2020, 23.728256905113, 18.881735465856, 278.18159383829
2021, 30.923841798746, 75.935623664209, 266.06604811468
2022, 22.871446611592, 149.80359363718, 272.76331962637
2023, 16.548597914408, 165.17878247347, 277.07495024419
2024, 7.2003719095992, 79.872758712295, 283.95575088339
2025, 23.660247710707, 125.98501501149, 273.14813595078
2026, 6.7286198174682, 28.053896127462, 285.89513397777
2027, 31.981580185002, 47.591228283482, 266.1723944216
2028, 6.8347484394369, 57.092734181851, 284.842244136
2029, 34.871274227942, 56.092740786128, 256.8681156463
2030, 16.428432731193, 102.20581225808, 279.68858690374
2031, 33.904837460034, 83.904469143469, 256.74879993929
2032, 30.063040810854, 53.359299049757, 269.1359493791
2033, 27.650661501819, 5.9773390610233, 275.0215805286
2034, 6.6151632235953, 15.136501391051, 286.3747940182
2035, 6.6307744722172, 106.30542771573, 283.13070643217
2036, 23.819517822435, 45.543140100024, 276.87247356422
2037, 5.4381825114194, 157.08759347244, 281.54911601145
2038, 31.135660826648, 160.78732206798, 256.8728101627
2039, 35.85876522563, 30.464330676076, 256.46087203101
2040, 30.609424879519, 173.02871462136, 257.25604980826
2041, 33.206164034501, 105.76641331957, 256.34301682992
2042, 34.369287663207, 5.8047411557013, 264.48586218308
2043, 14.844954382123, 5.8133260774748, 284.21539279739
2044, 21.724337381702, 70.35226212088, 277.49694849672
2045, 36.392749159586, 14.821633794287, 256.57776454241
2046, 33.292904847483, 34.690915904832, 264.43753951188
2047, 28.618802108132, 81.178845222855, 269.56114346924
2048, 26.720862128162, 97.487512096492, 271.1780459588
2049, 28.19772573924, 165.16950286172, 264.55396345919
2050, 18.884619293411, 107.38865708656, 277.9719014903
2051, 34.36212452921, 68.002374751166, 257.28226829776
2052, 32.374617226364, 132.23306158009, 255.7559630911
2053, 29.93669008559, 14.252821074229, 271.74772058154
2054, 14.700437431676, 61.194752065324, 282.16272972991
2055, 15.026505473235, 48.08205032687, 282.51682208564
2056, 14.921540599478, 36.219815999193, 283.02023042302
2057, 23.418070290257, 172.09592254716, 271.05306605232
2058, 16.471111214412, 157.60559822341, 277.43109820053
2059, 7.1715366292472, 146.01344329884, 281.59747185411
2060, 26.573513089846, 122.90557117195, 269.91538386026
2061, 32.806338744894, 120.98770326098, 255.56514586054
2062, 5.758658295063, 173.8311645868, 280.89761744659
2063, 5.9464299289666, 130.46079560156, 282.40309944498
2064, 30.879372108887, 101.23632233849, 264.14456087024
2065, 5.8493334697786, 163.05156730168, 281.26362380825
2066, 21.232013041738, 14.200112634664, 280.30687386679
2067, 14.928275745666, 73.751208109658, 281.5732616361
2068, 5.6456193088047, 68.502270883186, 284.65094476663
2069, 29.360459349858, 26.810422167571, 271.79155639963
2070, 30.590702196852, 182.36734161247, 255.77797250638
2071, 14.652433936248, 89.37089857822, 281.10029998385
2072, 14.523970094786, 137.55955802006, 279.29339972209
2073, 14.571154550996, 21.837455365867, 283.72416683368
2074, 26.903438607396, 33.305036372989, 274.42498382929
2075, 29.636338695764, 37.956740580037, 270.74327428772
2076, 36.914031141389, 5.1681813627865, 255.48644799079
2077, 35.260685343821, 50.31950730991, 255.85082156944
2078, 13.697793856832, 127.06030463371, 280.09201769676
2079, 5.6486870961851, 94.9231332645, 283.7152931961
2080, 19.817902249123, 146.11766952717, 275.62900838735
2081, 5.904913500739, 42.106669914613, 285.54242910061
2082, 5.5811482788689, 51.598554165221, 285.25915337429
2083, 5.7143857384125, 5.1704209962185, 286.87935418093
2084, 33.773524882574, 94.765632172201, 255.32482392623
2085, 21.174530435148, 39.359219452104, 279.26934092453
2086, 26.809404696557, 60.40327728559, 273.10314738937
2087, 5.6541824200405, 85.502811287454, 284.04788640799
2088, 34.309093743183, 78.30929004653, 255.61406153541
2089, 28.822876403739, 65.366300278923, 270.23620852324
2090, 5.4805407850269, 111.58385327591, 283.15346990153
2091, 23.668609932826, 5.0861208729338, 278.85753983843
2092, 20.132897962413, 182.83472897649, 273.7239643189
2093, 5.4747185253399, 182.66156086822, 280.63598986924
2094, 31.716413552619, 87.319836831456, 263.45070641362
2095, 5.1971600742381, 33.330057551744, 285.96249257778
2096, 36.227825448957, 24.990165192674, 255.39495518929
2097, 35.627415674013, 41.228721322067, 255.57043081193
2098, 20.219474753998, 122.49637135175, 276.36088417675
2099, 30.944466424466, 113.05348694591, 262.968516573
2100, 24.75916737807, 113.95376875885, 272.59684462053
2101, 5.1411433093249, 120.37045436044, 282.89726878413
2102, 34.081958270138, 11.303468944561, 264.67042915123
2103, 11.782100857528, 68.313895405063, 283.07877003935
2104, 32.713248583458, 59.271817871601, 263.60666013507
2105, 31.899465361354, 146.83570285897, 255.51319990485
2106, 29.210258859726, 173.27359883535, 261.65375376414
2107, 23.874715286502, 76.523692580041, 275.35683359194
2108, 25.739721551663, 146.51984769576, 269.65075693964
2109, 32.326110205789, 136.98338252581, 255.03862185797
2110, 20.742552682172, 81.567893769848, 277.75750254191
2111, 19.683701950877, 173.85604437763, 274.50147289319
2112, 25.613225220512, 87.11965602436, 273.04987608844
2113, 20.775032537089, 95.208847770517, 277.13567074559
2114, 28.710270327717, 183.35274039443, 261.94801480622
2115, 29.370283088972, 140.72684491728, 264.11435391975
2116, 20.020361269211, 161.69956910663, 274.7753819717
2117, 20.820043208048, 64.716239777982, 278.43215726881
2118, 11.405936491072, 94.930083352168, 282.22602489237
2119, 28.595837660249, 133.45433434021, 266.14689204862
2120, 29.427172548291, 153.58184475038, 262.91571425727
2121, 13.385313642945, 113.1427611785, 280.76307224378
2122, 12.244763310225, 183.25678862395, 278.58861413316
2123, 11.870504938092, 42.122637971657, 284.01739556789
2124, 25.422126799117, 166.8977774817, 268.88963895008
2125, 14.370356283527, 11.147456858569, 284.21547259135
2126, 5.1609693565243, 135.78612624559, 282.34914132789
2127, 17.796104567173, 29.079942698899, 281.84992687824
2128, 23.767916689072, 183.14649582612, 270.06411736543
2129, 27.267725421188, 117.61632292084, 269.2755476236
2130, 35.170080083789, 16.056215154887, 261.2950295326
2131, 31.620911457623, 155.67557938431, 255.31018924258
2132, 22.07136737353, 54.969798844121, 277.90735536874
2133, 34.266997448289, 40.539786888493, 261.30712147002
2134, 32.317248265772, 94.761148526025, 261.16292542454
2135, 11.001563267369, 173.80077877054, 279.44243902702
2136, 25.601687734307, 175.76200329094, 268.11476364103
2137, 33.293552945748, 66.924527805339, 261.31246933981
2138, 33.216261778655, 110.94657580668, 255.23115452469
2139, 12.590288509501, 155.3523520422, 279.50065663428
2140, 27.952957930986, 92.526686547121, 269.82396121877
2141, 24.758228375597, 103.68279759883, 273.12657007155
2142, 11.075745256305, 146.0540328215, 280.4477779561
2143, 23.210719873849, 137.59820173283, 273.02657625612
2144, 11.339568661486, 16.788289262177, 285.12888248898
2145, 34.096399921567, 20.768881323984, 263.77739537913
2146, 17.827155796339, 54.745242055726, 280.80123927153
2147, 24.132468571045, 50.568557116391, 276.35432353803
2148, 10.842647253465, 120.40847185752, 281.48031513835
2149, 19.669350767876, 18.926098459289, 281.14859392515
2150, 5.026320113823, 10.08485783651, 286.80621287046
2151, 35.043743794213, 60.617732492989, 254.88933524758
2152, 32.013830795492, 28.637806629306, 267.53170493905
2153, 30.686198340863, 146.75731341639, 260.3201616272
2154, 29.226983569735, 107.7411525668, 266.85256119108
2155, 25.801628385311, 22.802909152157, 276.10436598746
2156, 35.832016646702, 4.2647260526612, 260.54368051453
2157, 10.458342369798, 4.2444604869482, 285.8577544896
2158, 4.7729273248902, 75.213650515097, 284.54531622735
2159, 31.976122634246, 63.677470355791, 264.89789593555
2160, 36.839771454092, 10.112864611379, 254.76652676678
2161, 4.7615296886876, 150.84622064858, 281.87869482988
2162, 30.195254091359, 124.39170844621, 263.69586202117
2163, 19.975255760236, 45.346997273333, 279.84929465809
2164, 30.946893093547, 177.60483466667, 254.67423894354
2165, 30.661086743581, 129.72978852274, 262.12028255602
2166, 13.456572372169, 168.26273791567, 278.61829170569
2167, 18.778792165998, 169.18166633096, 275.40500614916
2168, 4.7238648058605, 61.364955446018, 285.04010289958
2169, 34.110097364327, 88.42381647258, 254.54959993594
2170, 31.632035953218, 119.43287918495, 260.50034938707
2171, 20.338155849007, 117.66745808456, 276.48236674112
2172, 22.010936554386, 29.589104422124, 279.07474429347
2173, 15.897285920588, 133.11546364843, 278.74887335985
2174, 31.23769367257, 168.83403096278, 254.79906757833
2175, 4.7815640646403, 23.531749472811, 286.36524306309
2176, 10.521438673785, 32.724140614937, 284.80156315474
2177, 23.593518518456, 61.672007224091, 276.31941255331
2178, 11.471759190592, 77.290722417061, 282.85581771457
2179, 10.802407616313, 51.24408541916, 284.03746497265
2180, 26.044042106789, 128.45208454501, 270.28929434971
2181, 21.173053503182, 133.07203434661, 275.12016860872
2182, 30.276584669012, 4.2393383877453, 271.87458033934
2183, 10.280214127377, 85.385177085943, 282.95192137082
2184, 33.710655767782, 49.081477471207, 262.00966838837
2185, 32.491708527663, 72.150826019303, 262.95839088616
2186, 23.610388434686, 35.262837096574, 277.53108265034
2187, 32.635726546212, 77.193691518308, 262.09343704361
2188, 12.00693424127, 103.12485555392, 281.70113907495
2189, 34.668252982995, 72.830760747619, 254.48136990008
2190, 35.61971375876, 45.820082842905, 254.4766932793
2191, 36.554278726684, 19.103554718132, 254.52177303515
2192, 4.6719147777607, 101.85901077818, 283.61994643913
2193, 19.122981764588, 3.8262409376146, 282.10230950651
2194, 27.934209218065, 176.83225263343, 264.17491330703
2195, 4.6479764529707, 46.832379025391, 285.56211775226
2196, 4.5366256980435, 90.366042832829, 284.04340294579
2197, 27.655394827513, 42.190503702888, 273.0889683419
2198, 25.311047158077, 70.33353639899, 274.23686725249
2199, 31.32079873793, 19.485384725091, 269.35683921089
2200, 10.878655699284, 59.084761255149, 283.7255926126
2201, 26.65317623418, 107.47050713217, 270.69955050686
2202, 36.024709460948, 34.544864008858, 254.41027841948
2203, 18.423957149707, 91.464804954417, 278.93886613071
2204, 15.393587167391, 117.15699443644, 279.6510465841
2205, 17.131950260907, 79.9997268785, 280.18322167149
2206, 32.783729202757, 126.75770259817, 254.36864460596
2207, 21.773458483037, 112.71409209584, 275.54318665398
2208, 4.4554854914469, 178.21539932728, 280.95760287961
2209, 14.359202572256, 176.42632183821, 277.85587551616
2210, 26.747143160807, 16.782847139805, 275.44068720628
2211, 10.781864939611, 25.284916706403, 284.9936903772
2212, 28.873802289961, 69.961315855536, 269.88189050078
2213, 27.394540016473, 157.43442435286, 266.54340905895
2214, 35.264460967136, 25.116984946061, 259.88201760026
2215, 23.374677158837, 9.5591555394176, 278.89549997628
2216, 33.644084478988, 101.55063093297, 254.5754056473
2217, 4.5383711869226, 37.853291888173, 285.89234683015
2218, 30.021430006113, 162.79754328417, 260.53123832366
2219, 30.07000736576, 90.828233781636, 266.55960550407
2220, 28.814986265397, 10.053354019836, 273.44652432511
2221, 26.814268924098, 78.249072580693, 272.13081107794
2222, 3.8523428688517, 19.011451463619, 286.63411145141
2223, 27.813241773123, 51.164257820394, 272.40231501719
2224, 13.279170167584, 98.823647749938, 281.35280193463
2225, 24.841055098712, 156.72947775627, 270.21493039972
2226, 30.563793037147, 44.199263699026, 268.94007496288
2227, 19.114910986851, 141.64524075042, 276.35070403951
2228, 9.7575180158522, 110.73261611498, 282.18661833221
2229, 30.573193894131, 155.79209411143, 259.64878554146
2230, 22.64434758049, 85.229084129978, 276.05996522195
2231, 34.701109275333, 32.42336892577, 260.88330503606
2232, 32.295814524654, 103.7874223263, 260.22452599355
2233, 22.8858381435, 25.202383138289, 278.58769786243
2234, 28.989779265283, 168.9966341403, 262.57212688632
2235, 15.885942229455, 85.145200748475, 280.65497303234
2236, 31.947561288504, 12.066345046032, 268.81962866422
2237, 20.375490387482, 152.76768520835, 274.88858627339
2238, 4.4863443168737, 142.11825945883, 282.22633952791
2239, 32.251099943431, 110.86749873471, 259.52561253859
2240, 23.655571551467, 96.907965623718, 274.58268736076
2241, 30.433292827642, 84.040171581367, 266.38814727374
2242, 4.2262729258606, 126.4369136075, 282.81368146248
2243, 33.143494608216, 116.46290610693, 254.39044109685
2244, 4.3670278026697, 115.96892023777, 283.16398705703
2245, 4.1156360597154, 168.70087959304, 281.33975143589
2246, 31.940345874923, 151.16000617681, 254.24633893845
2247, 17.52192869031, 125.46866809059, 278.10372832256
2248, 28.577065332564, 56.972020173567, 271.07952716709
2249, 14.917872942826, 147.57546004855, 278.70115769842
2250, 10.465761314449, 164.61686598109, 279.97703401013
2251, 32.620170083093, 3.5185776714674, 268.24758184439
2252, 29.156456981414, 99.256003007381, 267.55584341262
2253, 21.700960378421, 104.8041251484, 275.96583718375
2254, 18.385633244792, 71.896433376519, 279.76946573288
2255, 33.319953441677, 44.831201646642, 263.45608093186
2256, 21.909962377927, 89.642620297871, 276.480628578
2257, 31.470621198533, 164.43155085074, 254.26212629106
2258, 27.088296186936, 143.02045607963, 267.96772820749
2259, 18.38643634015, 98.425033608497, 278.67440705978
2260, 23.064916733928, 162.43742735693, 271.93178503283
2261, 33.451578766668, 80.454559820038, 259.18804824656
2262, 32.306788513354, 141.73740866776, 253.97508479076
2263, 15.827041935361, 26.070147592496, 282.98945788889
2264, 28.22317200098, 150.13733813724, 265.61961359992
2265, 15.74431873948, 110.05447141887, 279.747226772
2266, 19.015732416243, 177.9245267395, 274.84475667562
2267, 31.342099353595, 36.208902010977, 268.18484037761
2268, 31.610102442732, 56.019012131903, 266.25303731918
2269, 10.431627863981, 136.67621065184, 281.0201264306
2270, 18.049866087392, 11.867919588833, 282.3966252235
2271, 10.188141908867, 128.5842487344, 281.39816299648
2272, 34.441961867802, 52.659853252973, 259.2446581547
2273, 31.139873341621, 138.2034845728, 259.89380225151
2274, 11.875156061055, 141.01244861241, 280.33412758066
2275, 29.352406749969, 115.85061230833, 266.0509687435
2276, 17.092810250158, 184.25203762774, 275.94066966948
2277, 32.870684247096, 85.092504169586, 260.57051204675
2278, 33.731649928044, 25.130567449664, 264.26104944217
2279, 17.332266322077, 64.005451164354, 280.71163189254
2280, 15.711623862127, 32.232557838392, 282.80614103714
2281, 35.010713811783, 64.697354099079, 254.01972222639
2282, 30.063712396509, 49.274424565476, 269.3992640774
2283, 27.061446597767, 184.17074048934, 265.26227408209
2284, 15.511422257734, 161.51178890763, 277.82890568444
2285, 13.490453072713, 151.32242942327, 279.25507274512
2286, 13.484981996052, 65.238004237513, 282.53818036693
2287, 18.646622603334, 37.20048510002, 281.02919318877
2288, 33.693372034398, 56.787139096472, 261.23433915228
2289, 27.536037003289, 84.381747169465, 270.87340167469
2290, 26.105643576208, 136.1184772873, 269.76961497269
2291, 28.11829602872, 161.2146441084, 265.00249772315
2292, 9.3080920433137, 12.903155555312, 285.86109790766
2293, 30.806262493711, 79.618237254384, 266.0134215153
2294, 29.783754284464, 184.00017991231, 258.86323949218
2295, 29.508090849917, 137.12991658653, 264.11746742416
2296, 25.309064735516, 140.17107236048, 270.55589894556
2297, 3.8670315328135, 54.511972718805, 285.3857281659
2298, 3.5307838661012, 159.7670946356, 281.72493789045
2299, 9.1682459577242, 183.88520785299, 279.69548516433
2300, 31.841880998931, 51.526421405023, 266.14408795532
2301, 23.979321220364, 14.986896563621, 278.14719357595
2302, 15.40734488006, 51.979366579779, 282.18728890308
2303, 30.178995709418, 22.782229016246, 270.89122260156
2304, 24.428574928874, 179.45350187839, 269.46192709915
2305, 31.886950113604, 91.403808409856, 262.659728813
2306, 3.8697655146012, 82.523023136452, 284.40126362043
2307, 35.414658663474, 53.671688807126, 253.87240745539
2308, 28.870065493713, 76.258913355888, 269.49703820205
2309, 24.128958862483, 153.04751638095, 271.25481457755
2310, 15.879427991199, 105.78856539148, 279.84417290466
2311, 34.454810216066, 81.118557223366, 253.83225609022
2312, 24.076643072762, 57.727593897995, 276.06601578838
2313, 27.732864886846, 29.772544435774, 273.66945559128
2314, 4.2688726977635, 65.244666196233, 284.9619544491
2315, 3.8306514275566, 98.118062175184, 283.85763094532
2316, 3.8056207949522, 71.71621252667, 284.78807693658
2317, 3.7549911850355, 154.53743760738, 281.88307546338
2318, 24.307837631837, 32.107521578488, 277.06556318669
2319, 22.871598684562, 129.94623724973, 273.73594559064
2320, 23.460996533437, 41.742364432898, 277.3611183639
2321, 12.399059676013, 124.42057566385, 280.74941429005
2322, 3.8727369743721, 108.53241567002, 283.48676779319
2323, 20.18344598278, 127.07277524601, 276.18699672204
2324, 16.887390756134, 58.392236349906, 281.18158644049
2325, 29.942298787669, 149.83856715354, 262.0271241597
2326, 3.6890804139101, 30.099304434079, 286.26173827066
2327, 8.199660919524, 160.35483560113, 280.8284575042
2328, 25.694699340317, 47.722156637413, 274.97643984379
2329, 26.111030445614, 3.1002783778763, 276.7648277073
2330, 19.296089695796, 102.66582346888, 277.8904400606
2331, 24.503168485928, 122.77548017976, 272.42031639318
2332, 30.200124883598, 72.030654743359, 267.66004193042
2333, 30.44896750783, 104.89880392173, 264.75781156553
2334, 36.303903585683, 28.02919544097, 253.97800899797
2335, 30.237858083385, 170.66691823664, 258.96966478485
2336, 33.860123536057, 97.877383333972, 253.88303041009
2337, 29.041057629923, 124.3790364516, 265.99926005517
2338, 27.087559191963, 67.896549339525, 272.36762830219
2339, 21.919462121663, 74.006400913612, 277.17791501363
2340, 22.092249612645, 21.732840788915, 279.35709307535
2341, 22.334060478675, 146.24358953068, 273.46273992139
2342, 12.413168748557, 179.40601799575, 278.66249647996
2343, 30.86778645279, 116.70060658787, 262.82154445975
2344, 7.9585190606253, 133.47683400062, 281.85991878021
2345, 34.109859384129, 91.843492391076, 253.53701982534
2346, 33.119751420716, 8.648493214592, 266.93435485274
2347, 35.930947899587, 12.895442159132, 259.03581002625
2348, 31.630362042979, 159.04865806433, 254.47890910082
2349, 9.1460885774747, 55.031430269142, 284.38257780124
2350, 14.408145149387, 44.641956708287, 282.92667246857
2351, 33.894833728838, 70.510432326447, 258.87593210983
2352, 35.367556687441, 57.367507089358, 253.02496334563
2353, 35.939308119365, 38.220822460581, 254.03670877087
2354, 16.698873692166, 8.4994601300195, 283.2449264647
2355, 25.138631211217, 100.07067991191, 272.90022228978
2356, 34.167263289934, 37.238186300342, 261.95868573216
2357, 25.620384685655, 149.73464997919, 269.62200456391
2358, 9.8240196232823, 155.0284307959, 280.54535169657
2359, 9.3577331281975, 82.084655216438, 283.34538904725
2360, 3.285747008993, 13.078815964455, 286.89726667512
2361, 21.890477847242, 140.28411490885, 274.15871095285
2362, 31.317239548096, 97.726218688604, 263.46017271942
2363, 21.348131281056, 169.84103045207, 273.25640445482
2364, 32.612088962916, 134.34006929211, 253.58680450026
2365, 9.5663454420145, 143.76019417069, 281.03902970121
2366, 32.379574422433, 32.242864925215, 266.57211482875
2367, 33.030897779071, 123.41557563819, 253.24828686496
2368, 12.192671683287, 38.528777515614, 284.03659667804
2369, 26.180907129639, 111.17468887317, 271.08813584293
2370, 22.817638894455, 115.95605215827, 274.46030227698
2371, 28.058958270012, 24.028897642955, 273.59482766945
2372, 31.722680717032, 134.80783223935, 258.30743461608
2373, 3.2547830400653, 132.79071512131, 282.70126966946
2374, 31.989815720209, 122.62542495911, 258.94849939773
2375, 26.113768871251, 8.7941154429076, 276.4836381231
2376, 3.3228500079077, 77.978481982193, 284.61782237545
2377, 26.410498164752, 131.56490469114, 269.6282332285
2378, 19.457970258375, 165.18321231002, 275.06564580662
2379, 21.792804302443, 2.9648788211407, 280.39028153171
2380, 33.551410753861, 107.86679507746, 253.49745526329
2381, 2.8620764191582, 138.87489370946, 282.52469759725
2382, 12.163346564149, 117.32138532548, 281.10975001493
2383, 3.057659315755, 58.83422087677, 285.3133348614
2384, 15.638768267568, 77.294559261328, 281.0889951279
2385, 9.8319686247396, 29.370441483242, 285.12422875941
2386, 8.8754624190724, 76.861671184511, 283.66563885028
2387, 31.202576670946, 174.41600490192, 253.59732595143
2388, 9.0803834926433, 103.27201123549, 282.65466204
2389, 34.368245399641, 85.703484901416, 253.09327925548
2390, 12.079484602883, 91.536814175288, 282.1062874717
2391, 32.8225985409, 129.91579726341, 253.04174989169
2392, 17.761297136846, 119.30552502647, 278.20772643863
2393, 13.421356970168, 2.7457484501635, 284.91325102465
2394, 30.860892471444, 184.80083059712, 253.39079374688
2395, 34.882708585354, 2.763980864852, 263.49877522353
2396, 28.836098259037, 34.738918599729, 272.02766079155
2397, 2.7617591347679, 123.24931670481, 283.08095665962
2398, 36.890654476675, 13.266922916089, 253.28594191114
2399, 26.333411377215, 90.38342657865, 272.04640570995
2400, 34.919242997423, 69.581633595682, 253.24996882841
2401, 16.321940156756, 154.29076535668, 277.6546177067
2402, 14.319147506047, 70.34746055086, 281.98441460699
2403, 3.7056042015906, 147.65914913197, 282.13065246219
2404, 21.639125324108, 185.46824256344, 272.23046977823
2405, 22.823213248941, 67.139999475928, 276.73956733467
2406, 17.269605832312, 175.44150647681, 276.19263119106
2407, 31.768904094271, 129.66785303512, 258.82512566778
2408, 35.302193480318, 28.536191957635, 259.28763832851
2409, 37.244701918962, 2.8394484164707, 253.41399056277
2410, 3.0863955879049, 165.65602370412, 281.56462896572
2411, 34.452633267237, 59.659231686554, 258.20703490935
2412, 19.901070256464, 110.65701762622, 277.116647049
2413, 16.132122101492, 168.69773775255, 277.18234818245
2414, 19.370875954851, 149.85219191569, 275.80564729404
2415, 25.263016965153, 170.21446253829, 268.90925295587
2416, 36.575616009128, 22.309927665886, 253.26347834593
2417, 30.068403130886, 175.18406957148, 258.98601782098
2418, 16.220409371317, 140.14258078269, 278.28527781101
2419, 13.700328324497, 164.12044868773, 278.66281340854
2420, 18.353097356274, 134.00470360277, 277.20929857473
2421, 3.4153108366866, 26.68104457838, 286.40844082657
2422, 28.515834336702, 2.8103707373589, 274.20219619082
2423, 3.3495027991577, 104.79540776597, 283.6742901362
2424, 30.308471372763, 40.951182829999, 269.55602428564
2425, 28.482630939398, 179.65885920229, 262.79897270466
2426, 34.704758035984, 75.980089660039, 253.14220333949
2427, 31.672370782455, 16.125260252066, 269.0051316958
2428, 30.500409264135, 159.19283152436, 259.48387141695
2429, 34.871655483032, 8.4899128774383, 262.96418023285
2430, 18.053098109655, 47.950446492374, 280.94437752049
2431, 32.921724666262, 64.033797144686, 262.63732647789
2432, 2.8688027464753, 171.69280431318, 281.37346594027
2433, 9.377777631854, 107.51285974134, 282.41636408715
2434, 8.8200707339637, 40.950360585736, 284.97499029943
2435, 3.3556376158851, 2.7819602351815, 287.25202034204
2436, 33.47898484866, 87.119984285671, 258.15419385379
2437, 17.359733543631, 19.314138510912, 282.47706437481
2438, 8.2959624546734, 18.043271922301, 285.92447137483
2439, 23.572155427897, 175.38961630514, 270.70653052206
2440, 22.486561476977, 48.23660039689, 277.87664821362
2441, 26.635640564713, 164.07315868012, 267.3177206727
2442, 19.601832060849, 68.284305359969, 279.13526517528
2443, 30.354248137933, 109.9500760399, 264.54806182275
2444, 21.54052273293, 78.552568103491, 277.27722231827
2445, 19.248099291394, 158.20986699286, 275.53279128188
2446, 33.697911869747, 77.114284367885, 258.71697378791
2447, 30.541296820753, 143.46699340319, 261.08290264448
2448, 32.537383674663, 107.52557068523, 258.94718279999
2449, 8.4863672843914, 171.76589816109, 280.33719073704
2450, 26.135100691535, 94.281273501971, 272.07075318799
2451, 28.600033290186, 62.051426794662, 270.74770378887
2452, 36.23994197589, 31.743110524679, 253.31787972431
2453, 12.437282331124, 8.3954205887998, 285.06653488043
2454, 31.042190192228, 180.46760467271, 253.11342465608
2455, 34.574263050903, 48.851885492553, 259.26470058921
2456, 18.491204707997, 83.90218947565, 279.20899101893
2457, 36.577321024841, 2.4265303031604, 257.87410591702
2458, 8.9595854245452, 66.961793822274, 284.00098442506
2459, 27.331629119887, 167.25266493517, 265.9781156662
2460, 35.907302947982, 17.336439892087, 258.47802865198
2461, 35.058462209941, 39.965683841541, 258.62725825528
2462, 25.66650461526, 43.121066866339, 275.23512382832
2463, 13.522685324965, 14.365637603858, 284.43855701921
2464, 37.117129095575, 7.2239784480157, 253.11646431758
2465, 11.957654033898, 20.058028684245, 284.80261475903
2466, 30.913912822848, 164.01402375761, 257.3363485536
2467, 3.1276749051622, 7.2664828921888, 287.1146965677
2468, 14.390023213636, 185.02287766064, 277.50159966548
2469, 7.7874135229572, 2.4688391307775, 286.59436556739
2470, 7.9331782187081, 60.473069326844, 284.48755980152
2471, 11.957777713945, 48.542294258673, 283.74907350346
2472, 20.544081369572, 27.081636032802, 280.23502477974
2473, 26.200094540433, 120.09104458642, 270.56371931708
2474, 28.422872233559, 95.704539036163, 268.9447643481
2475, 34.213117975985, 65.654814272777, 258.30754840334
2476, 23.583000560188, 159.0678635874, 271.54854204615
2477, 28.142993731836, 120.44364164135, 267.7894171487
2478, 33.319744527358, 113.58896840332, 253.77923131446
2479, 3.2191577033186, 184.96555672681, 280.87348442196
2480, 11.735925972498, 88.028073327837, 282.36382182373
2481, 33.688868275385, 104.58098643391, 253.27780017209
2482, 35.672918722414, 48.758623675216, 252.98167222783
2483, 25.011956877476, 73.605435599324, 274.38199893742
2484, 27.675754969515, 36.692234853109, 273.36333216849
2485, 8.6013430389886, 70.196003971581, 283.97688003315
2486, 32.643220635743, 37.633463398088, 265.61515379823
2487, 14.007728627852, 158.20923201697, 278.74365519015
2488, 19.651953547819, 42.107154577211, 280.19820809238
2489, 25.577391716924, 185.38364166472, 267.56205794077
2490, 32.185107719484, 43.925148317579, 266.05238897837
2491, 22.148794193518, 181.17322797672, 271.93638569042
2492, 26.978325721317, 100.63719114134, 270.66871627275
2493, 32.3253434187, 144.64200064074, 252.83004022017
2494, 10.803507077807, 157.97763833044, 280.10341624777
2495, 3.0532238455621, 87.467096190108, 284.30999741701
2496, 33.700072526459, 31.554093746107, 263.75235572319
2497, 23.521224445197, 168.64715181058, 271.11845388121
2498, 29.806165266239, 17.490512151548, 271.73492365448
2499, 13.731658168319, 130.76804874496, 279.93418799255
2500, 8.2385005684293, 93.141610628845, 283.24173747432
2501, 8.5071410931407, 96.566074711148, 283.0505355797
2502, 31.170401929367, 26.316987621895, 269.14614615635
2503, 33.144471940053, 93.430118168733, 258.58137542325
2504, 8.631023353485, 148.10451368517, 281.15461380074
2505, 8.4618468649685, 175.88059291582, 280.19484201125
2506, 27.945438404921, 14.040471278683, 274.26458460167
2507, 29.553547214175, 7.0385580200138, 272.68179602807
2508, 18.322977812091, 154.80195852046, 276.34968563022
2509, 32.887356318758, 19.642388815994, 266.54381276548
2510, 29.379617379567, 130.82688466623, 264.87672019334
2511, 3.0881567679262, 175.32431518825, 281.2252030395
2512, 29.947578862712, 181.25922178335, 258.64461715483
2513, 25.610057674037, 143.27379926842, 270.00412260129
2514, 34.166077851041, 14.584833721463, 264.17709432312
2515, 12.046268992085, 35.391366209369, 284.2048652418
2516, 15.259497249179, 39.410055133008, 282.74254941964
2517, 29.42578500396, 165.74265299218, 261.82298348726
2518, 3.0175951805338, 93.18538117677, 284.11268721656
2519, 35.879223692544, 43.025305714847, 252.91598784141
2520, 30.814437680162, 63.408369300022, 267.19166191618
2521, 27.90027044777, 173.68032575763, 264.48209072741
2522, 2.8932138802614, 129.61617648803, 282.84652840525
2523, 12.911910420956, 171.4778051489, 278.74508802099
2524, 21.475198722435, 108.23890603372, 275.99747449096
2525, 25.456491308477, 117.01804709891, 271.64343715719
2526, 26.836424703301, 63.584690679653, 272.90097438787
2527, 8.0263077475554, 23.957477823685, 285.77404490985
2528, 2.9344454542558, 49.345365632835, 285.65627592038
2529, 16.040128940844, 2.522449707813, 283.79889911422
2530, 8.3728612691703, 119.15380936314, 282.27054284353
2531, 2.9578174161962, 180.84849010545, 281.04404230078
2532, 25.945086953464, 19.764260997971, 276.11158891572
2533, 26.947434871206, 81.402328813437, 271.79378153301
2534, 14.516044650882, 58.063101093643, 282.36626376418
2535, 20.959727987961, 143.44856672602, 274.82605805515
2536, 20.912013911891, 11.061026029954, 280.66133403965
2537, 25.523417780568, 125.53742427326, 271.10056029486
2538, 12.252399822565, 62.172575696303, 283.1362169193
2539, 3.1446681803678, 44.063483535694, 285.82351110825
2540, 30.446167593688, 29.238468437053, 270.0934353605
2541, 6.2711166273189, 166.17197869402, 281.07060027639
2542, 30.666569446773, 11.233251311309, 270.89365606214
2543, 3.0614652797919, 40.638691514631, 285.95074817625
2544, 32.489147421982, 118.38534212634, 257.59855904377
2545, 12.136487915318, 72.887355723188, 282.78014541503
2546, 32.542167095327, 124.33487507262, 256.36152328588
2547, 36.755612764731, 16.492541921746, 253.52302557369
2548, 35.510388803965, 33.452756175601, 257.68194440941
2549, 33.117546615358, 96.549054079447, 258.2448788703
2550, 21.774211100397, 17.070164055091, 279.79565950432
2551, 16.796719368925, 136.42514641547, 278.0982430117
2552, 33.177491811267, 119.61285773892, 253.11097471113
2553, 18.834051569077, 15.995881625332, 281.77965364065
2554, 26.678405489106, 114.55469902744, 270.2605532741
2555, 36.533532983779, 8.0865355977404, 257.10292948983
2556, 16.623105429527, 145.652623803, 277.82660963235
2557, 19.814888091509, 56.666764614863, 279.48088395486
2558, 31.384418531476, 171.336122356, 252.88576414634
2559, 33.11975059258, 102.52270529185, 257.32371960497
2560, 24.780792810194, 163.99035766415, 269.88609666379
2561, 6.8415241416725, 153.47457613966, 281.40395648761
2562, 32.003281550276, 153.90161254863, 252.80116761622
2563, 32.510739749718, 139.14545973452, 252.91244560393
2564, 34.989515798058, 22.565558937277, 261.11324604509
2565, 6.7162030871532, 12.254878427896, 286.458600128
2566, 27.264944391568, 126.08000362356, 268.76290873781
2567, 34.297447920626, 75.300767925804, 256.29544273133
2568, 34.199860324351, 17.703808619225, 263.80704408823
2569, 17.369857694553, 88.982673736139, 279.68405075606
2570, 6.7596691201853, 7.8646755390926, 286.60647841168
2571, 16.185386666741, 91.918112914776, 280.22991169603
2572, 30.854284434359, 121.75374792287, 262.38790889296
2573, 27.680108795564, 147.65357213934, 266.73124338709
2574, 17.071290750548, 45.123098441914, 281.60892229699
2575, 32.389221275243, 66.486183853325, 263.72762579059
2576, 2.6776192071438, 144.74816956766, 282.33460552737
2577, 28.719652475342, 156.29278172541, 264.20844919319
2578, 8.1549150080153, 43.994842976851, 285.02688467467
2579, 2.7483695589264, 35.252346007977, 286.16467880871
2580, 32.031561397335, 100.94657392591, 261.32566676573
2581, 13.124363237358, 84.877466626882, 281.94506725575
2582, 7.1047516663389, 109.14669185068, 282.93081304985
2583, 13.013197207214, 134.68703472454, 280.10440693985
2584, 7.0483187505002, 30.932478833055, 285.73127561902
2585, 11.69633278073, 176.65152799222, 279.06612180178
2586, 7.9777005017193, 181.09032458235, 280.1381967106
2587, 31.46304358031, 145.1459991263, 257.86587234775
2588, 33.851474348051, 59.70991191656, 260.40632924619
2589, 36.253749683997, 22.076037270079, 255.88995109404
2590, 28.020044760461, 54.138500947234, 271.97520064385
2591, 21.327464401491, 36.321237087178, 279.28942808207
2592, 16.523181028161, 34.347557096257, 282.32205003279
2593, 22.217882160755, 92.648748566084, 276.08507012899
2594, 7.3203395961464, 127.67968583074, 282.22020990838
2595, 22.356128097712, 121.80300253346, 274.60764758177
2596, 24.140949481561, 38.536099295612, 276.91369960164
2597, 29.521017301482, 101.96619770595, 266.74464203941
2598, 17.235150975887, 22.367908924029, 282.42262868619
2599, 3.5086258453621, 16.477908286747, 286.75750347281
2600, 30.472545079942, 185.25486953005, 255.85934312634
2601, 8.2301311504241, 49.52773085505, 284.81077831568
2602, 23.96605758625, 89.419357047609, 274.64618049252
2603, 17.438868639421, 74.723114159768, 280.21987130173
2604, 34.6782379811, 63.133983659544, 256.57106612121
2605, 3.1597657644797, 68.780466435708, 284.95561233414
2606, 6.5781558509661, 82.745057442663, 283.97959854196
2607, 21.074492232987, 5.9221178378163, 280.76764822047
2608, 20.050055978507, 53.317713332861, 279.46302330495
2609, 6.2619025247078, 54.323691311295, 285.04797281583
2610, 12.950370579682, 32.27549538729, 283.98936359725
2611, 31.320690679975, 148.49689195531, 257.9519255469
2612, 2.7911002760504, 118.39429126294, 283.24863462905
2613, 6.3546980063953, 88.127916034429, 283.83085409266
2614, 16.446433119364, 129.20016769234, 278.59612219175
2615, 22.273652007442, 32.558527440026, 278.74290281257
2616, 11.626531691619, 45.1134742691, 283.99118775082
2617, 32.183833785108, 148.49247907705, 252.90337507945
2618, 28.459619897032, 73.337229424042, 270.26781393575
2619, 8.2194210022341, 113.2672516695, 282.52203372143
2620, 30.330673422415, 66.267722060573, 267.83525755588
2621, 23.903742028296, 53.394224920121, 276.42905924011
2622, 14.248227532433, 18.338917753349, 283.99437383025
2623, 31.58838096992, 60.748502250548, 265.93174901031
2624, 19.790164196214, 185.67602037621, 273.88189250644
2625, 35.06555850133, 18.981473700234, 261.2863811295
2626, 35.141164618714, 11.395049144187, 261.90220993578
2627, 2.9799076005461, 113.33970787937, 283.40945921595
2628, 13.577197799217, 24.448559308713, 284.03830816309
2629, 27.918549585418, 109.55454022345, 268.82846587222
2630, 31.756632383212, 161.69860204591, 252.48049758671
2631, 27.7874646148, 26.885645850126, 273.76074965844
2632, 18.42270229916, 180.744802909, 275.16567361036
2633, 32.526734092604, 88.091270493841, 261.26980685736
2634, 28.274356161094, 140.85974650902, 266.1890968947
2635, 22.985309210259, 134.66494740292, 273.39540066643
2636, 6.7273273379682, 72.906405985655, 284.30056606589
2637, 16.189595680471, 98.078101826426, 279.9834146338
2638, 31.333751534258, 132.37505953462, 259.9557463496
2639, 29.081370074807, 176.17599212164, 261.70292288016
2640, 34.648368904607, 78.889549379992, 252.5910681894
2641, 21.567753729831, 175.24837026412, 272.79360553093
2642, 30.227098877577, 57.127453713479, 268.62611499023
2643, 21.273409232767, 62.241727676964, 278.20286530375
2644, 15.056095325157, 124.6787968907, 279.52929556085
2645, 8.0073533983392, 34.851619396495, 285.38834679002
2646, 13.925822058014, 93.814534754568, 281.2625730196
2647, 8.4156273492232, 137.04653076034, 281.61325735933
2648, 30.873870503752, 126.85352944387, 261.85076944607
2649, 13.647508970861, 119.77017917344, 280.39413621875
2650, 31.386714197075, 94.340078364905, 263.59762181765
2651, 7.7040923560098, 122.02356189972, 282.33369243842
2652, 11.140405594641, 149.20853020821, 280.30684211834
2653, 17.989215611203, 171.91367341656, 275.85394736602
2654, 17.514024014325, 162.625843312, 276.56753202013
2655, 33.753687638247, 91.437991771994, 256.13620286442
2656, 22.174991343275, 153.73539993165, 273.25294163155
2657, 32.407654552536, 69.281388666418, 263.43113067641
2658, 6.2012428985726, 185.38966154184, 280.40000638339
2659, 35.338111074336, 43.922749958705, 256.69210587459
2660, 3.0393947967577, 21.445610789129, 286.62520490145
2661, 27.078274197332, 70.816855377776, 272.21844416311
2662, 26.167149959904, 51.870218518498, 274.26850116248
2663, 30.363724620674, 178.68417818005, 257.43269934102
2664, 26.507416615653, 57.518744823363, 273.60077163101
2665, 2.6097632981374, 162.50885629013, 281.71788047867
2666, 25.203196941278, 173.0565412194, 268.82351929387
2667, 17.982658647341, 51.8345267883, 280.82844204075
2668, 36.386686972863, 10.866281769032, 257.34462941058
2669, 23.720384428205, 79.432063993779, 275.3623801963
2670, 27.422488069147, 135.78944445194, 267.91932213515
2671, 28.409338222747, 185.87906379312, 262.42839918116
2672, 17.233692753906, 61.186846863209, 280.87982193663
2673, 34.078728664562, 94.625431445, 252.82485383754
2674, 19.879880393509, 30.925500384083, 280.51574938722
2675, 30.334258517976, 88.110687239323, 266.27215585045
2676, 11.068506476185, 113.62564610325, 281.65264966313
2677, 6.7098998363549, 64.964056262163, 284.58654585735
2678, 32.402089639892, 6.3171573985003, 268.43524481926
2679, 22.155311352664, 51.74380616288, 277.98458813733
2680, 35.970251213457, 27.678267090996, 256.39016907143
2681, 32.41851872232, 129.30517385693, 256.08449630003
2682, 23.980922080432, 111.5893777455, 273.5391440916
2683, 31.158989916645, 157.97119991105, 257.21548087752
2684, 25.656112598477, 6.0391575132405, 277.05996045346
2685, 33.112822797679, 41.901956708305, 264.21929745149
2686, 23.949383522926, 2.1516207377568, 278.7584327711
2687, 34.065454163854, 81.050755078836, 256.44431032932
2688, 28.957602604714, 162.78963357115, 263.17831806973
2689, 31.785877666017, 84.386392663223, 263.54913287169
2690, 33.798346899164, 2.36257097459, 266.0543091995
2691, 24.297826316768, 147.63073442884, 271.34924247372
2692, 5.4188659683949, 171.30098163831, 281.04871342785
2693, 36.496050886624, 25.068346663198, 253.0658047378
2694, 18.58204392294, 94.264056872962, 278.72125364473
2695, 31.802866741218, 113.46834246456, 260.64650920426
2696, 26.415693686166, 104.73554219505, 271.15489558264
2697, 27.716451406827, 39.301543967494, 273.17323675487
2698, 22.785048094472, 64.542714048433, 276.89108534783
2699, 24.938899351981, 106.52023703368, 272.78498035743
2700, 21.803695226563, 43.948688175615, 278.60244911799
2701, 11.201815233144, 65.455203823165, 283.38507173088
2702, 34.716728824869, 42.639109359261, 259.56773454723
2703, 16.012704857006, 114.27022552889, 279.43613924724
2704, 22.193804444142, 57.881674106122, 277.67986890209
2705, 23.869167330772, 12.319517441925, 278.36251755219
2706, 19.438325223382, 79.155252508453, 278.78766978383
2707, 26.774501081424, 177.7850729791, 266.19539599743
2708, 23.00440834853, 82.321943518583, 275.87866762562
2709, 34.413233332805, 70.858347510239, 256.52074108595
2710, 12.218075670221, 143.77782810482, 280.09343708713
2711, 17.88824028156, 122.6483348259, 277.98895605462
2712, 2.6353799234759, 157.15220634991, 281.90346153285
2713, 6.2279106037129, 21.095451548972, 286.23196939606
2714, 20.240982500902, 114.86686519749, 276.67957494917
2715, 3.0150062181033, 85.050240407277, 284.39809976667
2716, 12.388124886223, 11.124807327098, 284.98283538299
2717, 32.324569868827, 97.83957963866, 260.80731517659
2718, 35.588553746818, 38.257660134535, 256.42578272178
2719, 20.193309608503, 98.149371994719, 277.44392104132
2720, 25.736307466222, 84.287656992994, 273.06082791076
2721, 17.262758710514, 148.4497722422, 277.31889991906
2722, 30.204620526156, 153.04083989041, 261.03039851567
2723, 32.004872525197, 140.08519318144, 256.24319199087
2724, 17.703847495532, 116.53212403916, 278.35805657532
2725, 32.903546903335, 74.422945538077, 261.63799497627
2726, 30.824532342419, 140.7092037634, 260.56962014099
2727, 31.063015829352, 166.50162975334, 256.25048088506
2728, 12.413588390184, 110.54522578012, 281.26548578796
2729, 27.306878027617, 87.972926522349, 270.96702006894
2730, 32.978069005675, 113.62394742902, 256.07066793306
2731, 17.636096617507, 26.194103755224, 282.05387552581
2732, 29.090199859133, 31.90970431007, 271.8558597418
2733, 29.641060371941, 112.38461620551, 265.77079244616
2734, 15.805706824431, 13.281804943109, 283.49416275503
2735, 31.535156409846, 153.04615555444, 256.28575889204
2736, 14.526614970148, 182.30925806539, 277.53688033529
2737, 30.47351553571, 138.31303904156, 261.7768373516
2738, 2.3727247408095, 135.74552623992, 282.67362264667
2739, 29.252348982143, 44.082075373796, 270.91569435745
2740, 21.216657925966, 130.19706912183, 275.21470196672
2741, 11.011036263905, 185.58195136831, 278.99924572969
2742, 26.862937147453, 45.240011811723, 273.84622034606
2743, 28.921378377119, 90.239274594421, 268.53084518826
2744, 31.497272816554, 2.0724191419767, 270.21754825088
2745, 12.856641295708, 52.359725928172, 283.27411652643
2746, 29.398575269341, 93.30104517622, 267.55643627623
2747, 32.552799442697, 26.067694319256, 266.70691790711
2748, 15.871810650225, 82.283571892261, 280.77477316568
2749, 29.346161594673, 143.31342222286, 263.95538775768
2750, 32.702861417084, 56.30768438603, 263.89842243237
2751, 28.124639347795, 153.76879262417, 265.53574142608
2752, 23.529162694696, 71.902498949037, 275.89625996696
2753, 20.655751344053, 84.349504330732, 277.7010826371
2754, 33.053517281898, 108.53616536969, 256.61950723945
2755, 10.805326919222, 169.54446249319, 279.67325321584
2756, 11.10126147519, 97.87779043839, 282.22339081559
2757, 29.692314105715, 133.46247816936, 264.02825217128
2758, 35.042239085995, 53.007941150553, 256.54882531771
2759, 21.479232179602, 163.88789186892, 273.41825169122
2760, 35.080207462882, 66.947839798628, 252.39883825022
2761, 13.521604971839, 173.86924587557, 278.37089208771
2762, 21.389076045765, 136.46324255048, 274.78026168817
2763, 25.18674633603, 182.32389793373, 268.30022669627
2764, 20.54099094732, 179.70430611705, 273.51685664567
2765, 6.1663020170372, 99.542113832734, 283.46047460991
2766, 28.097310322938, 106.12466979146, 268.77707702228
2767, 24.065487403156, 21.576738232863, 277.7697554902
2768, 8.2209639324093, 130.80950171544, 281.88940974578
2769, 31.564853423399, 166.6810763635, 252.69117460267
2770, 25.783021132729, 76.066633149589, 273.43755271978
2771, 2.9791594647599, 51.935485561851, 285.56180279994
2772, 27.685313948695, 181.98749111185, 264.26623620287
2773, 23.600647702946, 185.67013462722, 270.12504823364
2774, 34.22250745792, 34.549059028197, 262.08468440791
2775, 15.632250963562, 28.63504288396, 282.98311409597
2776, 11.258713416093, 22.69446763541, 284.93825011599
2777, 31.378900637308, 110.66737591457, 262.11220070983
2778, 35.858412063687, 6.7680266454747, 260.13677911021
2779, 8.5097596894013, 163.05170950597, 280.64657484617
2780, 22.995049747592, 102.63090092124, 274.93042584263
2781, 29.596061247907, 78.56497231484, 268.22317274523
2782, 21.884047285699, 159.32781987561, 273.25953884025
2783, 33.428745288329, 99.274813021949, 256.38599244316
2784, 29.183198936841, 83.803709161048, 268.53829800879
2785, 30.78682206906, 170.40055446851, 256.89502510917
2786, 29.906638233397, 127.05024076112, 264.09876996325
2787, 21.833604205496, 124.41527840557, 274.95133571224
2788, 6.926020774887, 39.071942380517, 285.46562014861
2789, 9.6802113329951, 79.227110810272, 283.35712225844
2790, 15.602935758182, 55.7994440522, 281.94453499175
2791, 21.575778542632, 172.58652897623, 272.91385334116
2792, 31.188780699752, 38.736456706226, 268.27256847846
2793, 32.376060264784, 49.543691375567, 265.20776755976
2794, 30.262453148993, 99.030554740644, 265.58930720387
2795, 35.190243137906, 46.950452337751, 256.90064885321
2796, 32.004143731281, 143.95587256381, 255.49793382239
2797, 35.219373462207, 62.350597718301, 252.69938677213
2798, 26.58512509817, 173.71092764393, 266.7725961668
2799, 2.2364586346028, 60.846995891941, 285.30440958004
2800, 11.237682467543, 100.59640032234, 282.07549231795
2801, 10.073332420918, 181.03846499938, 279.50585538777
2802, 24.911451127455, 25.350543578347, 276.83391049165
2803, 35.983760055896, 1.7749806603181, 260.33315428307
2804, 9.5564346805633, 6.6089897559852, 286.0231660896
2805, 10.307082111596, 1.757564593933, 285.9918693902
2806, 35.613887719626, 51.231003118746, 252.63147526044
2807, 28.186674821631, 130.61742935196, 267.04323562003
2808, 2.2232741604294, 75.826701961538, 284.78108767587
2809, 25.473660218335, 158.70383826258, 269.29773444539
2810, 33.524108413722, 111.03941137924, 252.56927391031
2811, 31.949149662541, 156.53392038014, 252.32609889472
2812, 30.691178203734, 175.68158085664, 256.4667473524
2813, 31.530235854602, 103.53850531301, 262.40942343383
2814, 11.663349670617, 153.01240382352, 279.96696397374
2815, 14.076020273178, 103.56250436008, 280.82139552941
2816, 5.8195477628984, 124.23200156656, 282.64709375292
2817, 18.19975126187, 39.743063634746, 281.19063685876
2818, 7.097293831375, 179.1396815593, 280.42753658693
2819, 29.947039540902, 147.3314871412, 262.24848761756
2820, 2.6583012217206, 32.558802366248, 286.26572448249
2821, 25.381049018558, 62.108769142536, 274.57824173173
2822, 18.075769330956, 104.92808144886, 278.60297186413
2823, 35.143052121703, 5.914481456539, 262.4807122139
2824, 28.301367151136, 171.16079658183, 263.88264888868
2825, 2.1952417268752, 9.9159952553125, 287.08881577724
2826, 32.833240089734, 13.806572230525, 267.09680060777
2827, 31.753524724002, 77.503824692868, 264.22328314706
2828, 23.513014840062, 27.705906824893, 277.95998646187
2829, 32.57667617439, 61.806669538257, 263.70377142905
2830, 14.335584717687, 41.878786514148, 283.06352644964
2831, 17.508699313733, 77.373553590928, 280.07241506547
2832, 29.30914340338, 122.48567037868, 265.64360305245
2833, 17.338897614034, 160.02449895646, 276.79042687943
2834, 16.774317221677, 177.83238850316, 276.41370171414
2835, 14.364536882417, 67.696432931877, 282.06552301338
2836, 29.640423091344, 46.672028821047, 270.20185401447
2837, 5.601685588967, 139.84527211921, 282.13186731011
2838, 31.782289818103, 116.79438245229, 260.33824907237
2839, 6.6928249991953, 117.16096038488, 282.7313905774
2840, 34.35040660305, 87.939430229599, 252.32629051365
2841, 2.4871530732942, 100.39739483773, 283.90293813365
2842, 33.31726472187, 22.686332709897, 265.40846118398
2843, 24.347036933489, 128.28890471592, 272.30573189105
2844, 23.566614810006, 140.16303718474, 272.53279173465
2845, 31.113878091546, 124.35616607253, 261.46031860029
2846, 17.052848771497, 5.9315143538408, 283.16561886175
2847, 37.090993581041, 9.9159952553125, 252.15813279683
2848, 2.4648723541347, 95.747091804523, 284.0673840062
2849, 25.537648003809, 35.387685238916, 275.74729617327
2850, 2.1547056390761, 150.72523230952, 282.1644675705
2851, 26.313430967827, 155.8505726575, 268.31097111759
2852, 13.523034607022, 78.941442382852, 282.00351096573
2853, 12.438783234961, 5.7591986575124, 285.16366655368
2854, 33.772055276917, 51.655589393719, 261.56128012601
2855, 21.059331292269, 120.08606588934, 275.80363642791
2856, 11.170776007388, 105.68801491342, 281.9105322723
2857, 33.954844922531, 100.00773325328, 251.8944574701
2858, 32.078888653036, 74.694239794421, 263.72479603405
2859, 9.1412521437129, 15.596394990226, 285.80693063349
2860, 29.247592104398, 104.5800712246, 267.03714586686
2861, 31.224071731615, 177.6887032348, 252.10540427202
2862, 33.94387366675, 46.568068074831, 261.60790617382
2863, 6.2959353551662, 148.59497243732, 281.69161778576
2864, 32.730325849768, 79.73298327507, 261.57164718203
2865, 36.245074402934, 33.988732284122, 252.22146166815
2866, 6.6807168368142, 90.965500187246, 283.66696930159
2867, 20.072592534888, 73.761581077502, 278.57953803963
2868, 36.004275114882, 40.490547959113, 252.42783394181
2869, 2.5293452952911, 110.79800651312, 283.53559860378
2870, 23.699552103326, 165.99070487838, 271.05805488065
2871, 13.92695031464, 96.393276273758, 281.16346121898
2872, 32.94088085071, 82.517928091508, 260.64578373738
2873, 33.246001951123, 71.981288466, 260.89718320556
2874, 28.459934866344, 59.48844673657, 271.09013868493
2875, 33.331304496156, 28.1570996164, 264.91629601872
2876, 2.3691434680408, 24.354686770919, 286.57286087815
2877, 18.643861533486, 66.025061923134, 279.85044359855
2878, 21.246442454252, 148.54970293999, 274.34519013401
2879, 13.059100155615, 122.31559184287, 280.55491416072
2880, 19.642164941792, 89.287739457836, 278.21892125226
2881, 12.03837773099, 138.54373330104, 280.3624800233
2882, 28.297054052758, 16.539303715984, 273.71798732216
2883, 18.356787237511, 1.5075246784765, 282.63943687582
2884, 28.741830496349, 117.81122530783, 266.98611963811
2885, 6.7673544252789, 142.28689867227, 281.81955327354
2886, 21.707008653968, 87.126034077274, 276.76050298372
2887, 13.792482533679, 101.36680083289, 281.03324275287
2888, 19.873398100486, 21.438555895072, 280.91455500211
2889, 35.332670866105, 59.69886425919, 252.41737443112
2890, 23.163539259395, 106.36661684801, 274.59505923974
2891, 6.1643712942796, 176.38930135887, 280.72813135776
2892, 23.710994887654, 94.539681480905, 274.64412853796
2893, 2.0471414083759, 90.806408031134, 284.2678773498
2894, 34.468431409109, 25.998541156242, 262.28453577107
2895, 26.046076358878, 30.257265056698, 275.48966067481
2896, 29.736383104061, 156.47771652413, 261.91772494872
2897, 24.189073929591, 145.18540898386, 271.60079854611
2898, 25.126886735989, 109.03988906318, 272.44564129146
2899, 2.015108382105, 177.68870323479, 281.23002915237
2900, 19.775811151906, 171.46852291233, 274.53436850893
2901, 36.78429724143, 18.903818897071, 252.02263769728
2902, 11.307111491986, 74.988519573859, 282.99783830642
2903, 5.7451954251282, 77.533244292097, 284.31485619805
2904, 27.365577226311, 21.801369961587, 274.51235904779
2905, 30.478335323038, 107.4366773606, 264.49186001945
2906, 16.560578206784, 70.573391491409, 280.87450585796
2907, 1.9764047302395, 63.463118240431, 285.22842195103
2908, 31.438929081819, 70.91344976401, 265.43533742067
2909, 25.424630978347, 59.788494288476, 274.64970148027
2910, 2.3188239646777, 102.50391323271, 283.84113358992
2911, 17.927637998711, 32.005956270389, 281.65870403813
2912, 20.344635252236, 47.800187031738, 279.49475650403
2913, 10.357916126368, 122.92875991904, 281.55049769389
2914, 17.994701429847, 166.93384068132, 276.06173326218
2915, 19.305314024445, 62.994721263237, 279.55346453994
2916, 24.524286868396, 68.039036964326, 275.1447101598
2917, 16.591516501884, 49.840243100377, 281.67753631548
2918, 7.2133098339305, 150.91409512319, 281.41239755054
2919, 12.360878933485, 26.924827556739, 284.40675860909
2920, 20.272573950596, 155.26317578868, 274.86014141766
2921, 30.274809990733, 34.883268926235, 269.99521133919
2922, 29.94481260553, 1.8177823994972, 272.46778472652
2923, 34.899673319156, 72.830760747619, 251.9958064261
2924, 35.699955511317, 23.107679781197, 258.47903169558
2925, 18.016924637122, 131.82704116798, 277.5239900128
2926, 24.267375142005, 47.941771495629, 276.35498171307
2927, 35.842910882592, 45.867289822345, 251.99303055716
2928, 14.492579014463, 166.25272133949, 278.186796918
2929, 9.001044032261, 87.50357987521, 283.24742902202
2930, 35.018647019515, 58.230765914394, 255.61868284835
2931, 25.804354057107, 14.755148031721, 276.49540000686
2932, 31.452567298977, 58.429673800977, 266.37432723142
2933, 20.235581157593, 167.4127705729, 274.34102300226
2934, 25.292776662707, 16.986198762064, 276.87730391743
2935, 29.195803778065, 181.12297331005, 260.93108229814
2936, 33.038420749141, 47.30488216943, 263.91213094051
2937, 28.687666871335, 49.072842059187, 271.39345225989
2938, 29.289302855421, 51.384780175503, 270.42123627094
2939, 2.5874896481205, 120.78007602748, 283.18153374061
2940, 26.731279714906, 140.81344290724, 268.62981820659
2941, 30.010820125489, 81.664500476114, 267.316157948
2942, 6.108042724587, 159.53565513228, 281.33920817663
2943, 19.73942495559, 100.2421502749, 277.68246480011
2944, 5.9190988132043, 44.720438485163, 285.44753418644
2945, 32.650433532118, 136.47110128995, 252.3420432837
2946, 14.757041031786, 86.954698460621, 281.14419449273
2947, 6.2786754039213, 103.7005847255, 283.29180475016
2948, 36.395579445282, 17.208243466999, 256.07482716745
2949, 29.157162634138, 110.20212738774, 266.80160350522
2950, 2.3661794160206, 46.415281260772, 285.80103452807
2951, 30.100346256525, 20.653393705011, 271.13402236717
2952, 31.379235456861, 21.922284430777, 269.0987934241
2953, 5.6477445362297, 59.242277466987, 284.97819196754
2954, 32.804820192687, 132.30758906198, 252.21801134685
2955, 10.906349426938, 167.12471285311, 279.72629497478
2956, 18.438342909636, 139.37925362975, 276.92443383916
2957, 28.109770963549, 115.59889789157, 268.15561527008
2958, 28.329106029192, 78.776421365042, 270.12360285021
2959, 34.646310436629, 65.567505859346, 256.2769952914
2960, 13.768075692244, 115.30531533053, 280.51084928887
2961, 31.222331612862, 89.72857057822, 264.36070477456
2962, 36.641429588277, 12.479236556405, 255.58226702986
2963, 23.064553906964, 7.3129055500694, 279.24360864232
2964, 32.247138123672, 134.97769907279, 255.92241661123
2965, 13.711221444165, 50.08299405364, 283.01728235927
2966, 30.981056647582, 53.908535586025, 267.57209359321
2967, 33.016973526269, 126.75770259817, 251.93323958645
2968, 34.042652895489, 86.042504858955, 255.57005770714
2969, 11.445350219366, 56.847438501286, 283.62005475652
2970, 10.486013335127, 126.23797049082, 281.38634005532
2971, 9.1911584919562, 57.411040034408, 284.28453226712
2972, 31.29219504561, 6.0000312593635, 270.28245552511
2973, 28.290251214323, 158.98863113799, 264.84372087609
2974, 23.388108586339, 155.79074149115, 271.92757744741
2975, 14.068195073205, 140.02334424201, 279.41965428889
2976, 5.7844057311479, 48.96872877674, 285.31944098645
2977, 24.678424263114, 130.42144985227, 271.82628667318
2978, 22.277808063612, 110.35945825294, 275.21435184868
2979, 5.5895803135239, 35.852445136341, 285.81444485833
2980, 23.395981530742, 99.324688817746, 274.71378989128
2981, 22.269177812415, 127.84895649608, 274.40127935548
2982, 31.525369655731, 169.03843941645, 252.12708413508
2983, 5.660393594884, 132.87574728899, 282.36867990314
2984, 27.753108049213, 8.3651646870937, 274.78288678643
2985, 27.489893472043, 179.21753155858, 264.84393635005
2986, 25.948475540568, 133.83652441378, 270.10582673374
2987, 33.891858179412, 54.345423764797, 260.90228105758
2988, 8.6161940452474, 166.0029842018, 280.50974363207
2989, 30.821565357044, 119.11280776914, 262.71295883915
2990, 37.022084384077, 1.8032706769081, 255.55844972225
2991, 1.9011166667452, 18.903818897071, 286.79077795073
2992, 2.3691804328893, 4.982306037541, 287.25074909525
2993, 15.325118996384, 149.85764096438, 278.39525867883
2994, 25.424788357982, 79.521361009855, 273.64890142597
2995, 1.8937967111589, 141.73740866776, 282.49528299857
2996, 28.763565684006, 67.617412813357, 270.18387708699
2997, 5.5077260351327, 1.7858218367911, 287.03028048136
2998, 29.092852769939, 12.262048789388, 272.97660244015
2999, 27.003420994658, 150.96590398619, 267.5917365614
3000, 32.181237378455, 150.72523230952, 251.8877741593
3001, 29.891761678251, 145.21695102476, 262.57445580765
3002, 15.92896112018, 65.843301302587, 281.39040564402
3003, 28.973159070529, 40.510577069908, 271.51064338188
3004, 30.685721180931, 149.57224573375, 260.00898395739
3005, 30.534689313818, 132.13145640686, 262.2111856223
3006, 13.289647597766, 75.689540205291, 282.22399984616
3007, 5.8664426820341, 25.659846826531, 286.13077852749
3008, 36.175344292404, 19.463469884662, 256.86152158753
3009, 21.610971991869, 19.324308917845, 279.81710567787
3010, 7.9811655518304, 85.139964561202, 283.59172748039
3011, 27.472558203688, 76.052562096567, 271.43305495354
3012, 33.337827067348, 117.36931329977, 252.05937435168
3013, 37.252851299241, 4.9715717018167, 252.34187482686
3014, 21.593362720322, 41.684339664259, 278.86038651734
3015, 20.226562415414, 92.894735432671, 277.64711102624
3016, 29.267903333952, 186.03773197329, 260.22750408347
3017, 27.002948107646, 145.21603893339, 267.95765058038
3018, 31.770759993192, 149.30507851412, 255.74581638318
3019, 2.3785481257965, 37.517812956356, 286.11160044837
3020, 1.8642777213807, 126.75770259817, 283.02093918577
3021, 35.50072528291, 55.352208742494, 252.17120682377
3022, 17.624475898687, 111.55359102835, 278.61184662166
3023, 8.09871591757, 52.089023934074, 284.74975339545
3024, 18.507105865279, 144.09940343534, 276.67684440689
3025, 33.858712786928, 102.32877733099, 252.14517605382
3026, 16.89113953703, 107.85346615173, 279.20017405636
3027, 32.118494306494, 10.153571786162, 268.659722755
3028, 10.953580886197, 70.660662652632, 283.27601825233
3029, 32.632488768359, 92.122403691198, 260.50931868133
3030, 36.176323942127, 36.201945943688, 252.0752834963
3031, 26.490542148973, 41.017306731745, 274.47705306445
3032, 31.453653958344, 30.555266241858, 268.38559666384
3033, 14.178449658485, 145.51199772632, 279.15369238426
3034, 23.967061707428, 86.96872761742, 274.76443611386
3035, 31.034942940426, 182.73677894, 252.28150186002
3036, 6.3784226894904, 97.26642286288, 283.50158750639
3037, 5.917100109968, 17.784162252508, 286.40117945263
3038, 13.287511262798, 46.652676373302, 283.31906532084
3039, 22.201866943183, 118.20421423858, 274.91549780543
3040, 5.9626639519892, 114.18875903343, 282.97772457855
3041, 30.154895188196, 69.820134829474, 267.888935703
3042, 31.292137317693, 49.546099345271, 267.32863522812
3043, 1.904881828114, 66.461518038768, 285.12750193431
3044, 6.9070996852003, 62.603776842671, 284.63175447277
3045, 30.995612917467, 153.79480154897, 258.45980000027
3046, 2.0584027038312, 73.608501966634, 284.86883073491
3047, 22.855123136367, 132.31252254014, 273.6370010697
3048, 19.381847354308, 124.64817045488, 276.89015054819
3049, 27.313985996143, 10.639038247039, 275.14895511758
3050, 27.296787144159, 1.4420343443669, 275.63905568199
3051, 27.096178575414, 160.46566651862, 266.82790615203
3052, 27.459414854651, 18.847459292029, 274.562189176
3053, 27.425612094511, 128.5449539575, 268.37305827605
3054, 9.3180484458071, 27.109391338739, 285.3457086128
3055, 18.953108857419, 6.3074327567819, 282.10231531995
3056, 29.283419055309, 170.97487995776, 261.68700343553
3057, 28.289801597221, 167.4744811475, 264.19559259356
3058, 17.513330908925, 186.434503337, 275.56631178408
3059, 30.755596610977, 180.10697984667, 255.30944350504
3060, 24.329996780487, 177.36346090713, 269.70120927578
3061, 25.403874867768, 96.399740660127, 272.79800410374
3062, 31.162504460358, 82.208595452876, 265.10234023086
3063, 29.840664929852, 168.72099553447, 260.421554065
3064, 35.01163297857, 13.726530061832, 262.02974436915
3065, 34.786837593421, 30.190391808564, 260.87046644321
3066, 26.562465559138, 24.946613785647, 275.22117588892
3067, 6.8362889962578, 46.826297783908, 285.2072192804
3068, 24.276220228438, 160.89852772951, 270.66597193742
3069, 32.773549757858, 111.70862026732, 257.40206266612
3070, 29.06882196048, 4.908041710912, 273.41855078296
3071, 35.804417949314, 25.478729888883, 257.63904595162
3072, 32.391613252955, 126.80297236767, 256.67358828524
3073, 33.107789007993, 11.131754878368, 266.76665468
3074, 9.9032737861998, 141.6423403739, 281.01082372373
3075, 15.340146118693, 63.409581700747, 281.77671691965
3076, 1.7905522112671, 168.70087959304, 281.55807983732
3077, 35.366156684988, 30.852514863215, 258.70868654411
3078, 29.852815858627, 160.58880275538, 261.22124826862
3079, 35.654048136612, 35.927653555179, 256.52045459238
3080, 14.621907754328, 179.09802859021, 277.61335313316
3081, 32.324033763141, 17.896330167997, 267.74615132418
3082, 30.604106737523, 161.35864742641, 258.87590295092
3083, 32.674261074032, 1.3113429336565, 268.30874865895
3084, 15.747625808702, 119.44487945599, 279.37392352895
3085, 12.346524810903, 128.95665720234, 280.59980065067
3086, 12.912328046059, 59.937171804272, 282.96852650494
3087, 25.046460467924, 10.617724730256, 277.40901058737
3088, 14.78642743422, 8.6802034257363, 284.13164940927
3089, 24.89824615234, 138.02775972767, 271.16736670756
3090, 29.985545265514, 172.95476377673, 259.51928075577
3091, 33.451314574007, 39.683665861584, 263.61051578676
3092, 24.275234226341, 150.63116768573, 271.21604408017
3093, 24.152173562441, 83.957634863102, 274.73112320574
3094, 36.451626063738, 4.8819817447503, 258.0480947864
3095, 11.533958392, 83.166806495497, 282.61646516209
3096, 27.239602914806, 49.063714514715, 273.20967204421
3097, 18.73365771199, 81.333987917335, 279.16073824246
3098, 18.420472759351, 127.17418494351, 277.45145380492
3099, 10.431764769344, 134.47028450966, 281.10134146112
3100, 21.53411603554, 150.86136045303, 273.98272532098
3101, 14.342125821031, 34.009472429989, 283.36002304417
3102, 34.033465367478, 43.176230892082, 261.71176743098
3103, 32.333617471188, 120.46206752131, 257.93635902198
3104, 19.933052357464, 105.43369596332, 277.31926665687
3105, 21.348916614834, 23.995798149956, 279.80485769735
3106, 31.17525513391, 46.459290400852, 267.75685973091
3107, 15.493887157121, 174.33282181483, 277.32514392334
3108, 12.050624090265, 162.95467336302, 279.4385221296
3109, 19.476193678802, 131.98707551521, 276.50452461331
3110, 26.303596793505, 102.5686397042, 271.41417117809
3111, 32.271719714782, 34.519499641785, 266.60815006725
3112, 27.441192627078, 65.641750122942, 272.05823821989
3113, 29.126413665085, 29.092902913386, 271.97130362009
3114, 6.8137298753833, 101.63854480976, 283.25993647517
3115, 31.996584310237, 105.94246570136, 260.89431709927
3116, 32.724956903851, 105.30636813533, 258.54674555957
3117, 33.45726570398, 103.69341460524, 255.32863636745
3118, 14.9470826891, 107.93344270437, 280.23833760266
3119, 33.693331754075, 89.156280612593, 256.87002530584
3120, 21.164026474572, 102.65078482952, 276.501609941
3121, 35.963021845536, 32.51206028508, 255.38972249049
3122, 31.487973493674, 13.877635249645, 269.45882966671
3123, 27.155007586393, 186.36843319133, 264.93658681142
3124, 29.911357641703, 74.743657868192, 267.96149727235
3125, 17.651694165699, 100.26833112739, 279.05717261715
3126, 30.26111205229, 164.85413288996, 259.58612215107
3127, 26.217823917981, 138.35895368454, 269.48974074174
3128, 30.088176991988, 9.0779130053931, 271.84665926748
3129, 22.323454375427, 96.696641790629, 275.8081681889
3130, 2.3178717494804, 115.61543782932, 283.38224684627
3131, 17.458333120398, 86.528903887369, 279.73151217632
3132, 34.075954773899, 96.798290458973, 251.72778123365
3133, 28.607812128513, 135.66254195168, 265.96804308588
3134, 7.0944967066289, 75.112494838008, 284.14782883292
3135, 34.297925767505, 90.004706117393, 252.01331289554
3136, 31.890655540833, 79.75548283718, 263.71527565154
3137, 34.707543632408, 38.306713790314, 260.15373635808
3138, 20.678635195856, 177.34575134971, 273.50572608368
3139, 29.973721356692, 117.59932514079, 264.72043669379
3140, 24.528409906496, 135.03289519212, 271.75278500768
3141, 34.258434226241, 73.102313479473, 256.90414647668
3142, 19.306360532945, 13.77739797082, 281.58578978754
3143, 34.485938965168, 54.891741588673, 258.76810892343
3144, 35.75649496754, 15.259650263489, 259.38302311198
3145, 15.927411066941, 126.83694345018, 278.98262413228
3146, 18.578615140073, 152.54244508051, 276.26677467145
3147, 29.199451805445, 151.38275036343, 263.60543649988
3148, 33.873858594596, 67.850202409637, 259.3124688388
3149, 32.505481416697, 141.73740866776, 251.70984239307
3150, 2.0774370214657, 183.03661811651, 281.03877632022
3151, 7.9153189069125, 5.0104257634929, 286.47609828582
3152, 21.960632739045, 60.139985318991, 277.76474532063
3153, 30.846578799881, 86.061822844213, 265.43922908691
3154, 31.213909030515, 42.312319697158, 267.98073176898
3155, 25.428743106001, 1.1088668815957, 277.5086593117
3156, 33.192795219335, 69.57597975234, 261.32113168932
3157, 17.232076726519, 142.25052540185, 277.59382595724
3158, 32.840642967822, 30.351761503884, 265.79153434854
3159, 2.0858330378786, 28.513331956531, 286.44465217397
3160, 19.451166566348, 120.50728324048, 277.01843068504
3161, 15.232029208832, 112.13469809609, 279.93128404893
3162, 19.905824472207, 70.507046628145, 278.83415269299
3163, 34.927212038294, 34.678503211001, 259.84791242366
3164, 2.0127835530157, 152.8729035196, 282.09851525165
3165, 25.22870608115, 154.57308499338, 269.85101820871
3166, 34.097165894382, 8.161149099759, 264.91106900478
3167, 26.996935666051, 175.72104295429, 265.96390498412
3168, 33.402588401752, 61.925178628018, 261.53289942894
3169, 10.38924626348, 39.379657875192, 284.59865680121
3170, 16.300588615865, 10.711878563151, 283.3560445617
3171, 28.934204904513, 148.34507818577, 264.40045921274
3172, 31.918796723957, 136.97304685232, 257.18186213691
3173, 19.926154477546, 134.70913580776, 276.04834664772
3174, 21.413252960946, 76.141122361803, 277.48407517722
3175, 18.565631099883, 96.313820248825, 278.64660590602
3176, 9.9392879856095, 138.87030616454, 281.1009397094
3177, 11.714493237502, 80.355031039459, 282.65639531072
3178, 33.563464091071, 97.018305084074, 256.09307555862
3179, 4.8610515097084, 144.28735946494, 282.0953424223
3180, 5.829398582713, 70.780128535885, 284.53983431814
3181, 24.671797891489, 7.8502178244324, 277.8759280679
3182, 31.170010213306, 155.82776407289, 257.49465434818
3183, 14.582345489747, 170.156266825, 277.98684219897
3184, 32.792526179577, 116.32796013997, 256.53701442218
3185, 21.647719026121, 46.193181077392, 278.62246932362
3186, 9.0817995437465, 145.91146755092, 281.10599395911
3187, 32.111756232193, 54.094922096699, 265.39401984899
3188, 32.890549664419, 118.60711172308, 255.56577103329
3189, 29.219064428146, 97.218425330102, 267.58980501025
3190, 28.024129483982, 97.860061113155, 269.39781665274
3191, 5.0267673148977, 180.51142953183, 280.78874968603
3192, 23.575614395276, 69.778516046718, 275.95426838312
3193, 23.207057488034, 113.77283096877, 274.19689811239
3194, 33.391678224944, 5.2897276699032, 266.65610534527
3195, 30.317921067588, 115.04327913396, 264.20943969496
3196, 14.141072279912, 91.539151735259, 281.25303373956
3197, 34.823904377909, 50.873885174285, 257.96619050527
3198, 31.942714877242, 108.88386849875, 260.73300427654
3199, 33.555733887439, 82.575006858387, 258.5034736805
3200, 21.760519287136, 8.8745536464543, 280.15929167096
3201, 18.519823187006, 9.722276037805, 282.21673809877
3202, 30.547047054868, 51.287183564712, 268.49355186145
3203, 5.2187055401425, 92.707491435064, 283.86280718993
3204, 29.523893185658, 55.399389191114, 269.83023372494
3205, 11.540084552407, 30.662804707575, 284.55308002423
3206, 12.922089140043, 147.40635015153, 279.65975514457
3207, 13.990982110924, 153.62968245188, 278.92955600035
3208, 31.419309236885, 33.631797873605, 268.23109202185
3209, 2.2071195816305, 80.519055858812, 284.61792480059
3210, 15.516283666663, 23.922070533996, 283.21956521161
3211, 8.671791085628, 105.52775577703, 282.68404497584
3212, 6.0559433609028, 168.80686681547, 281.01951104589
3213, 5.1229457777218, 128.53069894312, 282.61168136701
3214, 2.2123020236706, 56.453589938261, 285.45965226608
3215, 29.998117290283, 85.946222929235, 267.03739101083
3216, 9.9821008711386, 61.100705981151, 283.92836561304
3217, 10.147443726, 117.91831159486, 281.80252795965
3218, 35.474712365919, 48.229977838369, 254.93095437445
3219, 31.289089278817, 73.191185119446, 265.55903406299
3220, 12.873309561779, 186.33166201522, 278.19314734314
3221, 13.905779993765, 105.83426045589, 280.81156092719
3222, 32.886134076255, 51.718829434216, 263.87657897624
3223, 31.475003815597, 162.18246304909, 254.78377981132
3224, 31.167648847407, 136.03181722218, 260.05575334319
3225, 10.313903132061, 18.717347679572, 285.37341958345
3226, 28.975282919133, 22.32400419725, 272.55710211985
3227, 33.189241149202, 121.5647549615, 252.08814095401
3228, 28.256910613358, 100.86990663086, 268.86850771865
3229, 18.677845964711, 182.89254165899, 274.88317710029
3230, 30.940112863406, 186.28631204298, 251.83935849696
3231, 27.774165874794, 90.069618624465, 270.21981937328
3232, 7.6908255145595, 9.9948901858265, 286.34619416304
3233, 11.476147027032, 14.608109384291, 285.16459578731
3234, 31.704596978234, 163.85047368037, 252.16182872668
3235, 10.084222537757, 161.59038249241, 280.21896413515
3236, 16.418763277404, 37.620000183746, 282.24703272383
3237, 37.40720398315, 1.3200046923268, 251.86977177805
3238, 22.336952732404, 80.440906638464, 276.54283283362
3239, 20.203475270186, 1.4485934125241, 281.53217715616
3240, 4.7339712908979, 80.215725022917, 284.37435956283
3241, 18.908353960422, 175.78876042987, 275.02012428975
3242, 34.522408710919, 83.287037638832, 252.18604787897
3243, 33.735281090639, 106.38995537515, 251.82817667414
3244, 30.460071195454, 93.119463616766, 265.65640567217
3245, 10.550615983705, 171.69587313185, 279.68504917158
3246, 2.1355824550199, 106.8419276194, 283.70140192549
3247, 23.365883235378, 74.37920734639, 275.92736860364
3248, 34.403049957359, 57.332621270243, 258.7482061778
3249, 33.891658050901, 78.994435582988, 257.63702217708
3250, 1.82264506457, 1.2736887926743, 287.41114912468
3251, 23.796535280525, 55.450334658128, 276.42909012045
3252, 31.859689614293, 159.49529973326, 252.12233969368
3253, 13.615807299644, 161.72031842501, 278.79579914836
3254, 24.403377450293, 63.833349465402, 275.46587663883
3255, 9.9847284499627, 35.568543095825, 284.85601663613
3256, 15.014218999516, 135.18110403058, 279.13864179282
3257, 35.226479659722, 41.873022686583, 257.60364441523
3258, 19.974692108672, 139.24541381062, 275.81112863101
3259, 12.678674344817, 165.97862517872, 279.05836212519
3260, 15.228517087468, 80.289019477171, 281.17565926022
3261, 28.211385825845, 122.6656100196, 267.53420754806
3262, 34.167098443245, 22.856137507483, 263.40279413027
3263, 21.134865863245, 67.17162246976, 278.09169496853
3264, 10.271453704745, 43.502944509558, 284.48359541096
3265, 34.869983783513, 66.85142049761, 254.54933041132
3266, 16.594122241256, 72.62144736833, 280.77525995599
3267, 21.649253793825, 161.67954985753, 273.36640246984
3268, 30.684245169635, 186.66991602447, 254.28026940643
3269, 33.417926856525, 115.30124673803, 251.92963958675
3270, 35.233413720671, 55.619620137237, 254.79145218461
3271, 8.6131655604826, 158.11327141943, 280.79678334297
3272, 14.517627240887, 155.79496487267, 278.58410954912
3273, 4.5005025232274, 56.653653763281, 285.23535599606
3274, 27.258679994364, 133.51625424505, 268.31028143218
3275, 23.011706160571, 151.69242205479, 272.52733163536
3276, 32.327361406543, 45.96209438753, 265.60097604746
3277, 1.6982779468692, 186.42108708083, 280.94346372974
3278, 33.665644283233, 108.78205531465, 251.54868956034
3279, 31.52723984574, 139.97434504753, 258.34115818955
3280, 23.566728476571, 181.1000121348, 270.40938072752
3281, 15.268903388377, 100.03644107083, 280.38606371117
3282, 28.156159841745, 144.363721422, 266.14925301282
3283, 18.641788970271, 43.923936239046, 280.75787865687
3284, 25.674451089861, 179.19364671933, 267.80200458299
3285, 25.597463547595, 49.703408444694, 274.97711661397
3286, 35.201224520187, 64.350070912579, 251.90707735745
3287, 25.427300379979, 45.802918664864, 275.343642646
3288, 15.139008123255, 151.96160818608, 278.41169456522
3289, 1.5371336424015, 159.71305595128, 281.88566788308
3290, 33.46500704718, 85.050090594366, 258.50959427224
3291, 29.034049442074, 160.67535652142, 263.18856399122
3292, 25.553908627893, 152.20102550832, 269.56715268922
3293, 28.592398877599, 138.71306626825, 265.77628654845
3294, 32.6073766588, 101.68399802824, 259.44994718593
3295, 11.12629994244, 108.92343156425, 281.80639486657
3296, 36.398775154415, 29.805288263654, 252.09778717549
3297, 26.42143651281, 169.50106324085, 267.29914623498
3298, 25.234576184478, 41.095596273713, 275.76613881486
3299, 29.565652886152, 24.666068994672, 271.63936803745
3300, 24.382735086054, 29.466706435649, 277.12224301577
3301, 34.31509740984, 83.499340448839, 254.30543204606
3302, 30.685591056591, 168.46022753751, 257.61868218169
3303, 31.361595903026, 65.958658698865, 265.97673573284
3304, 33.712170452426, 64.373295310603, 260.30512177121
3305, 5.1421953476559, 40.217117037894, 285.72742996011
3306, 15.504790339594, 163.45470504016, 277.75490992722
3307, 13.652746171033, 16.341944576252, 284.31293770667
3308, 30.829954523681, 24.104693809803, 269.832823059
3309, 4.2800818040382, 186.70880116795, 280.68290029217
3310, 27.615297499833, 169.38828278984, 265.32960803428
3311, 15.579522344701, 159.53885497135, 277.86979553323
3312, 27.850897225534, 163.21965051183, 265.34871511998
3313, 15.807549965924, 186.22631936924, 276.66317797075
3314, 32.426480739385, 21.57592379806, 267.2867706929
3315, 8.8110491044243, 186.02355875439, 279.72554640228
3316, 10.91973808428, 53.478116216279, 283.9180570281
3317, 23.136552231476, 91.008921328383, 275.35138385539
3318, 27.44340364655, 94.509991586848, 270.40771572547
3319, 17.864378680376, 109.47685805984, 278.5482612006
3320, 16.240581485147, 182.45305669094, 276.55622677885
3321, 19.738470473969, 112.82558907064, 277.14165269183
3322, 22.395373709363, 183.17612031012, 271.58391881246
3323, 7.6828623829046, 111.1689290917, 282.7282220807
3324, 17.748741056242, 179.11088298186, 275.71481279792
3325, 17.528545365623, 14.500522225423, 282.57727433062
3326, 18.340125578383, 69.954221281195, 279.87713495212
3327, 31.285108324672, 105.60977305552, 262.82556287435
3328, 31.115143794933, 171.60130429638, 254.95717255884
3329, 27.856435635655, 184.23957467273, 263.75240123252
3330, 29.946567102455, 186.19797416669, 258.00426003851
3331, 9.4570930709708, 6.4895968721935, 308.59362299004
3332, 9.1946674916205, 184.26801822743, 308.67223267138
3333, 9.1946587218807, 144.5, 308.67223525813
3334, 9.1946587218807, 79.166666666667, 308.67223525813
3335, 9.1946587218808, 43.530303030303, 308.67223525813
3336, 9.1946587218807, 58.378787878788, 308.67223525813
3337, 9.1946587218807, 165.28787878788, 308.67223525813
3338, 9.1946587218807, 129.65151515152, 308.67223525813
3339, 9.1946587218806, 111.83333333333, 308.67223525813
3340, 8.9309210223935, 28.906755128141, 308.74881837273
3341, 9.1292812840966, 16.983312937614, 308.69144471223
3342, 9.1946587218807, 99.954545454546, 308.67223525813
3343, 9.1946587218806, 67.756022895993, 308.67223525813
3344, 9.1946587218807, 90.57731043734, 308.67223525813
3345, 9.1946587218807, 153.87723501721, 308.67223525813
3346, 9.1946587218807, 174.66511380508, 308.67223525813
3347, 8.8643792743881, 120.74006651562, 308.76775943492
3348, 7.1447257805209, 36.198270630543, 309.20493484493
3349, 7.5478533270723, 137.07575757576, 309.1113889311
3350, 10.816177617347, 50.954545454545, 308.14735391106
3351, 11.264875912093, 105.90323422043, 307.98528449408
3352, 6.3928735883349, 22.742424242424, 309.36504616792
3353, 11.290256553498, 73.453164042016, 307.9758938664
3354, 11.290256553498, 159.57437616323, 307.9758938664
3355, 11.290256553499, 84.880169291318, 307.9758938664
3356, 5.2092409006255, 85.041486709487, 309.57980375936
3357, 5.209240900625, 159.41305874506, 309.57980375936
3358, 5.209240900625, 73.291846623847, 309.57980375936
3359, 12.181817696632, 22.742424242424, 307.63060433523
3360, 5.9799781371622, 105.89393939394, 309.44510700372
3361, 5.9688387442276, 11.767510918923, 309.4471902371
3362, 12.182860060412, 11.884685446781, 307.63018288608
3363, 5.8301564592546, 179.46656931072, 309.47278961337
3364, 12.707395803387, 179.89547380395, 307.41274129691
3365, 12.391969800654, 134.75746379711, 307.54478464659
3366, 5.8972928422555, 53.272839233195, 309.46047460744
3367, 12.391969800653, 33.78776682741, 307.54478464659
3368, 12.29564661975, 62.827116799107, 307.58433270329
3369, 12.629330919458, 149.19718310364, 307.44578435317
3370, 5.8556603458693, 148.89968637967, 309.46812853318
3371, 12.642098196219, 95.225797417038, 307.44039667735
3372, 5.8058125689318, 63.06740538739, 309.47721908507
3373, 5.8058125689317, 95.265927945943, 309.47721908507
3374, 12.477893373324, 169.97649629648, 307.50920153826
3375, 5.6002299144323, 170.21523004636, 309.51386301129
3376, 12.484162959509, 116.50774096613, 307.50659386202
3377, 12.259071956172, 124.92690228557, 307.59925505346
3378, 12.591790700658, 39.100024662951, 307.46158885892
3379, 12.287373718018, 140.01440481351, 307.58771256034
3380, 5.6843079994628, 47.960581397655, 309.49904127575
3381, 4.9665226678871, 2.8647280434787, 309.6182759903
3382, 13.473583480208, 2.785131496432, 307.07553969418
3383, 4.7676203640817, 188.23817963926, 309.64840269849
3384, 13.352182102649, 188.17659730483, 307.13054560918
3385, 4.798752531721, 116.03228385584, 309.6437703784
3386, 5.9146177144865, 125.47947876362, 309.45727299523
3387, 4.9875998442547, 40.613097936711, 309.6150096963
3388, 4.5727475331286, 31.59965456795, 309.6766993335
3389, 4.7951614105441, 141.45245376321, 309.64430629282
3390, 13.239907553209, 55.461582785195, 307.18088354451
3391, 5.0809470992978, 132.57935928214, 309.60037346471
3392, 13.239907553209, 46.447508123895, 307.18088354451
3393, 13.662900975669, 111.83333333333, 306.98855942445
3394, 13.662900975669, 79.166666666667, 306.98855942445
3395, 4.5279428225511, 16.803030303031, 309.68303487547
3396, 13.662900975669, 129.65151515152, 306.98855942445
3397, 13.662900975669, 99.954545454545, 306.98855942445
3398, 13.662900975669, 165.28787878788, 306.98855942445
3399, 4.5279428225511, 165.28787878788, 309.68303487547
3400, 4.5279428225512, 79.166666666667, 309.68303487547
3401, 4.5279428225511, 99.954545454546, 309.68303487547
3402, 4.5279428225511, 58.378787878788, 309.68303487547
3403, 13.662900975669, 28.681818181818, 306.98855942445
3404, 13.66290097567, 16.803030303031, 306.98855942445
3405, 4.7405889176884, 110.48454494461, 309.65239985932
3406, 13.483704967865, 68.988368601165, 307.07092660604
3407, 13.483704967865, 155.10958072238, 307.07092660604
3408, 13.483704967865, 89.344964732168, 307.07092660604
3409, 13.672062154087, 144.6459941597, 306.9843130572
3410, 4.7889873362857, 67.646149943708, 309.64522671086
3411, 4.7889873362852, 153.76736206492, 309.64522671086
3412, 13.477458541918, 174.49745893292, 307.07377404477
3413, 4.5767639082147, 174.54127826865, 309.67612829612
3414, 4.7889873362863, 90.687183389626, 309.64522671086
3415, 4.3006790633528, 7.5380446002764, 309.71419189727
3416, 13.722938324655, 7.43582090489, 306.9606680803
3417, 4.6024885761463, 26.992933866025, 309.6724587016
3418, 9.1946587218807, 1.4575812320843, 308.67223525813
3419, 9.1946674916205, 189.54242292682, 308.67223267138
3420, 13.800796630778, 183.69845323759, 306.92427590198
3421, 4.3772305692009, 183.69845374511, 309.70387946419
3422, 13.915325724321, 120.74242424242, 306.87028617474
3423, 4.2624018116028, 120.74242424242, 309.71927886835
3424, 13.787774610951, 59.541828882273, 306.93038007362
3425, 4.2612887704049, 145.6125037346, 309.71942609693
3426, 14.225284423394, 42.635298269926, 306.72141822488
3427, 3.9106053140266, 44.425307790679, 309.76386781026
3428, 3.9743398909496, 128.78116827846, 309.75607884463
3429, 4.365778345229, 37.037318920624, 309.70543400484
3430, 4.3232853569129, 137.93318207969, 309.71116582371
3431, 13.914987769263, 50.070151892431, 306.87044629183
3432, 10.033851857185, 39.795457031617, 308.41232467654
3433, 9.5689313888603, 140.75228425686, 308.55938750322
3434, 8.3487470777062, 47.265149028989, 308.90936838321
3435, 8.9262111760722, 32.52543709461, 308.75016406421
3436, 8.9262111760725, 133.49513406431, 308.75016406421
3437, 9.4624260850632, 54.535168965996, 308.59200045968
3438, 9.1240762514851, 102.83678795093, 308.69296767794
3439, 8.5806455656583, 108.4607880061, 308.8468103908
3440, 9.3961677558505, 24.908187540614, 308.61208818938
3441, 9.3205282370233, 20.572572954783, 308.63483183483
3442, 9.3331851617535, 75.809163967289, 308.63104005228
3443, 9.3331851617533, 82.524169366045, 308.63104005228
3444, 9.181828146612, 162.42546973968, 308.67601693427
3445, 14.519063703794, 102.77467829105, 306.57656769918
3446, 14.06098906609, 108.50750143501, 306.80082910914
3447, 3.7017766015508, 20.23612651166, 309.78849408059
3448, 9.1421165507713, 125.96935741845, 308.6876851493
3449, 9.8106107210278, 115.37748284662, 308.48389770962
3450, 9.5494192785255, 71.07173043875, 308.56539218235
3451, 9.5494192785255, 157.19294255996, 308.56539218235
3452, 9.5494192785255, 87.261602894583, 308.56539218235
3453, 8.6865179614993, 178.27792946833, 308.81763729442
3454, 9.1946587218807, 148.13935018159, 308.67223525813
3455, 9.2393851941244, 62.091470055646, 308.65900770619
3456, 9.7421939096364, 168.89081805075, 308.50547786806
3457, 9.1946587218807, 96.315195272956, 308.67223525813
3458, 14.618210974235, 75.705158768085, 306.52684805336
3459, 14.618210974236, 161.8263708893, 306.52684805336
3460, 14.618210974236, 82.628174565248, 306.52684805336
3461, 9.5651824902742, 13.239271034616, 308.56054223493
3462, 2.6998335773747, 76.110318583216, 309.8876658414
3463, 2.6998335773746, 162.23153070443, 309.8876658414
3464, 2.6998335773746, 82.223014750118, 309.8876658414
3465, 14.516494349266, 36.193536424431, 306.57785053624
3466, 3.588096554309, 50.867069636174, 309.8013244793
3467, 14.516494349266, 137.16323339413, 306.57785053624
3468, 3.4384038974307, 103.37853724648, 309.8176016845
3469, 14.900956067236, 20.064523572601, 306.38271989066
3470, 14.900956067236, 25.420324912247, 306.38271989066
3471, 14.592356681647, 65.698415777476, 306.53985410562
3472, 14.592356681647, 151.81962789869, 306.53985410562
3473, 14.592356681647, 92.634917555858, 306.53985410562
3474, 2.8433092310568, 156.68195732732, 309.87538559796
3475, 2.8433092310572, 70.560745206106, 309.87538559796
3476, 2.8433092310568, 87.772588127228, 309.87538559796
3477, 3.2701165175634, 13.819516024826, 309.83506359916
3478, 14.906840564394, 13.671919090648, 306.37968324597
3479, 7.3418955482855, 50.67318137207, 309.15985738689
3480, 10.942931697703, 137.3221442166, 308.10232419048
3481, 11.015470125907, 36.387424688536, 308.07628849133
3482, 3.1276332686845, 113.49181205059, 309.84915625077
3483, 3.1847581105564, 0.65137458898943, 309.8435822966
3484, 14.87820044526, 0.65137458898931, 306.39444845486
3485, 3.1847579132948, 190.34862512567, 309.84358231603
3486, 14.878202625721, 190.34863038933, 306.39444733211
3487, 3.1631579153434, 55.539052962808, 309.84570190926
3488, 14.897493234073, 132.49125006749, 306.38450614673
3489, 14.897493234073, 31.521553097798, 306.38450614673
3490, 14.759367760489, 72.006317607323, 306.45532875501
3491, 14.759367760489, 158.12752972854, 306.45532875501
3492, 14.759367760489, 86.327015726011, 306.45532875501
3493, 3.2469160329873, 177.4281103016, 309.83740150777
3494, 14.709815601014, 177.22091324034, 306.48053355244
3495, 2.988961196636, 97.003764903664, 309.86226368728
3496, 15.052792929338, 168.23865933876, 306.30387864553
3497, 2.9889611966361, 168.23865933876, 309.86226368728
3498, 2.9889611966365, 61.329568429669, 309.86226368728
3499, 14.950208127933, 97.098547541115, 306.35725691973
3500, 3.3129976292465, 23.924044858203, 309.83069820942
3501, 15.055287741902, 114.77550168601, 306.30257472881
3502, 15.055287741902, 126.70934679884, 306.30257472881
3503, 15.064869125609, 147.55061538285, 306.29756444959
3504, 10.065085936601, 9.9079785673556, 308.40216893826
3505, 3.2404813343545, 107.60340684707, 309.8380469528
3506, 14.970435708508, 10.360571876784, 306.34676853128
3507, 2.9214392926657, 10.331526405573, 309.86842894642
3508, 7.0761610753991, 0.086467471318088, 309.22030807598
3509, 11.514526828562, 0.081242432608889, 307.89186851634
3510, 11.281312682441, 190.91289225646, 307.97920576657
3511, 6.8240800245586, 190.91988783127, 309.27549262904
3512, 3.1742605339192, 64.903446958857, 309.8446142358
3513, 3.1259457961259, 151.05409942183, 309.84931935729
3514, 3.257968066128, 171.79293659751, 309.83628989356
3515, 3.1742605339196, 93.429886374477, 309.8446142358
3516, 14.89247942299, 171.80681974003, 306.38709152261
3517, 2.8920097293355, 123.66843451269, 309.87107164932
3518, 2.9504641191078, 117.92197557295, 309.86579616635
3519, 14.923881125856, 141.87955212524, 306.370881042
3520, 11.76320113967, 76.67671896894, 307.79648657762
3521, 11.763264184033, 81.632958713437, 307.79646209934
3522, 11.404132677856, 162.78668042462, 307.93346444074
3523, 11.767490328481, 102.41606283792, 307.79482086709
3524, 6.5575030805368, 19.264547686402, 309.33157478587
3525, 11.457918961467, 109.34872280789, 307.91325521993
3526, 2.8491294039424, 4.7492522361336, 309.87487392469
3527, 15.177084267635, 4.7492522361333, 306.23858230903
3528, 15.17514219496, 117.92377771055, 306.23960784984
3529, 15.110498970627, 123.52778828415, 306.27364802834
3530, 15.005087191227, 180.85961675985, 306.3287592238
3531, 3.0425326965492, 180.85961609072, 309.85727112707
3532, 12.073180316261, 92.212708026574, 307.67429894879
3533, 12.072942306985, 152.24134956809, 307.67439417871
3534, 12.066716250137, 66.11721099045, 307.67688451346
3535, 15.186384912207, 186.36503484623, 306.23366863626
3536, 2.859959949344, 186.22109744887, 309.87391896401
3537, 8.4245840719791, 181.56405632237, 308.88911249485
3538, 6.4273451662516, 113.08705365464, 309.35811096273
3539, 6.3946760102567, 156.25866658972, 309.36468450689
3540, 6.394676010257, 88.19587886483, 309.36468450689
3541, 6.3946760102567, 70.137454468504, 309.36468450689
3542, 11.418424021337, 119.40260082706, 307.92810531185
3543, 2.9800716973044, 134.90269043728, 309.86308348534
3544, 15.060704317638, 53.127612593022, 306.29974280192
3545, 2.9800716973043, 33.932993467584, 309.86308348534
3546, 6.8503652029542, 102.8191008365, 309.26983626943
3547, 12.004579062685, 19.269912682879, 307.70165693348
3548, 12.403486188147, 25.97971412578, 307.54003213015
3549, 7.9270611827188, 151.01186299639, 309.01843430447
3550, 7.9031051339454, 93.434100250439, 309.02444970561
3551, 9.8483433862743, 172.01245082122, 308.47192490863
3552, 7.9068101091722, 64.902378485988, 309.02352064566
3553, 6.3127799861045, 76.709377921543, 309.38101016039
3554, 6.3127799861043, 81.623955411791, 309.38101016039
3555, 6.2393668111037, 162.34151517667, 309.39545895259
3556, 11.343894602971, 182.25345073509, 307.95596912326
3557, 11.459742576079, 131.5233160049, 307.91256812717
3558, 11.459742576079, 30.553619035199, 307.91256812717
3559, 6.8798893343869, 56.506987025406, 309.26345577463
3560, 6.4855832942673, 176.57364446207, 309.34630605475
3561, 11.841107341298, 176.74802769251, 307.76612259494
3562, 11.459742576079, 113.68963102237, 307.91256812717
3563, 11.722303491155, 127.78718169128, 307.81233413746
3564, 11.668424597407, 14.701745018546, 307.83311502986
3565, 6.5167563726955, 14.55955954569, 309.33994168303
3566, 7.012982059576, 8.9572150805372, 309.23433602003
3567, 15.27922309683, 62.324842462948, 306.18440938136
3568, 6.9514524387577, 172.74740879021, 309.24787093636
3569, 11.1037718865, 122.36196027188, 308.0443325331
3570, 6.8388030061255, 60.253661403441, 309.27232716443
3571, 11.499066424862, 167.16275231253, 307.89772148298
3572, 6.5930374717256, 167.34883014922, 309.32423379905
3573, 6.8388030061253, 98.079671929892, 309.27232716443
3574, 11.499066424862, 98.079671929892, 307.89772148298
3575, 6.8859572136135, 146.31967509079, 309.26214087955
3576, 11.453932432124, 60.198462969582, 307.91475681048
3577, 2.9077520041691, 29.456683930892, 309.86966138659
3578, 11.725535562634, 41.969017939657, 307.81108404148
3579, 6.6015679344975, 45.091588120948, 309.32246534771
3580, 10.368870215255, 4.0947863834492, 308.30156701305
3581, 7.6216350114605, 187.03671947343, 309.09368100985
3582, 6.5718384636831, 128.29475697603, 309.32861824219
3583, 11.796260456166, 142.80515424159, 307.78362988894
3584, 11.414629933291, 146.31967509079, 307.92952880815
3585, 15.176440603554, 39.871556844666, 306.23892222417
3586, 2.8498545058085, 47.189049215939, 309.8748101044
3587, 6.1301920161978, 5.5539238121577, 309.41662177995
3588, 12.109577323362, 185.47799632958, 307.65971049346
3589, 6.3101056212509, 118.75618717101, 309.38153959659
3590, 6.3297486312484, 122.59085981266, 309.37764549438
3591, 5.7647596336853, 29.179277396032, 309.4846454782
3592, 2.7052784681348, 148.05727153893, 309.88721149481
3593, 2.4937249549439, 126.41864832037, 309.90418701108
3594, 15.645469967498, 22.742424242424, 305.98629968066
3595, 7.2620611053946, 26.536948258317, 309.17826492252
3596, 15.276942129466, 57.003025882078, 306.18562425977
3597, 2.5279250992589, 143.13924621739, 309.90153691868
3598, 2.2819376634402, 40.560606060606, 309.91978964306
3599, 15.677856646263, 46.5, 305.96848803465
3600, 15.603987279056, 105.84956852284, 306.00904384568
3601, 6.1024121269796, 34.078703892939, 309.42194490053
3602, 13.010993236919, 52.869368060582, 307.28194175988
3603, 5.2386390453982, 135.16069299852, 309.5750161489
3604, 11.63150938917, 87.539231703978, 307.84728965377
3605, 11.631509389171, 156.91531375057, 307.84728965377
3606, 11.63150938917, 70.794101629356, 307.84728965377
3607, 6.7200708421286, 143.62674377503, 309.29765160946
3608, 11.612535854885, 57.50553165382, 307.85455502917
3609, 2.6689773029082, 131.26420664416, 309.89022321869
3610, 2.6597910289351, 140.29598874717, 309.89097886268
3611, 2.2772220495905, 73.341892999787, 309.92012121718
3612, 2.2772220495907, 159.463105121, 309.92012121718
3613, 2.2772220495906, 84.991440333546, 309.92012121718
3614, 11.524650442101, 44.542652766525, 307.88803106796
3615, 6.8120553809636, 42.51795329408, 309.27807265217
3616, 6.4583639956246, 108.49467707049, 309.35183722331
3617, 6.8684233940901, 139.59636790821, 309.26593710375
3618, 11.15885938159, 48.383903820477, 308.02425031515
3619, 7.187318547073, 38.692705941024, 309.19530646804
3620, 7.3262094700074, 131.44296553105, 309.16349088148
3621, 9.1309475129453, 118.1487983421, 308.69095698301
3622, 11.620403393375, 7.9044617683365, 307.85154402951
3623, 6.8808538475221, 184.55455057642, 309.26324684803
3624, 8.8684716513961, 123.41171765324, 308.76659896069
3625, 12.513128116781, 5.3939625774854, 307.49452657958
3626, 2.0674594254289, 91.045454545455, 309.93417351381
3627, 2.0674594254293, 67.287878787879, 309.93417351381
3628, 15.566912401578, 174.25647157408, 306.02930490358
3629, 2.0674594254291, 174.19696969697, 309.93417351381
3630, 2.0674594254291, 153.40909090909, 309.93417351381
3631, 15.684665868394, 68.028533483513, 305.96473707233
3632, 15.684665868394, 90.304799849821, 305.96473707233
3633, 15.684665868394, 154.14974560472, 305.96473707233
3634, 7.747460538268, 3.390055014319, 309.06306156266
3635, 2.3526375547395, 111.25865374462, 309.91473579309
3636, 10.57649355331, 187.60281529432, 308.23089299251
3637, 15.900851350268, 111.83333333333, 305.84453962118
3638, 15.900851350268, 129.65151515152, 305.84453962118
3639, 15.900851350268, 165.28787878788, 305.84453962118
3640, 2.0273718501196, 165.28787878788, 309.93670395372
3641, 2.0273718501196, 79.166666666667, 309.93670395372
3642, 15.900851350268, 79.166666666667, 305.84453962118
3643, 2.0273718501195, 16.803030303031, 309.93670395372
3644, 15.900851350268, 99.954545454545, 305.84453962118
3645, 2.0273718501195, 99.954545454546, 309.93670395372
3646, 2.0273718501197, 58.378787878788, 309.93670395372
3647, 15.900851350268, 28.681818181818, 305.84453962118
3648, 15.900851350268, 16.803030303031, 305.84453962118
3649, 15.912403340932, 7.8939393939395, 305.83805603628
3650, 2.014150392831, 7.8939393939385, 309.93752762149
3651, 15.903675372738, 144.5, 305.84295520299
3652, 15.29837848397, 139.36167627007, 306.17419773527
3653, 15.642840001673, 34.046263857985, 305.98774397319
3654, 15.642840001673, 135.01596082768, 305.98774397319
3655, 2.3217992433413, 53.014342202621, 309.9169592694
3656, 15.939661411799, 183.10606060606, 305.82273281442
3657, 2.1302382090267, 183.19283976085, 309.93011077953
3658, 2.2666584060127, 26.178156818362, 309.92086148872
3659, 5.7091848618302, 65.45399015344, 309.49461217476
3660, 5.6838977617598, 151.56575572872, 309.49911414764
3661, 12.418160925755, 172.44633791557, 307.53396875576
3662, 5.707037217413, 92.879415958256, 309.49499533051
3663, 5.9979184851093, 181.89759692198, 309.4417434378
3664, 10.236142236648, 93.990220449556, 308.3459299116
3665, 10.227452430065, 150.46456393468, 308.34881224279
3666, 10.253888071338, 64.2511452211, 308.34003533429
3667, 1.977846418615, 31.710556722487, 309.93976145942
3668, 2.6456348452666, 105.51362729587, 309.89213818607
3669, 9.1946587218807, -0.7452661738798, 308.67223525813
3670, 9.1946674916205, 191.74526892831, 308.67223267138
3671, 15.686059268074, 94.703586760422, 305.96396923548
3672, 6.8572839210738, 110.74106808225, 309.26834363365
3673, 1.8784253905804, 120.74242424242, 309.94567025124
3674, 11.478291155918, 79.165817288177, 307.90557238632
3675, 6.8448395715295, 79.167108547728, 309.27102722985
3676, 16.0360647425, 120.74242424242, 305.76826184211
3677, 15.72971340211, 149.81205836175, 305.9398684295
3678, 11.391989299519, 68.591206920861, 307.93801208686
3679, 11.392325407826, 154.712435307, 307.93788628999
3680, 11.392338783661, 89.74209333489, 307.93788128366
3681, 6.9006303401899, 153.94633222915, 309.2589562314
3682, 6.90063034019, 67.825120107934, 309.2589562314
3683, 6.9006303401901, 90.508213225399, 309.2589562314
3684, 11.402020378877, 17.022604183355, 307.9342558851
3685, 15.845309481384, 44.301811379118, 305.87562629158
3686, 2.0908936377178, 42.758794681488, 309.93267124052
3687, 15.857003797719, 70.039535895526, 305.86909287515
3688, 15.857003797719, 156.16074801674, 305.86909287515
3689, 15.857003797718, 88.293797437808, 305.86909287515
3690, 2.2178598162098, 115.59021215656, 309.9242362722
3691, 6.4367375742705, 24.895641514871, 309.35621461191
3692, 12.922807682397, 9.5614693542315, 307.32031256717
3693, 6.9645008686579, 16.991595989892, 309.2450110671
3694, 16.216328635052, 37.747251948669, 305.66523895869
3695, 1.6650878292954, 49.313354111936, 309.95731785778
3696, 8.3226816931419, 105.89200420634, 308.91628509921
3697, 8.8666817891748, 22.759127802831, 308.76710658263
3698, 2.0997436166616, 2.6246250170824, 309.93209948098
3699, 15.837565899763, 2.6246250170816, 305.87994901987
3700, 10.430726571112, 180.18885803129, 308.28067483339
3701, 15.888176428017, 188.44172224186, 305.85164633301
3702, 2.0418727257903, 188.44172178352, 309.93579436012
3703, 16.252888647515, 64.218331849533, 305.64415766392
3704, 13.151243832555, 122.83858882661, 307.22027566589
3705, 15.829069921761, 84.42233956264, 305.88468857345
3706, 15.829069921761, 160.03220589191, 305.88468857345
3707, 15.829069921761, 73.910993770694, 305.88468857345
3708, 11.493290145466, 174.3740080986, 307.89990594775
3709, 7.8800676266797, 170.71339709686, 309.0302162092
3710, 6.987410745839, 100.27621344783, 309.23997622981
3711, 9.2636820386934, 34.739211112072, 308.65179280693
3712, 8.8644031145674, 52.374970963796, 308.76775267624
3713, 9.5194295444096, 135.65328050536, 308.57459510837
3714, 1.9018359529288, 21.98798365047, 309.94430643438
3715, 11.443622099793, 28.338860159473, 307.91863759666
3716, 1.9416691578637, 37.497904010793, 309.9419469342
3717, 16.009430690281, 49.565424377161, 305.78335427373
3718, 6.8746752340128, 165.00284787339, 309.2645846884
3719, 11.44644023579, 165.10025475703, 307.91757725277
3720, 6.809567540351, 31.309603910313, 309.27860585226
3721, 4.9591013833986, 185.92248272623, 309.61942268269
3722, 13.261925358924, 118.5617916525, 307.17105215145
3723, 5.1703362005307, 130.50306733736, 309.58609704488
3724, 11.532318854578, 100.07347760396, 307.88512171831
3725, 8.0758929823109, 11.316427674887, 308.98062821067
3726, 8.1808135313683, 73.387378671194, 308.95352587493
3727, 8.1808135313682, 159.50859079241, 308.95352587493
3728, 8.1808135313682, 84.94595466214, 308.95352587493
3729, 7.108925965119, 188.86262073186, 309.21298112166
3730, 11.360896514731, 2.1704015531447, 307.94963103851
3731, 11.445089768149, 111.65099619233, 307.91808541311
3732, 15.717391462114, 55.078991083644, 305.94668004577
3733, 4.7671930458392, 191.56756284796, 309.64846606704
3734, 4.7671895080744, -0.56756458460438, 309.64846659164
3735, 13.443192162101, -0.56756458460427, 307.08936607116
3736, 13.443197727869, 191.56756716659, 307.08936354249
3737, 9.1220518721823, 37.519444681063, 308.69355974622
3738, 9.1220518721822, 138.48914165076, 308.69355974622
3739, 9.2672157224844, 49.541161379542, 308.6507417689
3740, 16.214846636747, -0.71396710530189, 305.66609217742
3741, 1.6667956399963, -0.71396710530229, 309.9572302006
3742, 1.6667957135679, 191.71396791529, 309.95723019682
3743, 16.214849605609, 191.71396492135, 305.66609046828
3744, 2.1300520024325, 138.24141170404, 309.93012301036
3745, 2.0515561416557, 109.36404665342, 309.9351833261
3746, 5.6057343757, 50.328160991787, 309.51289962045
3747, 12.700963243288, 137.93094557313, 307.41547313169
3748, 12.665307378357, 36.732445068819, 307.43058617889
3749, 16.325341877396, 102.92424242424, 305.60219230925
3750, 1.5393093543258, 19.772727272727, 309.96352609794
3751, 16.325341877396, 108.86363636364, 305.60219230925
3752, 2.1829178946828, 145.23629498016, 309.92660743071
3753, 15.742330441649, 59.138495058128, 305.93288645681
3754, 13.234465690942, 181.66633748179, 307.18331042649
3755, 4.9962373018957, 9.4852616734292, 309.61366707219
3756, 1.9062107513657, 129.26646613758, 309.94404969438
3757, 11.468828303511, 54.55289890546, 307.90914298931
3758, 13.637107448662, 105.53162522569, 307.00049661334
3759, 13.184930369586, 147.21959336288, 307.20534650781
3760, 7.2358954441526, 116.54537645576, 309.18425187883
3761, 6.8820672274158, 133.50110474874, 309.26298396998
3762, 46.929414647391, 45.437865038274, 283.22469022961
3763, 47.02494857393, 80.984819433476, 283.08933682653
3764, 46.994368326811, 116.93742501321, 283.13275336527
3765, 45.15325091082, 149.94244039718, 285.60103835824
3766, 43.618538704982, 187.20040183646, 287.46562532832
3767, 39.908784019903, 22.661286225779, 291.39491464
3768, 37.493310433851, 63.337541067794, 293.59474363626
3769, 53.199542194876, 62.830436415562, 271.81876967786
3770, 37.126488945554, 98.854810146571, 293.90755992509
3771, 53.239149562362, 134.51209929162, 271.72194636483
3772, 53.280778671895, 98.77732016641, 271.61963515225
3773, 36.8261897353, 167.8822374838, 294.15972995365
3774, 36.794842080191, 132.07890009697, 294.18585289766
3775, 50.294453732749, 170.81034221288, 277.86965955523
3776, 54.608526488424, 45.448677189848, 268.00441153615
3777, 50.087645590191, 15.795510419037, 278.23964870942
3778, 34.352413707708, 39.849714441094, 296.11032067178
3779, 34.199627388808, 81.107304983042, 296.22375456913
3780, 53.648823931977, 151.9991659714, 270.68945844424
3781, 54.781506292191, 80.266312916027, 267.47102081616
3782, 54.781367292499, 117.33186664783, 267.47145665262
3783, 33.196856008409, 115.43557472494, 296.94910809757
3784, 52.157747431467, 189.81120939567, 274.20370597399
3785, 50.500852309647, 31.448708666683, 277.49388870275
3786, 33.442619273047, 151.71051094614, 296.7743649466
3787, 32.358264109179, 182.83235680564, 297.53096615724
3788, 57.149070971573, 4.565473881955, 256.34300300221
3789, 31.352307235272, 12.252376271596, 298.20044430319
3790, 46.271883560193, 135.73828028793, 284.13448098026
3791, 46.651041391683, 59.571033584226, 283.6144364384
3792, 46.576911553399, 94.850724904914, 283.71707742594
3793, 30.466155053709, 52.778676006725, 298.76539137794
3794, 42.760221145758, 10.518190960897, 288.44233977746
3795, 29.750286652019, 27.684657095363, 299.20539039702
3796, 45.351649200376, 162.60864181332, 285.34795488859
3797, 43.532823600419, 33.710884668509, 287.56518693385
3798, 54.015578627339, 9.341845198642, 269.71210961703
3799, 56.03235769778, 142.55147368295, 262.90832641468
3800, 43.939437179322, 174.98326821204, 287.08875652222
3801, 53.785949712938, 178.9535710055, 270.33031267534
3802, 56.020006810974, 56.210185952783, 262.96182228309
3803, 49.38063567498, 178.90824990728, 279.45849317828
3804, 29.279285792944, 140.26920971679, 299.48710360746
3805, 56.181064690011, 106.24279627507, 262.24491610003
3806, 56.211032624727, 91.667950192057, 262.10660197008
3807, 29.233152661078, 70.327223176806, 299.51436948497
3808, 29.256711417751, 91.921116569143, 299.5004528971
3809, 40.197715011811, 51.779041059173, 291.11439781669
3810, 56.240980189729, 69.589913655471, 261.96670996133
3811, 56.301714763127, 128.13226323777, 261.6776245329
3812, 54.023864543539, 163.5650762141, 269.68938952282
3813, 28.696240725098, 104.42270809499, 299.82745998189
3814, 51.00750245516, 52.170174060432, 276.54213053406
3815, 44.035781958212, 70.374441802109, 286.9743141563
3816, 28.881920306769, 125.61344789596, 299.72006314752
3817, 28.629911472316, 162.06373894911, 299.86560106012
3818, 43.927346792041, 105.81747830352, 287.1030753956
3819, 39.122909906258, 143.21966627199, 292.13843756556
3820, 51.590195976326, 109.56226366583, 275.39097633263
3821, 51.582989160381, 87.893885511563, 275.40561412917
3822, 50.377440794874, 143.56473065457, 277.71936974318
3823, 51.336601530185, 73.467590433878, 275.89987149256
3824, 51.180671636074, 124.13689269908, 276.20665661393
3825, 41.459227583776, 88.030403108701, 289.84196842723
3826, 40.441994218383, 121.89607276126, 290.87413734429
3827, 28.294708703331, 173.16013530669, 300.05656260066
3828, 46.808766149097, 24.378759431249, 283.39445180863
3829, 53.130416457982, 22.732434889573, 271.98656059964
3830, 56.566481020512, 153.11748618446, 260.31907093473
3831, 50.236857621904, 158.43695881239, 277.97334689086
3832, 51.575385367576, 41.315742609389, 275.42104687431
3833, 40.577175402777, 156.22617682193, 290.7399415357
3834, 56.866733736454, 45.526885787422, 258.51026404686
3835, 27.041491541069, 44.01095523871, 300.74453404293
3836, 46.127850007697, 126.09890445055, 284.32887201274
3837, 48.189920090409, 6.8304385219219, 281.36848102283
3838, 26.765407137368, 61.261325106901, 300.89069640682
3839, 37.671132995882, 72.820101843862, 293.44117561492
3840, 41.34987195657, 42.066365557674, 289.95545130737
3841, 37.33258470116, 31.60001516439, 293.73246070747
3842, 39.006439777778, 181.17378373173, 292.24627386957
3843, 26.557625672854, 79.057127929557, 300.99943645395
3844, 26.497758864025, 19.539660046773, 301.03056706704
3845, 37.77791551293, 107.95881534055, 293.34834598342
3846, 56.80477818804, 119.56305536363, 258.91443632584
3847, 56.805744823383, 78.044534461694, 258.90827452769
3848, 37.306252437698, 6.503782820562, 293.75492576905
3849, 53.763140797398, 35.528169871076, 270.3905539797
3850, 26.187036367281, 112.75728847221, 301.19071328179
3851, 26.108085292541, 148.29806161122, 301.23102460773
3852, 54.873327369809, 171.39219967738, 267.18045236208
3853, 56.218250141589, 10.303858856738, 262.07304232651
3854, 57.474236469934, 10.36214666981, 251.72108750451
3855, 25.915173935287, 35.405118909068, 301.32887842047
3856, 48.915461694656, 102.92978201031, 280.22461922339
3857, 54.924008200516, 187.09679979813, 267.01773554823
3858, 25.631401910761, 6.1711097981083, 301.47116897924
3859, 25.898821677601, 187.01414139121, 301.33713115973
3860, 41.504768097092, 79.352332092705, 289.79452506573
3861, 49.740522614619, 65.757867512036, 278.84667069221
3862, 56.897512778395, 98.794084850167, 258.30199010072
3863, 56.900092546213, 135.44709290882, 258.28429044834
3864, 37.725109622616, 14.797522131805, 293.39430958042
3865, 53.974152225875, 143.83637403602, 269.82525892638
3866, 41.862266509767, 113.82575014179, 289.41827802765
3867, 25.646050859609, 133.09873658974, 301.4638715538
3868, 33.651801775471, 20.829971682535, 296.62409502891
3869, 34.827584282674, 175.44861311955, 295.75247941952
3870, 47.969435473276, 37.160397853831, 281.70462522055
3871, 45.338922504446, 16.803839683698, 285.36427726019
3872, 49.991853041886, 131.59322218135, 278.4088829319
3873, 54.240593224866, 53.266061851096, 269.08423555227
3874, 56.964588809015, 62.865276728746, 257.82851338504
3875, 54.306236653592, 16.493850374383, 268.89663093051
3876, 35.158960824016, 160.49431304996, 295.49832385677
3877, 35.883241260023, 91.202040162052, 294.9293111084
3878, 35.080348893895, 47.497361111988, 295.55896313002
3879, 54.131934846174, 70.444505216296, 269.39029731101
3880, 54.129128271852, 127.14212431724, 269.39813064523
3881, 42.347234581333, 131.07051845501, 288.89680865204
3882, 51.532167768501, 5.1278790924631, 275.50854141418
3883, 44.85724044218, 52.457097054218, 285.97329537188
3884, 44.348698274398, 142.59154769343, 286.59840107664
3885, 49.351650904702, 151.14636614085, 279.50702548514
3886, 25.192967723904, 98.108365955858, 301.68717807409
3887, 41.597000592674, 58.898786659736, 289.69810501388
3888, 35.323618163328, 124.99323294031, 295.37060722375
3889, 55.827473934952, 159.64335875168, 263.76746723411
3890, 57.084351513952, 112.16180978142, 256.90121817012
3891, 57.080884652097, 85.434176184198, 256.92983458201
3892, 25.213560932973, 155.71462691204, 301.67713561218
3893, 24.551406807387, 179.19462972224, 301.99498460215
3894, 46.622580731846, 169.33982214502, 283.65389971315
3895, 54.382858712818, 87.554953026381, 268.67497465117
3896, 54.597379641544, 110.01654378788, 268.03818550401
3897, 52.08284259443, 116.89480196922, 274.36447223487
3898, 52.08576498933, 80.684927479204, 274.35822418561
3899, 35.649851610227, 56.479106481758, 295.1147213243
3900, 25.711239872232, 86.222594209938, 301.43133426456
3901, 42.016580270086, 168.33340820266, 289.25375118899
3902, 47.518622210026, 87.852203505188, 282.37638866923
3903, 50.771287313569, 94.999346534239, 276.99122791803
3904, 42.263169355114, 95.056304193947, 288.98813301584
3905, 54.267171518002, 28.769693124575, 269.00852691388
3906, 55.539952947798, 62.826497923101, 264.88501348862
3907, 55.982167187237, 50.285000089533, 263.1242888196
3908, 24.83470846432, 119.87206778432, 301.86026663538
3909, 50.1526064303, 22.374361103546, 278.12411897727
3910, 57.087295647352, 51.823014035978, 256.87682162571
3911, 55.398371863161, 4.2033423860195, 265.40358383335
3912, 57.007935496117, 146.42177137367, 257.50635000986
3913, 47.715835873228, 74.032045682994, 282.08502776871
3914, 55.458642164232, 136.07533646355, 265.18515753292
3915, 46.696217328071, 156.37463225049, 283.55165103612
3916, 31.931352626837, 98.290049391612, 297.81881135516
3917, 24.369408806609, 50.542878557598, 302.08053296978
3918, 45.385635072693, 181.02628092178, 285.30430751407
3919, 47.743093516592, 109.74735740477, 282.04445383317
3920, 33.646170423127, 144.87965877071, 296.62815904427
3921, 50.710979380295, 59.284523368798, 277.10436441408
3922, 55.489778552275, 99.874202524112, 265.07098126266
3923, 24.563500070508, 167.32186952702, 301.98927258855
3924, 24.551574870565, 12.909835981363, 301.99490524441
3925, 51.420893904038, 164.59991892988, 275.73211359585
3926, 51.739686683191, 183.19149999671, 275.08495210131
3927, 32.07478215571, 64.306592723427, 297.72272361951
3928, 40.704684861279, 149.40441398497, 290.61254277122
3929, 31.411329083741, 134.04461510957, 298.16200167345
3930, 47.35411225421, 30.734470408471, 282.61653035833
3931, 42.896557460224, 27.237692250065, 288.29014701019
3932, 44.326804799862, 4.2084845522027, 286.62491469253
3933, 31.754452984119, 4.332469844267, 297.93646540661
3934, 24.733659699419, 25.777204787759, 301.90853569379
3935, 55.436082919545, 148.78824817082, 265.26730855578
3936, 39.050822005221, 162.97396032787, 292.20525205133
3937, 31.641919068064, 167.73871455746, 298.01082125615
3938, 41.297376818609, 137.47567910317, 290.00970717091
3939, 32.772034045824, 33.53366727478, 297.24662722882
3940, 52.536179158649, 46.904938586084, 273.37091952428
3941, 35.530458783771, 138.51215400042, 295.20880996681
3942, 52.740020168867, 173.28234804459, 272.90721005683
3943, 39.728884644568, 173.70221366377, 291.56760427182
3944, 24.375483891733, 67.207273385301, 302.07768989734
3945, 52.383558759663, 13.472403912525, 273.71102637325
3946, 48.476091365461, 185.08284614279, 280.9244008176
3947, 52.977839282355, 157.98131805606, 272.35170116508
3948, 55.501273796517, 181.38059743643, 265.02859298018
3949, 50.90618846114, 137.67279952154, 276.7359304375
3950, 57.160245302436, 125.31337760645, 256.24150278101
3951, 57.15944597806, 72.300797691096, 256.24881872686
3952, 24.139972981065, 142.36705532392, 302.18727531184
3953, 48.387796053682, 164.08028078753, 281.06237584389
3954, 33.287871999505, 75.041887289722, 296.88461984217
3955, 30.530232802278, 85.704637018279, 298.72530025601
3956, 33.224324820367, 108.63040687986, 296.9296733446
3957, 57.070628921318, 92.891138291768, 257.01379458818
3958, 57.168516897816, 104.75599892782, 256.16527985611
3959, 50.012831666796, 47.281663427582, 278.37193452461
3960, 54.887988651781, 93.897101381833, 267.13355484895
3961, 24.473820557753, 73.370949630343, 302.03154915344
3962, 57.103045420781, 12.406917971196, 256.74479085459
3963, 44.050210347325, 64.142190055539, 286.95712337773
3964, 48.274515537779, 54.271914424058, 281.23813614147
3965, 24.068337618481, 106.95503926812, 302.22035162925
3966, 45.204584703585, 40.213256362214, 285.53583433348
3967, 41.636891203675, 17.387370468672, 289.65626420748
3968, 43.362053555964, 47.352741217716, 287.76218096733
3969, 53.282891824792, 105.02041271749, 271.61442663564
3970, 40.027843101083, 36.313484929041, 291.2797986511
3971, 55.80172427683, 75.260865009239, 263.87146595471
3972, 55.800302499973, 122.34169338313, 263.87718418526
3973, 47.359545138548, 145.24293301022, 282.60864125151
3974, 55.605503869786, 166.1348900784, 264.63823552848
3975, 38.058988246441, 116.74832053179, 293.10177970406
3976, 57.186933166595, 141.02940036063, 255.99205098438
3977, 56.083065130251, 84.707777179351, 262.68620532689
3978, 23.724253937852, 92.231284626015, 302.37756938893
3979, 56.08436942656, 112.90130585979, 262.68043792718
3980, 23.613345542189, 127.44770306979, 302.42766361669
3981, 48.538239485104, 121.80707672724, 280.826762848
3982, 44.482994763009, 99.881169470741, 286.43505423235
3983, 40.58791544516, 68.023063232791, 290.72924158165
3984, 30.119720832604, 119.80650309639, 298.98012267202
3985, 34.774954049111, 26.468077933479, 295.79249470036
3986, 57.20731437573, 156.57465854096, 255.79423695722
3987, 34.800132511705, 103.56263869981, 295.77336318393
3988, 23.603551843792, 55.996149868481, 302.43207358438
3989, 36.500224871003, 185.63412446867, 294.42953504558
3990, 44.049197595297, 120.86242611097, 286.95833047109
3991, 50.073118197184, 10.49426670863, 278.26539994429
3992, 40.431581610534, 103.2572627334, 290.88443724048
3993, 51.846095688375, 148.81911315867, 274.86427883273
3994, 44.279516444762, 85.925319517976, 286.68207223451
3995, 53.578164693955, 41.061864413804, 270.87175766502
3996, 30.01264277952, 156.48568933687, 299.04580790841
3997, 38.4172192675, 83.313222691099, 292.78279167788
3998, 49.887277070448, 113.86066142946, 278.59212455374
3999, 31.277666108992, 58.537699595089, 298.24891296987
4000, 46.848050103345, 174.73666720297, 283.33931915193
4001, 53.55272608599, 75.499716265553, 270.93694172411
4002, 55.763428802367, 176.04646740766, 264.02462149947
4003, 53.537309520125, 122.09858862161, 270.97633164656
4004, 57.263473715824, 57.537319852387, 255.21004587285
4005, 23.499575132631, 161.27831602216, 302.47875730794
4006, 48.075178136676, 12.353928068591, 281.54405248421
4007, 49.726412401356, 83.416221819573, 278.87098733487
4008, 52.150791531796, 68.100955982517, 274.21868994407
4009, 40.739862798558, 3.0927497125797, 290.5772544556
4010, 39.258922845659, 127.38557660673, 292.01174808311
4011, 55.452513051034, 154.45601489152, 265.20752433255
4012, 29.582033236991, 39.207680785418, 299.30672681862
4013, 53.838717765906, 2.8891362743398, 270.19015773398
4014, 53.062728452169, 57.565116973361, 272.14942096786
4015, 34.104889011455, 69.426772238251, 296.29369876686
4016, 44.549647308654, 75.978327401058, 286.35352699085
4017, 48.343894171639, 139.95576214124, 281.1306584627
4018, 23.666633116475, 40.097251828833, 302.4036303793
4019, 51.817290103122, 18.553688401845, 274.92425417879
4020, 52.415266852641, 27.759126200894, 273.64085025473
4021, 55.0154731791, 20.966647875959, 266.71968034622
4022, 30.681768199736, 177.68692419315, 298.63002262119
4023, 23.26112923358, 174.36435402076, 302.58488249277
4024, 46.468408992604, 67.218323198196, 283.86645782623
4025, 43.583273696334, 21.951278514702, 287.50664279712
4026, 43.453821747133, 157.72016042823, 287.6565449234
4027, 51.874951761004, 177.99093856131, 274.80401942818
4028, 37.08935706063, 148.67380463721, 293.93893026496
4029, 57.243577531528, 130.75643302311, 255.42428164755
4030, 49.662249768693, 78.176887332179, 278.98121715719
4031, 51.758171757861, 36.176957781345, 275.04678934083
4032, 52.701708176474, 93.101620807506, 272.99521592162
4033, 53.054571180314, 168.08404182729, 272.16895299451
4034, 55.681379500578, 14.249370660597, 264.34691524031
4035, 30.622455995576, 47.342963884818, 298.6673934868
4036, 52.299850269273, 129.60747942798, 273.89509702453
4037, 54.91393882062, 58.263260140173, 267.05020009282
4038, 39.034237159197, 46.846823543444, 292.22059129619
4039, 51.58232135621, 154.06809741844, 275.40696997882
4040, 51.415368528243, 101.72453960635, 275.74315208177
4041, 44.522469302492, 91.113903159468, 286.38680704883
4042, 48.798781754135, 42.091107091694, 280.41264374092
4043, 22.748636084487, 31.069239094594, 302.80861252008
4044, 49.621559403892, 27.234510672607, 279.05083204189
4045, 37.617638091359, 78.120553696807, 293.48750745246
4046, 40.339758929893, 185.9287461844, 290.97503934688
4047, 35.796291674422, 155.41339680166, 294.99861667162
4048, 32.332371718027, 128.65560188489, 297.54858293459
4049, 48.077795268048, 19.362750699227, 281.54006344578
4050, 42.80953798265, 125.86639985923, 288.38741275095
4051, 41.395445252685, 73.802058980965, 289.90823364084
4052, 55.203308529487, 130.98025041324, 266.08865213118
4053, 49.588929694146, 2.5157307876822, 279.10649501038
4054, 47.272766381879, 130.87235667659, 282.73431775071
4055, 57.269989111111, 67.260451724468, 255.13793219235
4056, 42.601815258995, 179.61871096369, 288.61781113215
4057, 53.687484830934, 183.8977493204, 270.58892839679
4058, 22.911768963709, 137.30912171959, 302.73803980955
4059, 54.130930501055, 138.99308062601, 269.39310091476
4060, 34.911839962309, 86.06827870629, 295.68821982137
4061, 49.094663856813, 126.92648991563, 279.93265742941
4062, 57.304579542999, 151.57409740298, 254.7365771819
4063, 44.675130576237, 110.91860682956, 286.19920866533
4064, 54.979445954842, 104.67948709162, 266.83777071048
4065, 54.986290751279, 38.741934366083, 266.81540452727
4066, 30.440380306103, 17.230129091364, 298.78148467216
4067, 57.291356365264, 116.42039902516, 254.89392335742
4068, 57.290985470982, 81.173862929618, 254.89826334161
4069, 22.712275682777, 2.804854924207, 302.82426084016
4070, 56.50344746727, 1.9009233254481, 260.65881908625
4071, 22.757350754896, 81.853697934156, 302.80485760438
4072, 22.455777416947, 45.740117989646, 302.93380829489
4073, 41.35860518201, 108.93070259389, 289.94641132065
4074, 30.372604295474, 147.96004031382, 298.82371256173
4075, 57.368499074562, 45.491936644709, 253.88655553569
4076, 22.63054609834, 151.49660894367, 302.85932636055
4077, 39.473149855806, 10.294126474035, 291.81053025807
4078, 29.66524131818, 22.901545366018, 299.25670977171
4079, 35.331443651684, 10.936891647556, 295.36451354845
4080, 40.956677115174, 31.172046351129, 290.35840184749
4081, 35.055109928861, 119.7944104234, 295.57838597269
4082, 55.826857601433, 189.67869213016, 263.76996624358
4083, 35.609953640677, 180.1756976527, 295.14622023723
4084, 22.558043203243, 183.74674838642, 302.8903080615
4085, 28.109954143315, 182.87015294156, 300.16054702713
4086, 22.537811577089, 102.21929401962, 302.89893240242
4087, 22.5933951331, 115.75343147405, 302.87521627719
4088, 55.154189259679, 32.978489642828, 266.25624209673
4089, 37.165881653213, 42.188469426755, 293.87422068754
4090, 52.389142681096, 141.27895285715, 273.69868623236
4091, 22.559657761897, 17.296040969863, 302.88961941313
4092, 42.821894385305, 153.046156463, 288.37362846088
4093, 39.123528621011, 92.296930398776, 292.13786311906
4094, 47.67158798586, 49.794000201954, 282.15073403371
4095, 22.728703617781, 189.89442814605, 302.81719447164
4096, 49.482250264689, 70.54084846387, 279.28748723846
4097, 35.383548824916, 1.9690075508303, 295.32388412917
4098, 22.312179312956, 61.671644887823, 302.99449645299
4099, 53.607119464417, 83.525516253006, 270.79727729122
4100, 53.60830738148, 114.07164632884, 270.79421505354
4101, 30.145803929612, 186.95324612395, 298.96407361972
4102, 45.908776678504, 8.7915341546406, 284.62129725882
4103, 48.749934629525, 98.033935990669, 280.49088181108
4104, 56.210537005855, 96.219882012318, 262.10890290296
4105, 28.905767721957, 75.095590324252, 299.70620275584
4106, 54.607457908625, 159.12174614653, 268.00765228334
4107, 36.482555150496, 112.43369515494, 294.44404537945
4108, 36.530462392871, 36.027209966144, 294.40467675103
4109, 36.509850632256, 51.950278907088, 294.42162544089
4110, 37.393504135017, 19.34953242163, 293.68038287955
4111, 28.211644526442, 65.721414704431, 300.10342416556
4112, 56.815348793208, 159.51710173252, 258.8468153313
4113, 28.19961323129, 152.12238914064, 300.11019670292
4114, 38.733240019566, 27.328102042113, 292.49689538762
4115, 40.937528049318, 63.349670465273, 290.37782556319
4116, 46.93008572213, 2.2008512190761, 283.22374232553
4117, 55.386140473285, 67.378034418312, 265.44750605999
4118, 52.655108376498, 32.212386529093, 273.10172205398
4119, 56.503823332831, 14.126257816105, 260.65682639308
4120, 22.478888093077, 8.7519757250235, 302.9239982437
4121, 52.374691791551, 9.0505976650686, 273.73060597077
4122, 30.059324095154, 80.94068788101, 299.01721161941
4123, 32.101193829344, 172.40764878744, 297.70496153159
4124, 34.067167735017, 15.576023029304, 296.32146459811
4125, 30.137541750696, 112.94861033654, 298.96915944985
4126, 28.214039775989, 2.1176493507282, 300.10207540131
4127, 39.144074403616, 56.295056404024, 292.11877774917
4128, 27.770036356181, 56.211313590751, 300.34952910183
4129, 56.254468204594, 132.6411591541, 261.90314273704
4130, 50.575739446783, 186.9492527265, 277.35588747256
4131, 55.995731842685, 117.58854499682, 263.06629310103
4132, 34.541135836406, 60.852818447992, 295.96911936432
4133, 55.994715324684, 80.02300521403, 263.07064863377
4134, 57.316303467206, 76.586651362379, 254.59253272771
4135, 57.31609726665, 121.02078723416, 254.59510545253
4136, 49.72014889672, 107.21575113284, 278.8817726895
4137, 55.981903162617, 170.81034221288, 263.12541497597
4138, 48.774037010125, 61.607183720713, 280.45231212461
4139, 48.815652704138, 135.50461939095, 280.38555661937
4140, 31.48759026643, 42.927949994665, 298.11217786812
4141, 50.122696406057, 118.4494154712, 278.1773899605
4142, 43.158554984779, 146.72838272446, 287.99459345257
4143, 55.935298362652, 185.25187364686, 263.32262725895
4144, 29.643156887472, 8.1553439715778, 299.27000354927
4145, 35.165549683503, 95.746260109369, 295.49323153456
4146, 34.592944776105, 164.95320324166, 295.93014447743
4147, 49.876309892572, 90.730331271251, 278.61125148434
4148, 28.913296225403, 32.17602049007, 299.7018239241
4149, 28.686508140202, 130.15543456982, 299.83306383037
4150, 22.009329046962, 21.919082614974, 303.12098864764
4151, 42.391013882996, 54.482189843574, 288.84909190665
4152, 46.319781833796, 103.26823560422, 284.0694556879
4153, 22.325234617367, 146.54771150471, 302.98899790786
4154, 38.204130108592, 136.15791813651, 292.97318283122
4155, 50.247130328005, 175.09761802344, 277.95489033784
4156, 55.310441808709, 8.477790485113, 265.71639357249
4157, 56.914969471545, 8.4010380605233, 258.18145769732
4158, 55.065499462333, 25.422584251852, 266.55417678303
4159, 53.934640948424, 48.985273108863, 269.93249873359
4160, 57.327627165638, 108.87110054996, 254.44895083785
4161, 57.328106539426, 88.722764968767, 254.44276947458
4162, 22.288121427797, 111.14572825126, 303.00461907438
4163, 28.440676522589, 108.93304945308, 299.97377231046
4164, 57.457199916725, 14.481124651743, 252.21814736425
4165, 28.031831183705, 144.45085097872, 300.20424723555
4166, 47.836398404035, 159.82259257274, 281.90499941593
4167, 42.150334536886, 83.747774469176, 289.11009202787
4168, 54.657251711676, 175.46432675908, 267.85594677766
4169, 22.230996316366, 123.27220491962, 303.02860362844
4170, 32.549492624578, 89.527536875255, 297.40021655945
4171, 56.331403076985, 138.32131139991, 261.53356091492
4172, 56.491821554797, 148.8317633312, 260.72026573462
4173, 57.3456359026, 137.01991813261, 254.21046825501
4174, 57.333400550684, 100.73599111707, 254.37392058625
4175, 51.466870453188, 63.440119050566, 275.64003209348
4176, 56.478377183635, 101.98959993462, 260.79087163778
4177, 22.183003056806, 77.491634387972, 303.04869814974
4178, 54.152218601599, 148.01083127631, 269.33357754076
4179, 56.276099844986, 65.371585915887, 261.80044856085
4180, 37.899322918674, 87.858257395361, 293.24224002415
4181, 22.092756922423, 35.321052143981, 303.08634562264
4182, 56.326241655936, 60.564144424073, 261.55874132063
4183, 42.094998179505, 118.24599376823, 289.16964549581
4184, 55.172508452003, 144.48694611136, 266.19395909324
4185, 28.667514477981, 96.227773408104, 299.84399275394
4186, 43.636212713731, 134.91959924149, 287.44503892376
4187, 40.749839315899, 98.934648224379, 290.56723549527
4188, 46.035777996316, 185.29406588206, 284.45224440111
4189, 49.181782466758, 34.695102385573, 279.78929796743
4190, 44.726446193715, 56.755764805786, 286.1357857377
4191, 56.567707592676, 124.06083305937, 260.31234491809
4192, 56.566811970916, 73.542948158418, 260.3172565853
4193, 38.905745914855, 152.46703766266, 292.33902378195
4194, 45.499311805047, 28.029000869661, 285.15768230795
4195, 44.262273962339, 80.868296109072, 286.70287595929
4196, 37.158521681741, 67.664321465911, 293.88045426414
4197, 27.833277815036, 136.09784567441, 300.31459674956
4198, 54.488757967668, 167.47163717558, 268.36369394052
4199, 37.693031977806, 177.26954988443, 293.42217567465
4200, 44.533735642028, 166.73439036209, 286.37301733107
4201, 44.047720740442, 170.89296456879, 286.96009060557
4202, 49.048315597942, 168.11789709848, 280.00854439997
4203, 48.909816884205, 155.2133222424, 280.23375286585
4204, 27.485731217931, 116.78618468966, 300.50529258816
4205, 56.325630077073, 163.14073204536, 261.56172117034
4206, 47.215722474277, 152.36342248063, 282.81654386483
4207, 22.081503836834, 131.38565267873, 303.09102738038
4208, 42.838938507465, 37.634782321328, 288.35460008335
4209, 42.17117809788, 164.22187274371, 289.08761616979
4210, 46.252540167255, 34.366346024798, 284.16068687946
4211, 36.65551432038, 172.02214663877, 294.3015041495
4212, 28.045947549673, 168.83815529295, 300.1963626774
4213, 44.674172463365, 12.942590028104, 286.20039108509
4214, 57.328051883357, 96.585655586334, 254.44347468308
4215, 55.354151046436, 42.361013590519, 265.56174675055
4216, 31.999544720301, 123.35695185496, 297.77320522734
4217, 44.369847271632, 115.86676779536, 286.57275834678
4218, 38.030959764496, 159.23490269963, 293.12651272003
4219, 28.720913058193, 100.40453104892, 299.81324274833
4220, 21.78981157089, 170.22126385988, 303.21140960081
4221, 28.123582598505, 14.038906661322, 300.1529072121
4222, 56.262659512737, 6.2038349027806, 261.86436448166
4223, 54.587099968258, 12.717661301484, 268.06926996465
4224, 21.684012034645, 88.726097283022, 303.25461127528
4225, 44.896169828362, 129.71838011886, 285.92469811624
4226, 52.672359139494, 161.90232424273, 273.06236290323
4227, 56.852996860771, 108.08697841983, 258.60155497275
4228, 56.854600625219, 89.505598946093, 258.59094801211
4229, 55.344300500388, 126.1302117236, 265.59674331784
4230, 26.394948113474, 29.21151060843, 301.0838204727
4231, 21.980596260166, 95.918675635547, 303.13288424364
4232, 55.493413654359, 53.768918900885, 265.05759080949
4233, 51.544155648209, 133.8615723722, 275.48430926106
4234, 46.019572496105, 139.79222563254, 284.47388790484
4235, 52.803662410336, 51.516896768919, 272.76012381459
4236, 57.367603187257, 61.7358054814, 253.89975698594
4237, 31.681974782624, 160.03639342104, 297.98439823394
4238, 55.317452484729, 18.09241954899, 265.69170005448
4239, 42.871504590527, 183.53762877792, 288.31819534039
4240, 55.336501235295, 71.446697305519, 265.62439218133
4241, 27.242187267619, 83.085239519709, 300.63707369977
4242, 56.664198861372, 49.225967119768, 259.76824279996
4243, 53.481418662047, 18.994032569757, 271.11842460732
4244, 55.479229532964, 140.12363370717, 265.10976804682
4245, 42.337342343283, 6.6337286879115, 288.90757565446
4246, 57.365156183268, 49.440454301721, 253.93558840191
4247, 32.600236699564, 140.91484164843, 297.36533085636
4248, 41.534345229048, 141.49413864908, 289.76365383606
4249, 49.249087973006, 147.16781733138, 279.67789301529
4250, 21.841429162585, 157.71688540224, 303.19024320433
4251, 39.768548658168, 132.72432497996, 291.52965853005
4252, 55.688444436825, 46.686703842545, 264.31946773475
4253, 51.692272299197, 24.312112803612, 275.1825134676
4254, 33.672715826992, 187.50448785286, 296.60899278932
4255, 56.673076968407, 115.4682511983, 259.7166016144
4256, 56.673405779314, 82.138225305455, 259.71468359614
4257, 54.022046436723, 66.454147183528, 269.69437733945
4258, 44.415086178507, 44.009465203404, 286.5178055167
4259, 21.634542447994, 177.98868353711, 303.2747273392
4260, 39.423319811645, 169.72614852616, 291.85751850061
4261, 45.986097260027, 20.637072377433, 284.51852920956
4262, 52.357047302199, 1.4162853779014, 273.76950983498
4263, 40.983743882341, 13.527551362688, 290.33091540477
4264, 33.356130855974, 50.845548728624, 296.83608154318
4265, 21.870990972767, 53.144907975676, 303.1780946807
4266, 57.379255894886, 1.4891647488365, 253.72437819632
4267, 33.433636060349, 8.0666617071537, 296.78078643828
4268, 36.601358109462, 23.350867226877, 294.34625784148
4269, 21.667825375167, 70.127255108556, 303.26119923088
4270, 57.36285240904, 144.45038887206, 253.96902550996
4271, 37.512721042906, 122.23803006238, 293.57804217673
4272, 39.464119325502, 111.92248804666, 291.81905410052
4273, 33.719601969213, 30.506606742753, 296.57508392948
4274, 53.962210863918, 131.08215927441, 269.85773901223
4275, 55.340074687873, 162.74702313557, 265.61173063887
4276, 49.585710273428, 51.137314446991, 279.11197926421
4277, 57.364749753481, 7.8645986764622, 253.94150805156
4278, 50.011915456658, 182.5435548308, 278.37354951986
4279, 38.760502217744, 60.059982948256, 292.47203159525
4280, 50.248928370993, 55.628708102215, 277.95165822571
4281, 45.235880187668, 48.742041960782, 285.49598771195
4282, 28.71460386401, 49.97192913809, 299.81687991969
4283, 55.41179587434, 109.24936139244, 265.35522314981
4284, 55.634984314822, 88.253626109903, 264.52578811251
4285, 31.940235944232, 94.31646770993, 297.81287826336
4286, 57.383901488457, 54.219214805527, 253.65210212934
4287, 52.451196903588, 145.22706575895, 273.56102594076
4288, 21.798814846545, 164.77216053704, 303.20772191408
4289, 49.952230700276, 38.939085005425, 278.47849448385
4290, 46.721029538897, 63.854427744563, 283.51709114505
4291, 36.890082858538, 103.7859003762, 294.1063690037
4292, 54.392822784562, 101.10645326265, 268.64593332411
4293, 49.883855825109, 6.378867950828, 278.59809308363
4294, 51.598367624941, 105.05204723817, 275.37436616827
4295, 54.083904980346, 155.701297037, 269.52386288819
4296, 52.823372755057, 72.44406779662, 272.7143410818
4297, 27.970670829347, 88.278480308057, 300.2383476376
4298, 53.02366835037, 125.27418615993, 272.24276499606
4299, 27.413390332698, 176.83601433852, 300.54459447327
4300, 25.895214449882, 123.42307232402, 301.33895079367
4301, 50.065522235355, 162.18386317209, 278.27885222744
4302, 40.650071068793, 177.09604991858, 290.66720696215
4303, 35.843924897307, 142.34824954213, 294.96068335731
4304, 34.622945824755, 134.80198877955, 295.90753339503
4305, 53.126541723688, 88.797597654938, 271.99592154199
4306, 25.751852466143, 139.13610450093, 301.41101141353
4307, 35.255437176006, 43.856305406154, 295.42360784359
4308, 56.105761453368, 178.82236703218, 262.58544920683
4309, 36.200283204948, 127.86004462667, 294.67425988062
4310, 51.241317902398, 44.993135431048, 276.08787725411
4311, 56.817138493854, 143.5951941634, 258.83531399387
4312, 47.16236144465, 178.58204836464, 282.89318566153
4313, 48.467827092856, 171.79726604571, 280.93735180808
4314, 54.485410629818, 61.659965295616, 268.37362317291
4315, 54.472731945907, 122.9674322681, 268.41117797289
4316, 40.937837815778, 159.40620450325, 290.37751150045
4317, 53.295894591268, 108.43794947198, 271.58234509307
4318, 43.525903096243, 138.77951441838, 287.57320534179
4319, 54.895237381183, 84.102930447242, 267.1103159779
4320, 51.530539497348, 168.27095231458, 275.51183057157
4321, 51.509885318326, 97.834015726639, 275.55350689226
4322, 54.896093491415, 113.49970999838, 267.10756906699
4323, 46.365817689793, 71.010658627885, 284.00677800023
4324, 53.314357417378, 186.75694180663, 271.53669643126
4325, 54.461457843464, 74.703958645009, 268.44450079467
4326, 56.500203285093, 52.895579117648, 260.67600247017
4327, 37.39462050085, 163.10210809737, 293.67942716654
4328, 57.373394276635, 112.66618470933, 253.81361104176
4329, 31.57122382709, 102.11693678658, 298.05733894068
4330, 47.962320184413, 91.935861259574, 281.71538810306
4331, 27.363474823328, 158.52964362949, 300.57163479257
4332, 34.233144994605, 169.70274441369, 296.19893704165
4333, 57.377048728547, 84.919854070619, 253.75822819983
4334, 54.760389942693, 1.441411421113, 267.53709478004
4335, 46.957510566222, 99.662017297678, 283.18496951066
4336, 41.464406653965, 172.5079683127, 289.8365784278
4337, 56.308159492279, 156.64555532659, 261.64650911613
4338, 34.166516442148, 156.8684787383, 296.24823406584
4339, 26.355025591594, 9.993874801231, 301.10442863458
4340, 54.213978664994, 25.332282564614, 269.15971078361
4341, 50.834262310013, 127.75814088164, 276.87243523384
4342, 54.889807786775, 5.9498310123823, 267.12772609341
4343, 43.907128582161, 60.18929993076, 287.12699906631
4344, 26.608050144197, 70.405209748752, 300.97314653348
4345, 51.719204777009, 84.552463460478, 275.12715378299
4346, 51.997064082552, 112.90258269952, 274.54700239938
4347, 52.016986591388, 76.907349204978, 274.50475680254
4348, 42.728834807939, 1.2972851201465, 288.47722282021
4349, 52.010175365695, 120.67486473966, 274.51920998788
4350, 38.123910617122, 1.2456865761262, 293.04436594094
4351, 47.86162565276, 15.863798729662, 281.86714279434
4352, 44.246572208333, 96.117268879874, 286.721803439
4353, 53.529088513505, 79.729519808416, 270.99730180079
4354, 53.527168838196, 117.85531769222, 271.00219503212
4355, 45.156694479742, 153.71687058403, 285.59667040136
4356, 32.613402069999, 55.691518876308, 297.35626680198
4357, 48.778900146223, 57.891195172686, 280.4445216833
4358, 47.094729730984, 84.753583407641, 282.98994440077
4359, 55.051937473235, 49.306407962244, 266.59922228428
4360, 52.21861173742, 137.73349404708, 274.07211225083
4361, 56.940601618487, 69.246633486665, 258.00111787969
4362, 56.933639862948, 128.37899083712, 258.05050631676
4363, 53.488601340859, 44.64637453475, 271.10022574758
4364, 25.35753392124, 171.00120727738, 301.60664175698
4365, 47.047084086952, 40.374732122539, 283.05785653843
4366, 46.676258469841, 77.293594516651, 283.57941177651
4367, 30.480057804744, 164.47874569282, 298.75670288503
4368, 46.558931645013, 122.35781136567, 283.74190101454
4369, 41.911318874752, 50.503971477028, 289.36611931825
4370, 25.754867777011, 103.8920186045, 301.40950092919
4371, 34.993505400819, 65.213213646162, 295.62570086873
4372, 42.423041752, 91.304159140949, 288.81411506795
4373, 57.265993061873, 14.787720399627, 255.18228121945
4374, 38.762935367128, 95.760909650488, 292.46981094523
4375, 51.256115670964, 49.050222461193, 276.05879134428
4376, 34.757434644591, 99.640869297759, 295.8057937048
4377, 54.795138832884, 178.53242182037, 267.42821735821
4378, 46.597739858383, 112.86299852909, 283.68828639291
4379, 40.755196699512, 145.75594514844, 290.56185328587
4380, 57.362143280195, 159.44318316023, 253.97926102466
4381, 39.977381381344, 166.20127063843, 291.32867016843
4382, 26.291537837853, 163.82375463761, 301.1371199631
4383, 54.515230659876, 134.35199158035, 268.28495627833
4384, 46.840118130509, 165.15925541718, 283.35046226846
4385, 42.777119193818, 67.251362789948, 288.42353541097
4386, 26.263086246499, 40.292428017266, 301.1517380038
4387, 20.711904697144, 119.4037156897, 303.64016222772
4388, 50.234623861725, 18.919592917395, 277.97735808598
4389, 53.306649270381, 6.5260145376939, 271.55576822024
4390, 57.356776845536, 148.56211069829, 254.05587843647
4391, 21.171883153157, 48.880813361636, 303.46027837328
4392, 47.356035733967, 188.09047371019, 282.6137375896
4393, 21.060020029876, 13.958375175102, 303.50444426719
4394, 49.918228083049, 87.063670208816, 278.53805363105
4395, 48.580425157983, 24.036287288426, 280.7602388071
4396, 53.958338253702, 32.047842312509, 269.86825943305
4397, 31.421162681539, 137.62181265599, 298.15558675523
4398, 32.129380158086, 37.3511113847, 297.68598253845
4399, 56.960894576086, 0.71712371349008, 257.8553478021
4400, 39.168519584207, 139.54390294832, 292.09604581884
4401, 55.364844685889, 29.563567753089, 265.52365848978
4402, 27.495382485568, 25.559569377165, 300.50003902941
4403, 42.917867130382, 102.64101149834, 288.26626034745
4404, 47.737806562883, 105.96835340312, 282.05232947174
4405, 32.858299903636, 24.812706689288, 297.18667319745
4406, 47.691485524761, 148.95217418776, 282.12121119201
4407, 54.810259009945, 97.309605698571, 267.3806072179
4408, 45.139762795215, 177.71161192166, 285.61813884514
4409, 29.878816968734, 61.797212903881, 299.12744952212
4410, 21.826695070196, 27.857950271989, 303.19629105786
4411, 53.757910042475, 170.95211267798, 270.4043404173
4412, 57.391786717615, 127.68554690104, 253.5260200453
4413, 46.130614362263, 159.75299861054, 284.32515722557
4414, 52.466101333866, 39.180776596341, 273.52781780838
4415, 55.775026812127, 1.0035677437495, 263.97842566624
4416, 49.629179798625, 74.32468194398, 279.03781177217
4417, 21.367881010914, 65.121523431416, 303.38224106483
4418, 31.446800786293, 67.833957709952, 298.13884834837
4419, 48.115998488555, 181.64976892174, 281.48175168966
4420, 52.600456090187, 60.424024011855, 273.22589113693
4421, 54.855957470344, 151.32762056383, 267.23583273335
4422, 52.088266075015, 55.77701552033, 274.35287533944
4423, 39.232844558072, 6.7914279466498, 292.03610243448
4424, 48.922478974279, 32.197066271116, 280.21325952312
4425, 35.782009211248, 75.438011609106, 295.00997463681
4426, 38.190849284242, 38.808065421729, 292.98498611083
4427, 45.928716820112, 145.83501048312, 284.59484024039
4428, 29.856054764282, 35.708881106153, 299.14128604251
4429, 55.936063840767, 151.74346676741, 263.31941297511
4430, 30.553869352138, 116.24728025002, 298.7104821123
4431, 56.772071521032, 95.227199423377, 259.12041091239
4432, 54.913198671146, 183.77908480685, 267.05258372515
4433, 41.642353735229, 23.85811148283, 289.65052805941
4434, 33.908934020278, 148.3637478187, 296.43742234027
4435, 52.548669434442, 180.66700088544, 273.3428220374
4436, 32.677541028402, 0.84545631681755, 297.3120313698
4437, 56.8749137197, 56.043772657716, 258.4554236663
4438, 35.151175687057, 106.85082623025, 295.50433878014
4439, 19.814439140947, 188.24332733326, 303.97812521318
4440, 21.301646681383, 84.639577251088, 303.4087057385
4441, 50.940126969968, 28.11301260954, 276.67121040155
4442, 51.132983116134, 13.280063799315, 276.29958246142
4443, 32.327920782196, 78.402047818479, 297.55160920411
4444, 47.403763171292, 27.172257019298, 282.54432726605
4445, 43.568329732757, 15.466011905356, 287.52400091005
4446, 26.218209197013, 47.801557165801, 301.17475458174
4447, 43.862455358674, 30.104149940032, 287.17976613574
4448, 56.113356729267, 146.09404959851, 262.55154160149
4449, 39.989238385482, 76.699345138223, 291.31719754956
4450, 32.035963330626, 105.70185302781, 297.7487911206
4451, 45.771784576287, 107.99361276264, 284.80220879056
4452, 44.604023261664, 24.958231280851, 286.2867897295
4453, 56.316628379286, 87.603800725763, 261.60548870102
4454, 56.410729452304, 110.14900414212, 261.13910241711
4455, 46.163125377616, 54.816908704816, 284.28142143159
4456, 57.354074498063, 133.58734695097, 254.09391480989
4457, 49.918806987669, 165.6903075762, 278.53704099811
4458, 39.563895093031, 19.228790634164, 291.72467141953
4459, 49.216038033786, 12.460296062547, 279.73266890572
4460, 53.457851584395, 14.008773181843, 271.1780099155
4461, 38.361915150213, 188.06452341486, 292.83238804932
4462, 53.616239344453, 95.410787663594, 270.77375456094
4463, 25.678438945056, 16.170147851617, 301.44771883519
4464, 26.919473174462, 93.694806213424, 300.80936886057
4465, 51.72236390728, 159.41826315571, 275.12065030693
4466, 31.675568386255, 143.64089478506, 297.98862747993
4467, 31.447434088553, 71.781334779514, 298.13843463643
4468, 57.384260715722, 70.228544494415, 253.64645336047
4469, 21.829116518321, 42.752294715041, 303.19529746161
4470, 50.07696577866, 140.62097726512, 278.25858273875
4471, 51.210392550148, 173.01002818901, 276.14853140924
4472, 52.836080942534, 154.49688594572, 272.68476472512
4473, 21.558493089885, 140.28154837451, 303.30554732571
4474, 56.219111605224, 168.05101512018, 262.06903021453
4475, 55.430157163517, 35.848024216911, 265.28880887538
4476, 35.440614242365, 152.00504967115, 295.27927629859
4477, 46.042933721671, 88.633397088646, 284.44268070725
4478, 44.994142597942, 36.834302265313, 285.80191519844
4479, 28.338542098772, 164.98639294362, 300.03176023004
4480, 52.97015237443, 176.5345880343, 272.369911878
4481, 20.915611046159, 5.653291988745, 303.56106061838
4482, 56.855757339603, 132.03144919036, 258.58328942424
4483, 21.178264766859, 58.619731083421, 303.45775062107
4484, 45.005270780126, 0.93291074548657, 285.78792536607
4485, 25.796678606363, 53.809019482754, 301.38853347664
4486, 52.397063550584, 43.379925374265, 273.6811682836
4487, 34.143773427044, 131.42123579214, 296.26502713889
4488, 52.139160453743, 186.63895219098, 274.24371974716
4489, 56.98720659477, 15.028859474113, 257.66213315761
4490, 50.058311542191, 110.58389117636, 278.2916144033
4491, 56.234373116907, 173.52988542369, 261.99771978954
4492, 46.368498346653, 5.6046775105108, 284.0031228136
4493, 54.173012482968, 90.974450863118, 269.27523588754
4494, 57.119293974969, 47.715695397594, 256.60577442857
4495, 25.680863503198, 22.827723787229, 301.44650862527
4496, 51.338183017648, 91.35029755172, 275.89673655978
4497, 56.882038795617, 150.79118491124, 258.40735763804
4498, 50.957322109681, 0.76210134932256, 276.63834310557
4499, 57.409699008913, 154.44784124588, 253.22125126404
4500, 33.338751811745, 178.14150481456, 296.84845384466
4501, 25.598887255332, 152.3888082447, 301.48734768163
4502, 37.059350095021, 145.435521699, 293.96424195337
4503, 48.237801939743, 45.326310832014, 281.2947993127
4504, 48.793721893033, 143.17986140555, 280.42076106585
4505, 25.394223617436, 0.65004758388795, 301.58859764393
4506, 24.786224180277, 63.832630955902, 301.88345681318
4507, 55.628555122808, 93.748903750187, 264.55039019919
4508, 57.398326078918, 4.7864822752784, 253.41791798296
4509, 41.951959053366, 188.76562091086, 289.32280676128
4510, 21.270653669775, 99.221638435476, 303.42105663931
4511, 41.084437626326, 45.529012105205, 290.22833559729
4512, 48.740887282172, 80.641166720754, 280.50534226896
4513, 45.731977586683, 172.1713081705, 284.85450079991
4514, 31.693114641136, 30.47806524002, 297.97704122123
4515, 48.925044679945, 94.78950213153, 280.20910463859
4516, 21.1487899681, 154.40126414662, 303.46941820223
4517, 56.13200070791, 182.19516671321, 262.4678986412
4518, 21.25424163784, 105.21799581096, 303.42758849509
4519, 43.885329111769, 18.691081958907, 287.15276421414
4520, 43.138242174502, 88.233851145924, 288.01765461064
4521, 56.908767337418, 59.577399686527, 258.22448783425
4522, 43.058317197856, 161.07161602134, 288.10815293463
4523, 41.829744264127, 70.539588240817, 289.45278817521
4524, 48.404441450248, 118.48010863178, 281.0364309786
4525, 26.036217780163, 75.77240421171, 301.26758589698
4526, 41.551935736036, 20.887672366501, 289.74527187715
4527, 37.035932046058, 93.893936276946, 293.98397137003
4528, 26.590515474963, 127.8338009152, 300.98229581704
4529, 53.149514994429, 149.22555798482, 271.94035222728
4530, 50.360420744246, 99.301256109977, 277.7502796826
4531, 36.843497948397, 59.382101447499, 294.14529033687
4532, 55.783834677652, 58.644517919562, 263.94323451199
4533, 56.499581243642, 188.351127564, 260.67929395106
4534, 34.108827373387, 112.0470838177, 296.29079708984
4535, 56.925860342274, 138.69139157793, 258.10533307718
4536, 34.254852371434, 5.3839632878231, 296.18284409834
4537, 50.692956886326, 68.385605425409, 277.13805671232
4538, 57.406382837546, 64.553533861325, 253.27981851772
4539, 52.703409173821, 85.816711819378, 272.99131708835
4540, 21.201137162062, 134.56082535157, 303.44868364175
4541, 49.99129208915, 121.75854861131, 278.40987003239
4542, 48.410635472286, 64.685875995789, 281.02676865498
4543, 56.931689484014, 102.07737638757, 258.06428747601
4544, 38.278230414603, 49.767929873174, 292.90719142902
4545, 32.927778453591, 118.34281887363, 297.13821598354
4546, 44.742684065243, 67.231448473362, 286.11567834941
4547, 32.84172710182, 83.937023131243, 297.19820929834
4548, 45.398421248351, 133.33491101074, 285.28786403507
4549, 48.986612955821, 188.35103157501, 280.10916390597
4550, 52.626767442525, 165.0588373431, 273.16621135513
4551, 52.566086363086, 101.80453588882, 273.3035740707
4552, 50.615820315453, 80.697227193073, 277.2816556278
4553, 57.407258140993, 73.604020214487, 253.26446208944
4554, 57.407353169801, 124.00018433281, 253.26279052925
4555, 57.426307695838, 104.69915968104, 252.91018632099
4556, 52.793657017391, 16.473949873957, 272.7833223813
4557, 56.33828821007, 46.60275427161, 261.49988180631
4558, 57.451935470539, 92.88796738158, 252.35055540013
4559, 54.198072242485, 107.0872312442, 269.20465998653
4560, 50.90188299696, 151.18877763747, 276.74412659564
4561, 19.702529631683, 73.5942862357, 304.01907372505
4562, 56.993290942942, 153.85036438858, 257.61674389048
4563, 53.200324570049, 11.227694048581, 271.81686195679
4564, 40.388827733461, 106.59864820187, 290.92667338444
4565, 44.568222214219, 124.08341092733, 286.3307523823
4566, 28.365241397733, 122.3309769414, 300.01662803957
4567, 42.622685017411, 122.63757500017, 288.59477583698
4568, 39.223665037486, 80.308371480105, 292.04466792623
4569, 57.417576777393, 140.18743485902, 253.07764146908
4570, 43.119758223473, 149.90290109914, 288.03861788695
4571, 25.48401078129, 183.82557546639, 301.54430322062
4572, 21.145805185377, 143.56702121427, 303.47059867873
4573, 46.83929916017, 162.63185091094, 283.35161246753
4574, 37.185071176011, 182.5984751234, 293.85795801944
4575, 20.825200521446, 181.10590385687, 303.59627807266
4576, 25.312643775754, 89.506541103558, 301.62867483368
4577, 28.583011793739, 179.73306336672, 299.89249880292
4578, 41.24776068994, 48.091094898999, 290.06085668162
4579, 55.86429860924, 103.74477255831, 263.61727362205
4580, 35.579997182262, 72.406754727004, 295.169832859
4581, 25.339123362313, 145.2647670845, 301.61568392678
4582, 45.720286459683, 142.89025867424, 284.86983518809
4583, 41.643868542805, 34.160581761546, 289.64893709533
4584, 35.971907311627, 83.408007675283, 294.85835356278
4585, 56.99888896087, 122.32128557709, 257.57473809622
4586, 56.99797615629, 75.291921525768, 257.58160366196
4587, 56.857125914753, 65.928707133544, 258.57421907312
4588, 36.799866292006, 28.405293901092, 294.18166860691
4589, 36.905044605727, 45.375478906374, 294.09385084849
4590, 39.879040465675, 118.78690250881, 291.4235697585
4591, 55.607515194804, 11.031787904475, 264.63059307956
4592, 54.070594142889, 56.188165467278, 269.56069653757
4593, 39.120793256607, 33.396847129684, 292.14040264371
4594, 54.981205503981, 91.108703849239, 266.83202427901
4595, 40.663829391768, 153.07812442656, 290.65344978224
4596, 56.732820770088, 104.98812959017, 259.36146609613
4597, 38.876325438938, 147.52978602253, 292.36603970595
4598, 48.878949512532, 176.09380412223, 280.28363080199
4599, 48.560613556746, 9.48184036739, 280.79150550058
4600, 50.156557678893, 104.34564512259, 278.1170717146
4601, 45.683523368226, 188.35697347654, 284.91798523204
4602, 42.178745212526, 76.532402932833, 289.07945051171
4603, 47.763710987786, 124.655345631, 282.01371444671
4604, 54.366263330711, 42.674973377462, 268.72323186461
4605, 39.623217331205, 71.060455693563, 291.66834107958
4606, 52.448597919279, 151.7585880222, 273.56681090648
4607, 23.023380072263, 186.88661421728, 302.68941041659
4608, 20.822809220742, 91.64754576473, 303.59720716751
4609, 56.718640505685, 11.43333428597, 259.44700053916
4610, 32.367921087073, 45.391284999776, 297.52439041693
4611, 21.071308046397, 24.714494778728, 303.49999978705
4612, 35.04044695418, 33.536843308618, 295.5896597624
4613, 50.493978349705, 180.03048169472, 277.50651105501
4614, 48.56523185078, 67.934565131035, 280.78422088148
4615, 24.226544459383, 43.035298002174, 302.14714319651
4616, 24.234494063418, 59.300727613889, 302.14344922893
4617, 25.386523562102, 109.71323413004, 301.59238724299
4618, 21.14703341439, 37.884073425057, 303.47011293957
4619, 55.087011990043, 120.31177800802, 266.4824485441
4620, 55.365730481628, 169.19884870916, 265.52049896865
4621, 34.607229060282, 183.26021345077, 295.91938258262
4622, 43.155141856532, 41.638612082281, 287.99847011845
4623, 44.54133773126, 183.48201583818, 286.36370763701
4624, 42.607252321234, 98.001504940712, 288.61181230705
4625, 57.370653727722, 11.965851879217, 253.8546194175
4626, 41.585718012342, 128.17441513502, 289.70992391579
4627, 53.231175854483, 29.620307778086, 271.74147918494
4628, 55.541124975365, 173.1068698531, 264.88063965261
4629, 41.00587755598, 125.02319940222, 290.30841110567
4630, 54.649995995705, 141.68283374951, 267.8781413371
4631, 55.103907639861, 77.328180436526, 266.42587479612
4632, 54.9029501748, 64.875590892363, 267.08555126718
4633, 52.009609364742, 21.547626397034, 274.5204105538
4634, 35.650372693473, 116.74737242199, 295.11430955713
4635, 37.120539613849, 125.21773330741, 293.91258975256
4636, 20.707474540198, 127.32464803965, 303.64187261988
4637, 55.280973273959, 157.47842179939, 265.81973431774
4638, 52.368576360728, 170.51995615093, 273.74409842362
4639, 50.587727805735, 146.88873584716, 277.33371170282
4640, 45.634785377964, 31.518419033901, 284.98165752944
4641, 54.049250447734, 38.403245305013, 269.61959546061
4642, 29.339532799632, 5.0236357310814, 299.45140862604
4643, 45.745461160283, 119.3680275299, 284.83680213844
4644, 43.24354462416, 73.372057137702, 287.89783434892
4645, 41.981899124857, 105.45899013828, 289.29084048312
4646, 27.755586043842, 155.07175661976, 300.35749639689
4647, 25.689655965265, 32.224289613964, 301.4421187004
4648, 30.936391563865, 153.52059526775, 298.46844001004
4649, 29.198042313711, 42.267723663483, 299.53508176078
4650, 40.925530807395, 39.08115526704, 290.3899854931
4651, 21.011004649554, 108.33640436396, 303.52371141482
4652, 56.268586974515, 77.20861406286, 261.83622067602
4653, 56.270065297039, 120.40134153074, 261.82919065139
4654, 41.869367588727, 134.4020910513, 289.41073531057
4655, 29.163545354687, 78.185632374137, 299.55539952765
4656, 32.349707958425, 175.37306265679, 297.5367899106
4657, 51.159111690102, 16.066968239184, 276.24871979887
4658, 48.324798452379, 112.4448554093, 281.16029291481
4659, 51.024662786032, 7.9942153266904, 276.50912649583
4660, 40.191656441989, 115.73517537161, 291.12032043223
4661, 39.989811116289, 16.017566394644, 291.31664321897
4662, 25.949312412351, 136.17195168032, 301.31162816873
4663, 53.399886777366, 141.13292813967, 271.32374479693
4664, 50.601628126258, 25.177536876397, 277.30797009981
4665, 38.918426111456, 65.387291839431, 292.3273683213
4666, 30.940213985148, 20.233479442291, 298.46600002634
4667, 55.533957282581, 23.130149929487, 264.90736692164
4668, 54.452233616496, 181.0658103786, 268.47171497654
4669, 28.797861220108, 58.970836596808, 299.7687973448
4670, 53.584881939217, 60.211072586701, 270.85450616918
4671, 56.865329579974, 156.57993669435, 258.51964152772
4672, 40.23396817135, 85.078607536947, 291.07892166534
4673, 45.955219571904, 73.969580420837, 284.55962664871
4674, 53.542926238499, 160.69580379958, 270.96199059771
4675, 20.633848538829, 160.40275267535, 303.67023657929
4676, 57.139211806477, 159.64527355424, 256.43121093843
4677, 24.660409797155, 130.21516959821, 301.9433748291
4678, 29.196283847301, 133.25744207579, 299.53611823213
4679, 47.927615480966, 34.237301972544, 281.76780877411
4680, 27.851624373413, 188.71883725156, 300.30444334015
4681, 35.285324213064, 78.401211938611, 295.40039531963
4682, 31.953206861456, 27.611888594147, 297.80421081107
4683, 50.183319913373, 155.52125008123, 278.06927862401
4684, 42.288084780292, 155.61650854239, 288.96110734585
4685, 57.440591955703, 57.324443564003, 252.61311993189
4686, 49.962815569397, 44.261629147758, 278.45992024547
4687, 48.461849168097, 0.55353091980925, 280.94671509561
4688, 46.218331381823, 43.02492473319, 284.20695608031
4689, 36.059601050022, 188.47225186476, 294.78789090941
4690, 56.773362033582, 5.6861248289826, 259.11237419139
4691, 38.760741790934, 101.36079798072, 292.47181295655
4692, 51.965536741693, 94.970215009469, 274.613674881
4693, 20.884366118493, 149.13749411919, 303.57325127178
4694, 50.13379189437, 134.99174563437, 278.1576439052
4695, 54.195062200447, 19.200162022252, 269.21315260673
4696, 46.244064250729, 92.206216910075, 284.17216003671
4697, 20.928663117954, 167.63663887104, 303.55596194725
4698, 33.647996590557, 58.086981155809, 296.62684125525
4699, 56.388306078199, 98.957831136209, 261.25206370544
4700, 50.999411828769, 114.87811362887, 276.55767296131
4701, 38.278674433327, 130.25775064989, 292.90679530829
4702, 20.629696919961, 175.10386403749, 303.67183251008
4703, 20.46550784602, 10.892938581895, 303.73465351712
4704, 30.676185780146, 55.736164204903, 298.63354424656
4705, 38.339273649082, 53.66961000948, 292.85265564771
4706, 42.733759007237, 111.14939119493, 288.47175380862
4707, 56.125463350138, 15.661959300082, 262.49729425645
4708, 38.415819572537, 4.2190274386922, 292.78404850608
4709, 34.800217180996, 18.407028902332, 295.77329881225
4710, 47.600379667046, 127.88484709047, 282.25606695729
4711, 55.496168295582, 96.692432019095, 265.04743514718
4712, 48.330192164957, 76.794476855811, 281.15192651022
4713, 52.380602241819, 65.220224581615, 273.71755697335
4714, 56.745064641812, 92.055362387905, 259.28696068672
4715, 47.238504585218, 9.3961709955885, 282.78374116162
4716, 48.788546259937, 129.78770660448, 280.42906100822
4717, 30.248136169928, 170.15499709514, 298.90092287724
4718, 40.892743909514, 28.132696197917, 290.42318017612
4719, 44.053231647514, 7.1244731203996, 286.95352190807
4720, 34.401985757405, 172.57741861589, 296.07334778315
4721, 48.555734125675, 85.350035173164, 280.79919939734
4722, 53.353646034756, 68.334480997667, 271.43918036675
4723, 57.426845404145, 118.60007096125, 252.89955633303
4724, 37.358886863343, 11.82047243618, 293.70999396399
4725, 24.733375360824, 158.65616780389, 301.90867117602
4726, 57.426690663444, 79.003776023633, 252.90261941101
4727, 35.941463462952, 109.75705025165, 294.88274951628
4728, 53.311375667277, 0.16566338880872, 271.54407631955
4729, 28.981995525773, 11.248849402122, 299.66179553081
4730, 45.505725852632, 83.052002599952, 285.14938000342
4731, 30.143564458722, 0.15835970393309, 298.96545232838
4732, 47.168519018662, 133.6982301882, 282.88435514931
4733, 56.148742738549, 135.52703916081, 262.39228344093
4734, 48.474257570876, 115.52300187727, 280.92727522677
4735, 47.384397432214, 22.028355696622, 282.57251724976
4736, 40.186062559802, 0.32899676114332, 291.12578723793
4737, 40.611944175907, 183.09664884398, 290.70528209278
4738, 53.136400048265, 54.33831801712, 271.97209571049
4739, 39.2589174396, 43.790814173566, 292.01175313493
4740, 20.689311016119, 19.453502776735, 303.64888078682
4741, 27.51905779871, 73.033387906456, 300.4871415102
4742, 53.074010984471, 25.516165339785, 272.1223723416
4743, 20.667534244395, 79.950907317981, 303.6572737684
4744, 51.845547918969, 30.203814869817, 274.86542098944
4745, 20.809885228103, 32.718469793484, 303.60222641638
4746, 56.027699636401, 72.343056215312, 262.92852943893
4747, 55.517072601281, 115.41101479586, 264.97012524276
4748, 55.517332326703, 82.200031437275, 264.9691620115
4749, 47.223455885725, 52.123029206726, 282.80541440386
4750, 20.518419292177, 55.633283402039, 303.71447169758
4751, 42.450439876926, 143.92425421275, 288.78414823424
4752, 56.523105894356, 141.10814997951, 260.554075045
4753, 25.890783026662, 174.48543643232, 301.34118575049
4754, 51.65400219009, 70.639442749083, 275.26091957444
4755, 23.833940921381, 37.239046272711, 302.32774847207
4756, 20.862229555681, 0.442338539274, 303.58187546145
4757, 26.414051676866, 141.97417934187, 301.07394515809
4758, 56.032766706035, 125.26840505653, 262.9065508664
4759, 25.657404270848, 100.94985516625, 301.4582122317
4760, 49.942149285914, 124.59236773009, 278.49617035153
4761, 32.023607116145, 40.15909115251, 297.75707892314
4762, 27.584657485707, 119.71022277406, 300.45132972872
4763, 51.609202137435, 33.432353191049, 275.35232247226
4764, 30.7144901901, 108.13982830703, 298.60936218839
4765, 48.186063830128, 3.9964182116671, 281.3744044176
4766, 56.507844856259, 84.899286318424, 260.63548163935
4767, 52.284623575726, 156.71320801947, 273.9283960504
4768, 47.631750221571, 137.38666383131, 282.20972478662
4769, 56.327455058311, 176.43258858051, 261.55282678196
4770, 52.772777557014, 4.2225494471637, 272.83164358775
4771, 52.79075519489, 34.956991119388, 272.79004532583
4772, 33.201045523106, 91.873516415413, 296.94614548792
4773, 50.327001647405, 61.927050611243, 277.81084150439
4774, 30.217827479183, 174.95836194169, 298.91965762798
4775, 30.934069442993, 180.5337567952, 298.46992209294
4776, 56.524637675539, 112.72245646805, 260.54586817901
4777, 37.154735283258, 80.95132991309, 293.88366035361
4778, 27.584022928395, 37.633572165573, 300.45167667269
4779, 24.902750244234, 116.96542348493, 301.82762805949
4780, 32.880593656448, 125.87654375708, 297.17114118611
4781, 36.966179747334, 101.45033584474, 294.04261067294
4782, 34.620134181604, 53.54966473619, 295.90965376963
4783, 26.151277252064, 161.06050806214, 301.20899040291
4784, 48.001829871338, 71.207347811403, 281.65555763216
4785, 32.915629097755, 162.26527073518, 297.14670042642
4786, 49.530418325976, 137.99378562094, 279.20595248325
4787, 41.291955046587, 8.856175488414, 290.01530267823
4788, 31.638078656026, 131.22015701342, 298.01335209038
4789, 56.606715979009, 146.12551209185, 260.09602427056
4790, 46.201120139789, 14.576598112721, 284.23019862386
4791, 32.443247833135, 61.130725305869, 297.47299937899
4792, 51.075726039529, 38.89225749955, 276.41060789787
4793, 46.43351707947, 37.813558860279, 283.91428152903
4794, 28.006654721489, 52.819524203997, 300.21829638002
4795, 28.143227757084, 185.73946276097, 300.14188599777
4796, 28.340254557013, 46.317763358157, 300.03079023605
4797, 42.367598426225, 61.577824260608, 288.87462673254
4798, 26.835845594136, 106.71367537268, 300.8535877913
4799, 30.656908178977, 150.79806357905, 298.64569848307
4800, 37.296492155852, 119.51595077872, 293.7632456848
4801, 51.746928229474, 11.268743515513, 275.0700103473
4802, 20.76776792036, 113.49942877638, 303.61855849989
4803, 24.245409318242, 95.398083944033, 302.13837480197
4804, 53.704278749096, 173.69768390354, 270.54508320838
4805, 54.237423827141, 77.750205118138, 269.09324112337
4806, 55.412718003545, 133.16058701546, 265.35189510971
4807, 34.065209713074, 122.39161380716, 296.32290456356
4808, 24.492608951173, 176.84821490895, 302.02270760701
4809, 45.030314624147, 156.47480548056, 285.75640872418
4810, 27.995247090478, 17.265427628874, 300.22465669712
4811, 38.502018308847, 184.76143684652, 292.70649348922
4812, 57.162643457861, 133.54169086467, 256.21950101772
4813, 50.93616576591, 76.064156444085, 276.67877465454
4814, 43.59858827324, 108.63312505497, 287.48883968037
4815, 42.532882777925, 176.88462673105, 288.69371890371
4816, 57.420456187477, 130.8544385192, 253.02344360324
4817, 54.757933675608, 35.975936624868, 267.54476273928
4818, 31.121845060034, 50.084040636861, 298.34956835443
4819, 54.093868601733, 22.552922743935, 269.49624014261
4820, 53.45658891098, 146.25003264225, 271.18119689731
4821, 54.226135017396, 119.83979657154, 269.12527858817
4822, 49.599946309008, 29.694893427352, 279.0877177885
4823, 54.216150106691, 189.01447219513, 269.153565402
4824, 37.299711570588, 174.6267705275, 293.76050178815
4825, 44.75998829654, 127.04227111671, 286.09423011637
4826, 34.341350020853, 36.179939447601, 296.11856110879
4827, 53.122420191134, 111.57680031113, 272.00587360312
4828, 52.303682073264, 49.429077093531, 273.88670847101
4829, 23.967489990292, 19.657312744307, 302.26671429854
4830, 33.416036181494, 154.20601725028, 296.79335984856
4831, 57.426056392928, 98.783118601187, 252.91514101825
4832, 56.079622398865, 12.713066374133, 262.70141533849
4833, 20.414289988989, 67.750636504719, 303.75413253179
4834, 38.002677322301, 165.60736316416, 293.15143701358
4835, 54.779528954236, 164.93023410307, 267.47721967454
4836, 52.367295425431, 132.31994493252, 273.746923376
4837, 55.669884064032, 39.647340866158, 264.39145608676
4838, 53.828341217481, 72.944609743191, 270.21780605739
4839, 55.902267374761, 130.35153771605, 263.46055356814
4840, 50.990853636979, 131.19345292449, 276.57410102661
4841, 35.693426246681, 13.675572016745, 295.08025424477
4842, 23.870733746247, 79.468554872582, 302.31097466513
4843, 30.326777311655, 184.18082008869, 298.8521911268
4844, 52.008326712863, 175.31466079492, 274.52313096911
4845, 31.832520091913, 14.983551812874, 297.88466001339
4846, 43.864955492695, 93.632334051124, 287.17681642669
4847, 53.356660178687, 128.87249840403, 271.43167782923
4848, 23.655490945135, 148.93599619941, 302.40866100316
4849, 28.355373138919, 149.3410630013, 300.02222320282
4850, 45.508441934178, 174.95480708209, 285.14586337997
4851, 57.446099517071, 51.738825331576, 252.48910632051
4852, 28.170652177848, 114.18792725777, 300.12648357779
4853, 30.123219015401, 127.92443549131, 298.97797133559
4854, 55.749430888888, 65.461201920757, 264.0801617734
4855, 55.525153850396, 106.45317889184, 264.94012348978
4856, 53.746699722665, 165.95757531647, 270.4338510546
4857, 39.087730511288, 30.032272374063, 292.17107211676
4858, 51.320887137663, 161.934954052, 275.93099580431
4859, 25.266605606437, 3.5125804689505, 301.65122110007
4860, 53.924753629985, 124.70650373344, 269.95923209809
4861, 38.284643105515, 156.46270597675, 292.90146969841
4862, 33.385600036522, 12.835017791193, 296.81507994441
4863, 20.706847033532, 185.68013966234, 303.64211485326
4864, 55.988898721933, 154.38954217677, 263.09554198593
4865, 55.004253486075, 15.705235420498, 266.75655389511
4866, 24.796835765398, 83.688595918418, 301.87838601984
4867, 35.872062083622, 158.26757535163, 294.93823719138
4868, 36.516362668859, 140.03842859546, 294.41627243969
4869, 35.230599053916, 8.1747803642379, 295.44287502241
4870, 57.174637164985, 54.534357896405, 256.10826203206
4871, 57.158766834307, 118.81949961955, 256.25502789612
4872, 57.158040164825, 78.778384636414, 256.26166467612
4873, 44.824448743572, 78.538007233588, 286.01414714852
4874, 55.69384118345, 20.264897195222, 264.29846335215
4875, 26.559550957505, 67.753452385018, 300.99843382826
4876, 32.570597735177, 18.294491833132, 297.38571686883
4877, 20.215197584158, 46.63851438582, 303.82932088215
4878, 36.892075651287, 70.305683535947, 294.1047021772
4879, 54.12080417721, 103.44770828903, 269.42134277572
4880, 47.351574973284, 57.155734287624, 282.62021378761
4881, 55.042940402113, 128.43760662601, 266.62903219942
4882, 38.184990028237, 75.479928682509, 292.99019116663
4883, 50.279100826763, 168.25374552586, 277.89734790356
4884, 52.053214008814, 126.89003386904, 274.42770786121
4885, 40.520082426675, 54.380976812161, 290.79672683115
4886, 30.33962181799, 88.449786579253, 298.84421509188
4887, 54.813179549378, 10.376155928476, 267.3713945234
4888, 57.181739809089, 9.8859179664908, 256.04140980282
4889, 39.40839723626, 41.17142837583, 291.87156824468
4890, 48.912523076972, 21.458934963456, 280.22937455927
4891, 44.693757943792, 102.60394125767, 286.1762076628
4892, 32.662387995474, 86.87875597623, 297.32249370472
4893, 51.159675174923, 66.003273128527, 276.24762153027
4894, 38.443844459244, 113.95893928992, 292.75886835726
4895, 37.483959844487, 9.1264454513733, 293.6027837916
4896, 54.140808233005, 186.24855077613, 269.36550758119
4897, 38.316376728349, 24.813858873523, 292.87312998151
4898, 47.525751136132, 43.285598036904, 282.36592311284
4899, 24.159966874507, 28.591592125293, 302.17802219922
4900, 57.043990674341, 114.68868272197, 257.22724898878
4901, 34.391018960093, 88.945444172645, 296.08153442418
4902, 48.576960102281, 39.516556770707, 280.7657105756
4903, 57.032771354575, 82.934297438512, 257.3152574539
4904, 52.579015328388, 83.121971322605, 273.27438822176
4905, 28.197365357075, 85.573913998798, 300.11146163224
4906, 34.773419750732, 23.233174435366, 295.7936598105
4907, 46.802432700906, 182.85048477007, 283.40332757791
4908, 55.462385403864, 56.376264972602, 265.17147999746
4909, 43.693136546408, 113.337878178, 287.37860108052
4910, 50.24346693592, 41.489744384604, 277.96147403588
4911, 55.624623411078, 187.49273838344, 264.56541349828
4912, 57.453634409092, 151.93714575725, 252.30865614296
4913, 55.218207913522, 60.459406107064, 266.03744103088
4914, 44.048899946161, 181.00020713078, 286.95868522463
4915, 23.624625467604, 6.3484437703727, 302.42258169449
4916, 31.371992607486, 76.281061456519, 298.18763409668
4917, 56.513044762686, 130.30927356523, 260.60781653549
4918, 23.799699295937, 113.28772750889, 302.34333112654
4919, 57.453319675235, 110.50001625487, 252.31647540356
4920, 20.565886940115, 82.27615626682, 303.6963154636
4921, 44.520799485934, 159.74645670421, 286.38885012106
4922, 43.65461460066, 50.3595374033, 287.42358379509
4923, 49.101705254026, 17.706075361678, 279.9211052795
4924, 39.404979713319, 89.397878970026, 291.87478446264
4925, 20.314969797967, 121.52961857993, 303.79174659841
4926, 36.435319949032, 40.094107413875, 294.48277711892
4927, 57.452936698367, 87.084585232124, 252.32595458541
4928, 52.717500126559, 184.31103148343, 272.95898909809
4929, 32.680213617471, 185.51035254027, 297.31018535069
4930, 57.233547271092, 64.697258960209, 255.52911084784
4931, 42.583044188177, 3.9635993332405, 288.63850861081
4932, 53.199722125752, 37.444111645806, 271.81833095685
4933, 29.575267944166, 159.13969035541, 299.31078508836
4934, 56.687494305948, 162.00335869807, 259.63213316525
4935, 53.510093525724, 137.05379719757, 271.04566204395
4936, 40.820948372204, 179.67352883403, 290.49568093012
4937, 43.201955605682, 128.80485277426, 287.94523727485
4938, 51.068332798774, 112.20188501832, 276.42490085419
4939, 54.442392029471, 136.93468380854, 268.50070134101
4940, 56.546243590105, -0.28472225998013, 260.42939767429
4941, 28.675735607567, 20.499993631212, 299.83926351146
4942, 48.184485371275, 100.56941553238, 281.37682854441
4943, 42.9208893455, 13.100124875109, 288.26287048552
4944, 40.669705802856, 82.358659966498, 290.64757102102
4945, 20.758858392687, 172.37710159035, 303.62200852479
4946, 37.740027600654, 90.60644804737, 293.381336041
4947, 42.883205489106, 56.884574299405, 288.30510001265
4948, 33.560702238347, 137.0962316661, 296.68971262783
4949, 51.611892335073, 143.52615457869, 275.34684535781
4950, 48.980315053596, 157.78173051799, 280.11940798307
4951, 53.601071794187, 181.31990582562, 270.81285906632
4952, 48.337437152235, 83.00787221347, 281.14068351134
4953, 53.581201953029, 86.123487025331, 270.86395929033
4954, 39.682193854129, 109.27625270504, 291.61217959833
4955, 57.468187308333, 45.480764534745, 251.91244542257
4956, 54.99987835536, 51.848131940307, 266.77090876773
4957, 50.57714497259, 3.4981746979766, 277.35328876793
4958, 47.174256101861, 142.08323938798, 282.87612448626
4959, 54.862191419917, 55.014346778994, 267.21597957144
4960, 46.60375837612, 17.730331689204, 283.67995999434
4961, 36.472490416344, 16.874279239321, 294.45230525889
4962, 57.443139229374, 156.95611150658, 252.55651236547
4963, 23.10928905679, 134.53096293391, 302.65178780716
4964, 55.894615774179, 3.897075940289, 263.49229140869
4965, 35.818566952404, 177.6499840227, 294.98088773553
4966, 32.256496551848, 189.00114166317, 297.60008855245
4967, 56.104392351054, 52.763889474387, 262.59155109266
4968, 55.929964575558, 8.1554974159294, 263.3450014079
4969, 56.564318262699, 58.098674233217, 260.33091958521
4970, 39.339556670471, 13.047016344711, 291.93625258617
4971, 43.841348773686, 118.36637228444, 287.20465209761
4972, 56.156777326711, 62.871218706471, 262.35582293003
4973, 49.632643807334, 172.92467582348, 279.03189054633
4974, 57.440130138737, 115.11272745136, 252.62325173114
4975, 57.440132770776, 82.472876395622, 252.62319409796
4976, 44.810533116766, 136.76868437184, 286.03146016735
4977, 37.557146034778, 179.74038437356, 293.53976092863
4978, 45.923620094673, 97.353637272665, 284.60160570552
4979, 55.689976828468, 33.550903234467, 264.31350693732
4980, 55.680688542724, 44.341803453656, 264.34959662876
4981, 57.443995765494, 67.06003290379, 252.53719342856
4982, 57.452431527228, 107.31914930353, 252.33839936905
4983, 20.212720286321, 8.0756981577157, 303.83025114772
4984, 20.14621512535, 16.886763440851, 303.85517631689
4985, 43.765413177375, 83.489561674773, 287.29394869699
4986, 20.484956605441, 137.07724672686, 303.72724218563
4987, 51.272279482939, 140.12600794756, 276.02697363551
4988, 40.172276729553, 25.268563874212, 291.13925354651
4989, 28.2011479718, 111.46714268094, 300.10933299369
4990, 50.158866787812, 149.17162139572, 278.11295222069
4991, 39.051378798766, 123.84187043539, 292.20473686585
4992, 54.557125187358, 153.74481367618, 268.15957299308
4993, 54.944519582655, 146.91952651536, 266.95139427396
4994, 42.232255566086, 186.07498716506, 289.02161695523
4995, 30.155862998985, 44.808331035386, 298.95787910834
4996, 47.497404614306, 61.682662487491, 282.40750769351
4997, 57.457726858648, 90.152768031783, 252.20445554209
4998, 39.552091810038, 73.658586265879, 291.73586028166
4999, 56.374474710903, 184.63083372878, 261.32115723191
5000, 30.489604147392, 25.313258544743, 298.75073372715
5001, 48.747738012266, 132.54242445836, 280.49439356156
5002, 29.585009453188, 72.836486299832, 299.30494108763
5003, 42.760830885741, 44.107737853014, 288.44166154007
5004, 34.366921168387, 127.98288012134, 296.09950899311
5005, 45.421335908155, 46.204146341283, 285.25836417531
5006, 48.163059119457, 47.817145409161, 281.40970767543
5007, 23.755060131752, 139.88769308926, 302.36360490013
5008, 34.888680561861, 167.23881181953, 295.7059073715
5009, 33.507718715901, 67.112532599679, 296.72775178046
5010, 37.592185132152, 85.43370741933, 293.50951179903
5011, 55.477727691789, 178.41748481307, 265.11528134557
5012, 33.640212991554, 180.8191725726, 296.63245725761
5013, 48.434933445729, 29.201482069665, 280.98882414852
5014, 55.648221908511, 27.335036739429, 264.47499217344
5015, 40.776833201909, 65.735465390625, 290.54010204752
5016, 56.564795674971, 67.623328277741, 260.32830529413
5017, 55.146117483457, 102.06921653241, 266.28360299506
5018, 29.914705008926, 83.325329033679, 299.10560481482
5019, 33.113004524291, 48.393802870466, 297.00828577362
5020, 51.075862338746, 20.782782719422, 276.41034430585
5021, 57.107562792102, 96.765338074137, 256.70643511458
5022, 54.919014894147, 107.85465437727, 267.03384287401
5023, 50.595259622293, 177.51772884357, 277.31976763724
5024, 24.374717275447, 10.317170975596, 302.07804871289
5025, 41.490952598062, 174.89578403523, 289.80892930619
5026, 56.156012196124, 115.26931115944, 262.35929990852
5027, 56.170421969446, 82.377157511015, 262.29364452774
5028, 57.4616841348, 160.05316496367, 252.09877497423
5029, 50.754361839882, 184.46031433741, 277.02304117279
5030, 41.091631986635, 162.05061117531, 290.22098681876
5031, 23.242377476764, 181.27600826596, 302.59317340899
5032, 36.252006189017, 136.32218528345, 294.63229825218
5033, 25.010372192137, 189.40111114903, 301.77577892037
5034, 27.110687246556, 91.124209232989, 300.70759940107
5035, 37.832673834762, 110.60946001205, 293.30056339717
5036, 43.589319696664, 155.17470660549, 287.4996161098
5037, 23.366436208384, 153.9446735003, 302.53817334967
5038, 32.232249044792, 120.88156573449, 297.61651101787
5039, 42.440320525792, 31.794224711893, 288.79522127361
5040, 56.474022741213, 8.2447820664812, 260.81363747427
5041, 43.565191686739, 78.542759577899, 287.52764412134
5042, 57.156524561582, 149.13679717492, 256.27548404836
5043, 45.937233261357, 11.319336787224, 284.58353076671
5044, 49.648161358589, 0.068081002930029, 279.00534560579
5045, 29.845671287435, 98.411316821278, 299.14759307842
5046, 35.592203451934, 146.67298503599, 295.16021538297
5047, 20.383183326161, 102.81639722537, 303.7659356609
5048, 57.462404401284, 146.15793585164, 252.0789613809
5049, 27.693526559941, -0.39580668776179, 300.39165195421
5050, 40.032654219176, 135.66834765179, 291.27513290309
5051, 50.133246214675, 153.08333695125, 278.15861544854
5052, 31.476195813021, 9.6844426955254, 298.11963317753
5053, 40.045963564513, 189.14341463324, 291.26222003467
5054, 57.132387653225, 144.50451001766, 256.4915545936
5055, 20.239124428662, 124.70920085926, 303.82032926656
5056, 44.056201220688, 10.517889963094, 286.94998151559
5057, 26.725599719126, 58.497756678238, 300.91161281724
5058, 56.336690667599, 160.45781165097, 261.50770544562
5059, 20.261036429762, 94.140946809703, 303.81208417068
5060, 31.968158216192, 146.68715447906, 297.79421366928
5061, 40.410948713511, 130.34680635364, 290.9048313048
5062, 52.321470387289, 74.665594202258, 273.84771973401
5063, 52.312081021269, 122.99518005921, 273.86830909856
5064, 45.588326084932, 61.346726429653, 285.0421820778
5065, 46.152637261878, 110.3789148602, 284.29554014407
5066, 35.201701955734, -0.41680432689887, 295.46526343726
5067, 45.510884581287, 22.775299320863, 285.1427003036
5068, 53.493738794555, 27.398549070082, 271.08719776973
5069, 20.484149571018, 3.1263675323516, 303.72754988227
5070, 31.541748356093, 91.861089101375, 298.07668988856
5071, 56.878175906942, 3.1759406054854, 258.43345157685
5072, 35.445072418109, 20.973993106596, 295.27578647881
5073, 52.705283173253, 96.620512092642, 272.987020808
5074, 20.266534811605, 151.60050782876, 303.81001362878
5075, 20.106162079729, 30.163967428528, 303.87014243924
5076, 57.449731854954, 102.15449091534, 252.4038115138
5077, 43.760339127019, 54.535733480756, 287.29990240588
5078, 23.033038375947, 0.038154672578486, 302.68518903043
5079, 47.480150723913, 97.278658884877, 282.43278105921
5080, 51.309044469817, 118.7087277803, 275.95442073317
5081, 46.764232100057, 47.92422934217, 283.45678699594
5082, 24.095051023649, 34.039330085579, 302.20803114625
5083, 53.911993184402, 46.618608532638, 269.9936737716
5084, 55.479243083178, 183.75470926783, 265.10971829379
5085, 20.039378822857, 61.666205352931, 303.8950210724
5086, 57.172082573345, 16.370774440851, 256.13212640334
5087, 20.490090675489, 116.85597978542, 303.72528440232
5088, 51.839645450993, 58.2358202284, 274.8777241627
5089, 20.141118930564, 162.96249904977, 303.85708243328
5090, 55.668778480956, 69.277325920107, 264.39573209108
5091, 55.973883350298, 140.1859027084, 263.15957380341
5092, 26.762517390333, 166.79113596474, 300.89221613304
5093, 56.30667348582, 165.56777913985, 261.65369130195
5094, 23.839312778879, 48.138029416382, 302.32530139646
5095, 41.49269672569, 101.2297946298, 289.80711140525
5096, 54.697566929691, 3.6826066385363, 267.73206620707
5097, 41.105321361352, 170.39937491198, 290.20699635362
5098, 20.126230951861, 40.610260888709, 303.86264779671
5099, 56.596346555183, 71.039509803985, 260.15399215115
5100, 56.628854413138, 126.54701037745, 259.97110063411
5101, 57.200107320861, 69.659376484663, 255.86495715944
5102, 40.886737852978, 56.806807201945, 290.42925509754
5103, 54.519252861228, 161.65380627404, 268.27296000799
5104, 55.458072812207, 111.70679882153, 265.18723674524
5105, 55.284262776527, 160.21790786456, 265.80823485579
5106, 55.390427451126, 86.025456873631, 265.43212709841
5107, 42.588633642617, 86.119035572139, 288.63234764359
5108, 42.715268209726, 81.350937513863, 288.49228314573
5109, 38.345338574721, 35.416035582465, 292.84722872707
5110, 49.812464540189, 53.347862945056, 278.72226273176
5111, 55.031844753769, 69.548521707889, 266.66571519609
5112, 37.150813535498, 96.486704236058, 293.8869804572
5113, 50.942069817747, 78.437103131723, 276.66749937065
5114, 47.327448865614, 120.16596097278, 282.65520760725
5115, 52.364476484146, 6.6561709408319, 273.75313879346
5116, 48.37232942849, 51.860634646546, 281.08645598426
5117, 28.544804158331, 29.713933822094, 299.91436822762
5118, 36.566767977807, 49.468569570078, 294.3747842773
5119, 43.755345463704, 132.39334666235, 287.30576018998
5120, 28.143940837274, 80.798854290619, 300.14148575928
5121, 48.799093643066, 109.14642947134, 280.41214329203
5122, 29.974336206399, 64.289940070858, 299.06922833086
5123, 45.835036385606, 105.69987252856, 284.71886287784
5124, 20.307222654554, 129.81741560269, 303.79467174413
5125, 20.10491595989, 76.601537848292, 303.87060751695
5126, 56.549682964716, 16.246414742345, 260.41073275952
5127, 54.244340428513, -0.48930596674714, 269.07358203054
5128, 49.944439330548, 101.65264290406, 278.49215646379
5129, 48.850427454954, 161.83174280289, 280.32961815566
5130, 55.858008054286, 161.92184381285, 263.6430545043
5131, 50.917120749767, 107.40552753186, 276.71510461431
5132, 56.333470314501, 93.724255689205, 261.52345965087
5133, 36.597783627839, 25.92808186794, 294.34920781175
5134, 55.544235675844, 142.44801962377, 264.86902428494
5135, 37.90481635738, 21.567987494126, 293.23742472573
5136, 57.474401091665, 16.535431390776, 251.71558128763
5137, 40.514095407335, 94.036578500123, 290.8026723797
5138, 36.525493127657, 4.0648602356804, 294.40876435774
5139, 47.536203127529, 154.63168826198, 282.35057019928
5140, 29.33574183751, 67.842846728775, 299.45365760834
5141, 26.376908860715, 181.56171137986, 301.09313729801
5142, 52.183543079023, 53.542368404041, 274.14803991465
5143, 45.076223309886, 168.97814427251, 285.6985166655
5144, 35.648714007867, 62.887869344216, 295.1156202394
5145, 52.968189011996, 143.1573116502, 272.37456039321
5146, 49.363761016007, 59.603777548744, 279.48676140838
5147, 55.72998941125, 119.73374152378, 264.15691633874
5148, 47.962273889505, 78.909804785335, 281.71545811348
5149, 57.45425449323, 142.63442192085, 252.29317261173
5150, 23.52428672267, 104.53992807826, 302.4676846658
5151, 52.043475903051, 107.01841956118, 274.44844812925
5152, 44.194982516335, 151.83190295819, 286.78387582054
5153, 57.15418576263, 107.22997323648, 256.29674914625
5154, 57.094355434041, 109.71601884398, 256.81795992738
5155, 54.844066431579, 23.597482944752, 267.27363242774
5156, 27.951012090457, 146.81201166988, 300.24928778718
5157, 39.021884932169, 150.05940192123, 292.23200796008
5158, 57.097012404521, 87.873671415775, 256.79567321742
5159, 36.332337948189, 165.4001426035, 294.56692965887
5160, 57.138149827788, 90.381025744814, 256.44063927396
5161, 54.148615027879, 82.276593616117, 269.34366797075
5162, 24.350182923706, 124.99528147945, 302.08952477785
5163, 53.861805265115, 158.00577223804, 270.12848562567
5164, 54.126699254557, 112.30229796746, 269.4049073125
5165, 54.354405881933, 115.26186317583, 268.75762674813
5166, 39.182174022538, 62.637190771274, 292.08333683143
5167, 53.835638382403, 176.61849360117, 270.19836725974
5168, 42.991583430698, 166.42063423359, 288.18342250403
5169, 27.734835145689, 63.382418948198, 300.36892811488
5170, 50.511960790636, 189.40832673551, 277.47347479088
5171, 54.719674121279, 30.866087362396, 267.66372735469
5172, 43.591526290101, 168.66346503702, 287.49705102671
5173, 46.147730167604, 114.92918300242, 284.30214279572
5174, 56.510816680649, 117.76147969996, 260.6196797544
5175, 54.082225926361, 64.197267011141, 269.52851348285
5176, 54.40739222926, 33.976512248176, 268.60337794089
5177, 47.467224081277, 167.56719577898, 282.4516969975
5178, 56.510040846873, 79.847552862862, 260.62380739117
5179, 35.255480897332, 114.33393659197, 295.42357390935
5180, 43.973414460828, 164.51602063614, 287.04846583404
5181, 49.908997277059, 97.016335351949, 278.55419392661
5182, 43.765784981987, 189.53566511616, 287.29351237026
5183, 57.19860614937, 128.34697106547, 255.87957945514
5184, 44.262261822843, 144.93087924073, 286.70289059905
5185, 23.314504898978, 14.875349462552, 302.56123915316
5186, 46.140961794512, -0.4542173027998, 284.31124662086
5187, 53.599836989321, 16.71645454988, 270.81603888155
5188, 55.737402259489, 77.895261829573, 264.12770290472
5189, 38.4570247981, 171.73165750832, 292.74701444169
5190, 57.46775516457, 7.7498476719562, 251.9253873234
5191, 42.660818124077, 115.87881326693, 288.55262114285
5192, 52.762242214975, 115.0882765001, 272.85597944627
5193, 38.082602878457, 17.320324393095, 293.0809164016
5194, 30.869632938545, 125.63667870161, 298.51098599533
5195, 57.428162622906, 59.763771787588, 252.87334957098
5196, 50.533025465194, 71.718556833163, 277.43471044743
5197, 47.294941340767, 171.54499113332, 282.7022709238
5198, 53.656269085776, 51.30679421585, 270.67014242319
5199, 27.373280376664, 98.182124334797, 300.56632794084
5200, 38.746158952988, 68.583661483312, 292.48511699866
5201, 32.203636139943, 113.34684746322, 297.63586694253
5202, 51.245797862381, 170.6486229995, 276.07907593163
5203, 30.168531063825, 2.5286969036848, 298.95007388606
5204, 37.501699256364, 57.132956222997, 293.58752749222
5205, 38.14396124034, 133.73133422926, 293.0265989929
5206, 39.256091854915, 178.61921328666, 292.01439339415
5207, 47.485117629966, 90.027638515669, 282.42550853369
5208, 42.402794134582, 29.544832446806, 288.83623372033
5209, 56.450620933635, 170.81034221288, 260.93514500165
5210, 52.917091636592, 119.67627484424, 272.49514198054
5211, 52.922031553725, 77.906057640283, 272.48351787925
5212, 25.547286311413, 81.220214173275, 301.51297081438
5213, 57.458762302073, 47.799107280249, 252.17729986769
5214, 31.841572960097, 6.6586243162588, 297.87864065976
5215, 43.825795598104, 178.18014806309, 287.22297194198
5216, 57.454251520356, 121.77608970845, 252.29324709433
5217, 41.80295995796, 151.26235423571, 289.48116688692
5218, 29.886636686487, 94.244776437767, 299.1226927964
5219, 20.139856807621, 22.489458660844, 303.85755441689
5220, 51.673890115756, 180.86347480529, 275.22021174187
5221, 45.214069715789, 93.942539532186, 285.52376528095
5222, 57.453950859423, 75.823036575519, 252.30076740307
5223, 32.175061731746, 81.539158269041, 297.65517183432
5224, 49.844629693914, 93.156767338451, 278.66640700675
5225, 32.26088069975, 169.96636398764, 297.59711731267
5226, 33.583266856414, 3.0461192628206, 296.67348484151
5227, 48.908984668143, 152.96000066566, 280.23509911893
5228, 33.084938794968, 96.307004232566, 297.02804296304
5229, 54.984090353692, 27.700532823138, 266.82259813397
5230, 42.474165749263, 64.214879368506, 288.75816357755
5231, 49.697416527904, 185.40373813742, 278.9208711911
5232, 49.206383405128, 37.113454040237, 279.74864420755
5233, 24.175819185711, 75.877317340247, 302.17067918572
5234, 20.193583493496, 145.76578551035, 303.83743294113
5235, 31.06032415829, 110.45919445236, 298.38911306463
5236, 52.409536378806, 90.474563195619, 273.65355145763
5237, 54.155037707757, 58.506548131565, 269.32567957075
5238, 53.686209826211, 93.007058119127, 270.59225277856
5239, 34.085032368125, 63.008450671481, 296.30832072602
5240, 27.613412898509, 102.68514385564, 300.43559683494
5241, 34.14611196533, 142.50396328936, 296.26330119707
5242, 40.428373336933, 60.756092442614, 290.88760972874
5243, 33.495393290218, 41.960401181826, 296.73658768389
5244, 56.648805344951, 75.900019505599, 259.85712194253
5245, 39.527545841823, 160.37460285756, 291.7591082247
5246, 24.100314681897, 69.861427389099, 302.20560154077
5247, 54.440362195829, 40.417961267851, 268.50667349869
5248, 33.525251800637, 10.413518031441, 296.71517410547
5249, 56.650045935827, 121.70622139486, 259.84998961769
5250, 43.77812246917, -0.5216769593705, 287.27902886442
5251, 51.609129097495, 136.09030174953, 275.35247115762
5252, 26.642819496736, 12.314430980827, 300.95498179044
5253, 55.152194577435, 189.38985287981, 266.26300812558
5254, 57.190723696342, 138.64194636592, 255.95576385434
5255, 46.309844945688, 129.14935021838, 284.08296144859
5256, 54.698971523354, 72.17583365987, 267.72773291449
5257, 44.842946558986, 72.41643143622, 285.99111201266
5258, 19.988945811504, 97.053844508789, 303.91374634863
5259, 32.452431607996, 52.954877274861, 297.46672184519
5260, 35.307309853743, 67.577698342875, 295.38329947119
5261, 55.144429986501, 174.88636912861, 266.28931678935
5262, 45.718163179629, 3.4086537525934, 284.87261899372
5263, 55.775439530956, 31.517012619827, 263.97677878228
5264, 53.256038627194, 8.7710793206626, 271.680506215
5265, 46.204216157359, 148.36448344072, 284.22601947764
5266, 55.987088089418, 67.343137071814, 263.1032807826
5267, 36.159348503444, 38.214000713482, 294.70739889332
5268, 45.463486880477, 59.084872462523, 285.20399637355
5269, 57.457559815109, 95.810095658389, 252.20880512792
5270, 52.341516651985, 104.01973036169, 273.80368951591
5271, 37.068152859535, 33.780351456134, 293.95682021691
5272, 54.719188030894, 125.52556699189, 267.66523312158
5273, 48.979832098817, 105.31154040829, 280.12019335216
5274, 24.856801448736, 45.315105901677, 301.84968101867
5275, 38.843202900586, 121.03965118212, 292.39641008887
5276, 22.659552997816, 120.98559222028, 302.84689828116
5277, 32.914058186118, 101.30701340225, 297.1477971248
5278, 57.195261536177, 59.919170595587, 255.91202653988
5279, 35.182008098633, 162.74210290129, 295.4805046822
5280, 23.455460773886, 99.539816588568, 302.49848912002
5281, 41.161621254867, 111.78398865502, 290.1493578488
5282, 54.326740840362, 145.69768700246, 268.83760148384
5283, 57.470098212064, 137.2692770115, 251.85413362401
5284, 48.710925551127, 89.998193274556, 280.55316238874
5285, 54.64807516708, 8.1122755616119, 267.88401186908
5286, 53.98704177437, 11.501053828449, 269.79013189578
5287, 27.464437337983, 7.7904682586547, 300.51687521718
5288, 54.524197785701, 169.5883321614, 268.25819968742
5289, 40.594599181977, 143.41959860427, 290.7225799435
5290, 57.173022754471, 6.801243073348, 256.12335440072
5291, 36.781295745768, 160.89222143602, 294.19712980797
5292, 55.552547640954, 128.46147258733, 264.83793956719
5293, 30.948715981171, 33.578557926839, 298.46057138661
5294, 27.936221908361, 34.255939151602, 300.25751193092
5295, 56.984412454877, 80.574769596228, 257.68288599242
5296, 49.698882109913, 116.31700155827, 278.91835259874
5297, 20.116929819358, 34.971452944382, 303.86612232789
5298, 44.61360521845, 173.04547586862, 286.27500833098
5299, 56.982752294837, 117.01696759701, 257.6951894652
5300, 28.135630773687, 138.3646511653, 300.14614921374
5301, 41.82066427638, 120.58240663568, 289.4624129962
5302, 22.616317516888, 11.780220840068, 302.86541574579
5303, 55.570869671267, 6.4670015354198, 264.76917208171
5304, 56.557975120189, 134.39926844335, 260.36558972293
5305, 56.76666960383, 87.208660390138, 259.15397302211
5306, 55.818479639282, 138.13996793008, 263.80388824785
5307, 55.796877445475, 17.291296582643, 263.89094911569
5308, 23.954318151975, 165.05285015471, 302.27275238472
5309, 43.158599389593, 140.87592272167, 287.9945430125
5310, 56.606069059108, 63.337445965917, 260.09965076998
5311, 36.549406979543, 54.445709691739, 294.3890848007
5312, 45.364830018386, 69.34756845302, 285.33103731003
5313, 46.50617149944, 176.6515068432, 283.81458283736
5314, 42.108526804724, 181.50492469825, 289.15510145991
5315, 56.767348346441, 110.38152971116, 259.14976293211
5316, 20.185257532802, 183.37577655505, 303.84055514512
5317, 57.189172494576, 99.005335785274, 255.97064061769
5318, 26.834232254654, 131.13276494896, 300.85443913075
5319, 30.962442856477, 96.36311373904, 298.45180215801
5320, 49.880972736754, 129.30928088164, 278.60312148761
5321, 55.77915231357, 25.145193731801, 263.96195427508
5322, 57.061182676536, 49.768724208883, 257.09023494357
5323, 57.456233160094, -0.27304478587479, 252.24304949855
5324, 32.746837866062, 165.76822565786, 297.26409429761
5325, 52.733991853643, 41.31028141382, 272.92108424966
5326, 50.415544439022, 36.527759128889, 277.65000685202
5327, 26.568535391443, 96.005870228803, 300.99375380528
5328, 56.040751649862, 149.31507076533, 262.87183570896
5329, 40.867659319709, 96.587538111118, 290.4485404153
5330, 56.432848705536, 151.02989782899, 261.02649477296
5331, 55.335011732756, -0.43944689945769, 265.62966655229
5332, 56.413733180837, 50.85756672629, 261.12388010549
5333, 41.717533254242, 147.60796781362, 289.57142174829
5334, 42.66255146308, 170.45188012742, 288.55070301123
5335, 48.154309516342, 150.79320222971, 281.42312007112
5336, 54.809961839478, 155.89883685536, 267.38154432595
5337, 41.725035431621, -0.54077945423529, 289.56351119693
5338, 30.251827479761, 172.5484807117, 298.8986393894
5339, 27.150242431188, 4.6165531579273, 300.68643147754
5340, 52.425664916235, 99.517061354733, 273.61778266668
5341, 52.617307922275, 70.132340640956, 273.18768869492
5342, 45.389517832647, 164.7479198075, 285.29931544548
5343, 57.318226023858, 103.06120373558, 254.56847518083
5344, 54.131157092922, 150.04522943733, 269.3924684293
5345, 39.259330888671, 175.90202386659, 292.01136677346
5346, 47.758431282547, 157.66174686472, 282.02159023894
5347, 33.422001564855, 159.18572778347, 296.78909927963
5348, 38.55048805681, 167.77253376792, 292.66274569905
5349, 42.821534617131, 136.87687136488, 288.37402992955
5350, 50.598871953927, 88.930210075143, 277.3130766665
5351, 49.236869568998, 170.12070372553, 279.69815945552
5352, 40.84745216588, 164.28294716859, 290.4689467562
5353, 25.708828715441, 56.096692881196, 301.43253956476
5354, 57.00961822589, 161.57331419275, 257.49355921698
5355, 50.208936191484, 49.43213479439, 278.02343174059
5356, 37.362781242156, 47.590404893524, 293.70666514218
5357, 43.465723633277, 52.413823138188, 287.64280633847
5358, 51.810900320816, 26.280523845605, 274.9375341192
5359, 51.950791507071, -0.70954901999903, 274.64478163403
5360, 29.055288426227, 142.62485544664, 299.61895015484
5361, 29.930260637797, 102.19013211716, 299.09612508288
5362, 55.435029485716, 79.896540906845, 265.27113309214
5363, 55.434525066999, 117.71515618298, 265.27296404095
5364, 35.996084401893, 169.90065221989, 294.838955248
5365, 55.808063307881, 156.513207612, 263.84594055395
5366, 44.375699572517, 148.02607087127, 286.56565721343
5367, 51.407626459253, 188.29551465684, 275.75860908174
5368, 47.64229478951, 103.64845304705, 282.19412597337
5369, 23.580651085636, 23.423495773658, 302.44237689481
5370, 37.804228775054, 154.17841760086, 293.32540001804
5371, 33.823465795899, 76.976509704889, 296.49971141366
5372, 55.911152671607, 98.29626296406, 263.42359888153
5373, 45.795225687859, 101.11517054957, 284.77135752596
5374, 42.058785837307, 15.193568799248, 289.20852629074
5375, 49.510693297129, 63.516129216273, 279.23937840033
5376, 55.125963580796, 47.16056258127, 266.35170141877
5377, 45.550504064029, 117.20809021362, 285.0913319712
5378, 23.497164303753, 172.06473638871, 302.47983679169
5379, 41.281699362104, 11.27314913961, 290.02588284819
5380, 52.598821526898, 147.45563081098, 273.22959263486
5381, 43.004958453466, 100.32400023704, 288.16835794759
5382, 45.432725984232, 64.611974446225, 285.24368609612
5383, 20.184946264798, 132.50507560908, 303.84067184097
5384, 23.961681004473, 52.682468437762, 302.26937768369
5385, 47.942430788574, 59.555376736179, 281.74544581641
5386, 27.733921149656, 23.034676948381, 300.36943138119
5387, 26.25566213713, 114.86677627754, 301.15554911973
5388, 36.134139135474, 87.725913485029, 294.72777648104
5389, 52.293552501154, 166.96058057088, 273.90887631841
5390, 53.604074424752, 100.91155474131, 270.80512449051
5391, 53.270494813186, 48.66233398845, 271.64496205491
5392, 46.86224477695, 180.6565381623, 283.31936395649
5393, 50.685849158383, 85.026363120402, 277.15132952718
5394, 56.841038005544, 148.5155817957, 258.68023032254
5395, 54.388677726772, 50.510344937392, 268.65802066494
5396, 55.840064365164, 60.850661958388, 263.71631188382
5397, 34.713750538859, 185.6332191947, 295.83890840242
5398, 45.899229620537, 151.82785970861, 284.63395328635
5399, 29.70795746254, 135.85487678603, 299.23095838397
5400, 35.681054806565, 122.4692296542, 295.09004688278
5401, 23.173013907288, 86.800580061045, 302.62377244604
5402, 25.431973462899, 8.123645362289, 301.56999831086
5403, 57.303920023375, -0.2482863672669, 254.74454949965
5404, 49.385287980853, 159.86197367185, 279.45069321847
5405, 34.671667612594, 93.755776131476, 295.87074737741
5406, 20.266999636939, 51.243868670318, 303.80983855873
5407, 56.061970762829, 187.15722720758, 262.77910146246
5408, 20.233011593665, 110.48832468155, 303.82262760076
5409, 39.446573171339, 87.241799732165, 291.83560523093
5410, 56.154444207504, 48.749793287704, 262.36642210772
5411, 57.460492847437, 62.581890666891, 252.13114094553
5412, 54.046493214551, 98.931970209895, 269.6271895902
5413, 26.201344613832, 65.495872749375, 301.18339125563
5414, 57.381333459656, 16.566041723362, 253.69223108592
5415, 30.115981087012, 189.48759735369, 298.98242218558
5416, 55.249816032379, 123.83182095752, 265.92820857436
5417, 50.614598062812, 33.640857837558, 277.28392315889
5418, 33.720815017327, 105.40675159855, 296.57420567833
5419, 57.147192285021, 45.679655038705, 256.35990675551
5420, 56.862151905543, 53.648617704271, 258.54082435547
5421, 30.297877804431, 14.996685247106, 298.8701197108
5422, 29.607595142617, 167.46226747464, 299.29138169975
5423, 43.164782257389, 25.044865089664, 287.98751864326
5424, 49.277222826517, 120.01491616162, 279.63115439037
5425, 38.902061055943, 98.129152852203, 292.34240953937
5426, 57.471472885377, 126.03390092867, 251.81102302176
5427, 44.586979134865, 140.40536042699, 286.30773046649
5428, 48.129624280347, 173.98496349882, 281.46091649384
5429, 52.676439447921, 19.744046786475, 273.0530416017
5430, 54.518627925272, 173.21709367343, 268.27482446279
5431, 30.568215311278, 161.95991531354, 298.70148060053
5432, 37.062628471604, 65.431577386509, 293.96147825968
5433, 32.126977934103, 148.99822279786, 297.68760099671
5434, 51.462149721387, 61.140035346581, 275.64950576626
5435, 57.247763631677, 74.423560711777, 255.37992185554
5436, 57.307968571431, 51.669280881312, 254.695395427
5437, 49.065760436958, 14.549720147523, 279.98001255408
5438, 57.247534054287, 123.20346901615, 255.3823642299
5439, 54.829108450572, 149.10746858239, 267.32105269651
5440, 55.202002037949, 12.663810069897, 266.0931342815
5441, 43.664438098632, 39.568054527976, 287.41212163899
5442, 54.623988982563, 132.11606772068, 267.95744490825
5443, 36.788844893792, 105.91865763941, 294.1908462397
5444, 55.240962278601, 73.809213892499, 265.95888738397
5445, 52.375776598467, 62.680346866727, 273.72821159943
5446, 20.246245019899, 87.049865700555, 303.81765103193
5447, 26.496821105296, 51.338722449268, 301.03105398984
5448, 27.362000460715, 170.95500218457, 300.572432518
5449, 51.825972918159, 46.9352642944, 274.90619463279
5450, 23.36090796119, 144.52328309072, 302.54063169804
5451, 41.974833471152, 52.516581582656, 289.29838870831
5452, 28.911391476637, 106.77708688777, 299.70293193449
5453, 35.706027082754, 130.30508235865, 295.07027434979
5454, 19.717729077305, 157.16939471543, 304.01352756518
5455, 53.211854123256, 66.391466288587, 271.78872600143
5456, 55.905926531461, 101.35833003891, 263.44534784447
5457, 47.327031318529, 185.86915340919, 282.65581275324
5458, 50.960944644443, 166.51138788442, 276.63141229725
5459, 26.36996678349, 150.15913352388, 301.09672055854
5460, 31.858150067505, 157.85442832271, 297.86761195502
5461, 23.795271736359, 169.15773885875, 302.34534404312
5462, 30.350597578955, 122.05642596845, 298.83739578029
5463, 53.521148151941, 20.780911160163, 271.01753316871
5464, 56.828069525182, 13.354255967747, 258.76473125892
5465, 37.764405305492, 169.72069367794, 293.36011637349
5466, 49.105998091464, 145.08001545947, 279.91405942765
5467, 23.381260046352, 109.2130726201, 302.53157791886
5468, 26.063470642563, 168.89659033767, 301.25373643028
5469, 57.177641513328, 135.78455242955, 256.08007491511
5470, 31.842973993965, 155.48236530648, 297.87770887605
5471, 53.35329999095, 33.382503502891, 271.44004151292
5472, 57.475184644967, 1.8927918594102, 251.68912700142
5473, 55.874069634133, 42.361013590519, 263.57712570908
5474, 32.054917660068, 22.487164381836, 297.73606868822
5475, 44.791425590651, 185.62044362305, 286.05521035242
5476, 47.265585514149, 69.39494167236, 282.74468546199
5477, 56.801674805467, 51.347126209862, 258.93418934733
5478, 46.340539381278, 26.48938368397, 284.0412163392
5479, 38.845630427917, 145.36101674579, 292.39418588271
5480, 56.646490721412, 97.204416691932, 259.87041483166
5481, 26.194228722512, 27.179629592548, 301.18703333494
5482, 51.739295493114, 146.6373266406, 275.08575894559
5483, 46.063658893767, 57.118861846935, 284.41495792993
5484, 46.67211034061, 28.929845516913, 283.58517703324
5485, 26.802333884072, 125.59381121147, 300.87125807729
5486, 56.232471443284, 74.975356857103, 262.00662964284
5487, 56.232364613623, 122.63440727034, 262.00712996351
5488, 20.082291096167, 169.81087527639, 303.87904587434
5489, 41.51545821139, 166.27712057382, 289.78337252544
5490, 56.47569534879, 107.93409937574, 260.80489865157
5491, 40.765546177734, 139.56396593484, 290.5514518215
5492, 55.774354325284, 90.266214782723, 263.9811086684
5493, 53.836874303327, 168.37340385302, 270.1950727963
5494, 50.902355083912, 57.109745186826, 276.74322805705
5495, 57.471949744322, 71.767815966227, 251.7958264354
5496, 55.939699081731, 163.97572781292, 263.30413720034
5497, 35.427488267436, 149.86465223209, 295.28954708385
5498, 56.553331408027, 89.702094351276, 260.39089537306
5499, 22.273103126998, 129.15087447831, 303.0109316754
5500, 29.206254220987, 117.83708297843, 299.530240403
5501, 56.58335331446, 136.44492060369, 260.22614921126
5502, 43.157856335703, 35.462296243847, 287.99538704247
5503, 44.90685552017, 20.522724267957, 285.91133981475
5504, 56.357153923318, 104.18357891498, 261.40706805728
5505, 57.198542493056, 2.3852537443582, 255.88019869307
5506, 48.963568613822, 72.520692064895, 280.14662416589
5507, 42.482033391354, 19.1832570328, 288.74953985451
5508, 19.675144836768, 70.619629355665, 304.02905399553
5509, 37.664433591646, 61.490849271448, 293.44698427072
5510, 47.875335193861, 169.57529704413, 281.84654267068
5511, 36.558081076737, -0.38970570691035, 294.38194123725
5512, 26.227175433811, 121.47746013503, 301.17015994468
5513, 53.010513614305, 178.64720228108, 272.27409810402
5514, 49.245031520692, 4.5238177939263, 279.6846234695
5515, 50.464808232974, 64.082916318392, 277.55999147331
5516, 44.29690459019, 27.05893051102, 286.6610725938
5517, 53.088191602558, 189.66864726245, 272.08832072318
5518, 57.320260270909, 94.348181761737, 254.54288041613
5519, 37.295637328917, 150.97069728098, 293.76397418231
5520, 39.444603686074, 158.25042936923, 291.83746216071
5521, 54.5445006979, 47.981972186585, 268.19745706457
5522, 33.767778173544, 72.680892771203, 296.54016713789
5523, 56.370302196039, 144.10855387317, 261.34191475577
5524, 57.463950307003, 149.75025084623, 252.03578366096
5525, 38.129112539916, 161.41301961432, 293.03975809549
5526, 24.808914117362, 61.615162043072, 301.87261108058
5527, 49.172181533891, 55.868932269827, 279.80514323398
5528, 33.274586873991, 133.35420534384, 296.89404939185
5529, 57.29022916366, 146.43626470567, 254.90710121918
5530, 23.35848466269, 90.044581078892, 302.54170909157
5531, 56.690499074587, 100.46576531513, 259.61443262363
5532, 30.859433110251, 141.46700340428, 298.51747507975
5533, 50.633645452229, 160.40402784966, 277.24855864478
5534, 55.517604146135, 146.24594612535, 264.96815385654
5535, 46.41323092766, 154.27730888008, 283.94203875514
5536, 53.191568727832, 163.43391674491, 271.83820084788
5537, 49.002830805111, 165.96704907932, 280.08276205879
5538, 27.301785987458, 134.01446640997, 300.60496499253
5539, 57.360952530397, 9.8599810062245, 253.99638897075
5540, 44.961647829771, 34.682171443941, 285.84271508175
5541, 19.924681728413, 165.69963059431, 303.93752921688
5542, 40.52163634655, 168.21253556426, 290.79518338968
5543, 44.905660201734, 14.984150904811, 285.91283450031
5544, 51.630026228571, 2.9129482970539, 275.30988723082
5545, 55.591062651914, 48.717208735744, 264.69298312906
5546, 51.203525513826, 157.05574093439, 276.1619757464
5547, 29.754631081729, 145.58764201494, 299.20276343042
5548, 20.056085827028, 44.600386481802, 303.8888060853
5549, 54.984583829732, 88.970976331952, 266.82098513974
5550, 51.998751284066, 15.303948419017, 274.5434281407
5551, 51.194010685752, 43.1463493348, 276.18058956378
5552, 55.505267838088, 171.06071716221, 265.01383502714
5553, 40.182520791579, 141.46200345354, 291.12924777861
5554, 45.857733490042, 86.344996391296, 284.68887832081
5555, 40.701122092122, 5.3918557723851, 290.61611331039
5556, 41.540177433121, 36.443537302959, 289.75756102712
5557, 49.19224887268, 181.0316693105, 279.77201119925
5558, 41.594552543464, 26.261630175999, 289.70067000328
5559, 46.419952363405, 49.976496726516, 283.93284577779
5560, 54.026757146395, 132.85063173327, 269.68145096898
5561, 48.113723131759, 146.91324002996, 281.48522901934
5562, 48.928452031971, 123.96212551996, 280.20358557779
5563, 37.254347428861, 189.87937669663, 293.79912781837
5564, 47.06676259429, 32.782862984655, 283.02983286202
5565, 56.88406917034, 125.05691323766, 258.39360915364
5566, 45.27875473741, 112.88711812724, 285.44128058394
5567, 56.883284118934, 72.551832906619, 258.39892777946
5568, 36.258040061712, 134.14362184799, 294.62739664022
5569, 53.332548914841, 91.046067164704, 271.491608275
5570, 22.083568190618, 93.800270981053, 303.09016873179
5571, 26.507892837142, 178.933758268, 301.02530369664
5572, 49.089966466692, 183.06572903589, 279.94036059066
5573, 27.800655346163, 27.709866891848, 300.33262920138
5574, 57.250797183071, 154.48966169268, 255.34754353913
5575, 48.908839730412, 149.19479572041, 280.23533357224
5576, 55.572700806274, 51.66697390968, 264.76228048427
5577, 45.55350668439, 80.641717715132, 285.08743405773
5578, 22.817986522749, 118.35448493923, 302.77868405945
5579, 48.424700309596, 26.089680723439, 281.00481252847
5580, 56.905726883754, 141.49946745373, 258.24549864056
5581, 19.797794802232, 141.77379560368, 303.98423215133
5582, 56.849963238172, 47.509094697058, 258.62158221085
5583, 54.17503332236, 14.457589272197, 269.26955537944
5584, 57.478172797818, 69.168122593263, 251.58418806466
5585, 55.114292898183, 167.16592251676, 266.39099503792
5586, 19.598549187422, 178.06071738848, 304.05688549804
5587, 57.283440311707, 86.624914649664, 254.98572623146
5588, 52.481218041145, 110.13107977436, 273.49407910342
5589, 57.328215487095, 106.52673394285, 254.44136342413
5590, 57.28266851998, 110.96718441286, 254.99458579164
5591, 20.018982745367, 100.91829758036, 303.90260039962
5592, 42.720409820102, 8.4946062624388, 288.48657668334
5593, 39.31517803466, 154.08298540022, 291.9591083807
5594, 51.236844640755, 121.93817570168, 276.09666168802
5595, 34.557806785601, 140.33942029873, 295.95658810409
5596, 52.585348024412, 159.82290293763, 273.26007680881
5597, 25.653112487551, 38.141304948789, 301.46035191972
5598, 35.162208015886, 144.44930105981, 295.49581439482
5599, 54.887322046739, 99.637826185187, 267.13569019729
5600, 55.757201836483, 37.603084228304, 264.04935740046
5601, 51.122116571404, 54.479370762293, 276.32069902681
5602, 47.706316426946, 94.168678875298, 282.0991802539
5603, 50.902577193431, 142.09119898867, 276.74280529538
5604, 27.727739242863, 76.785867208767, 300.37283470761
5605, 42.315252668603, 139.02084979707, 288.93159888307
5606, 57.337413176659, 91.229319169757, 254.32100106563
5607, 54.240107730519, 84.68078933158, 269.08561535245
5608, 53.196275162932, 139.01573977887, 271.82673380948
5609, 38.58551804871, 104.57763960054, 292.63106610106
5610, 49.676877974347, 67.894167933818, 278.95613570078
5611, 56.037811547195, 108.29691767093, 262.88462948637
5612, 35.280932000898, 41.623576500997, 295.40380861941
5613, 42.372326150139, 40.006772992417, 288.86947358309
5614, 49.782623370392, 8.4190492901641, 278.7739536797
5615, 46.966855208355, 101.53666329876, 283.1717426711
5616, 54.082312723386, 7.2372568779433, 269.52827310567
5617, 47.368832969951, 114.55670299394, 282.59514784542
5618, 52.097494831454, 51.505218344159, 274.33312623332
5619, 56.695694001047, 61.202160565982, 259.58375092225
5620, 19.577839222368, 106.4333253666, 304.06438949422
5621, 51.100615890562, 22.759980958736, 276.36241748409
5622, 39.801254582702, 58.241611790194, 291.49831482895
5623, 19.574248447185, 139.26254670996, 304.06568965368
5624, 44.701746082165, 87.886428573973, 286.166336519
5625, 46.206707767756, 179.04824414116, 284.22265561387
5626, 51.304302483189, 82.626025490727, 275.9637929955
5627, 36.742415367998, 114.8265372059, 294.22945752466
5628, 54.758431799126, 17.846203663159, 267.54320799912
5629, 35.309998936123, 58.566666689743, 295.38120729036
5630, 57.315544486885, 47.488246776362, 254.60199523814
5631, 55.397303022029, 152.38027369382, 265.40742736103
5632, 53.904306504361, 5.118536846207, 270.0143883315
5633, 49.843908225469, 57.558901022666, 278.6676614465
5634, 55.440067766039, 185.63241704099, 265.25283206808
5635, 23.371292610653, 156.0359346535, 302.53601318817
5636, 43.674213125605, 185.19025508145, 287.40070999138
5637, 33.261341754894, 167.87399946705, 296.90344491254
5638, 46.661368060855, 36.155003952588, 283.60010015892
5639, 22.29634108941, 68.00402348372, 303.00116200636
5640, 48.220508890132, 179.26210907834, 281.32143870222
5641, 53.326063576838, 81.851753757211, 271.50769498108
5642, 30.953613005153, 100.09605087012, 298.45744361734
5643, 57.479638530979, 54.363523806689, 251.53008311801
5644, 56.450279365553, 4.359506967485, 260.93690813489
5645, 31.469594681761, 35.389437034693, 298.12395048794
5646, 52.406515019366, 134.75398563612, 273.66024479005
5647, 50.507233601945, 164.02680966151, 277.48216428665
5648, 47.010369776477, 7.3939689850918, 283.11004580907
5649, 54.73686388029, 67.688626368111, 267.61038706419
5650, 23.942119222824, 132.07999788063, 302.27834089869
5651, 34.385243782233, 189.45121586929, 296.08584392236
5652, 49.512282003334, 163.90700189655, 279.23668809599
5653, 23.030221891889, 166.9036925015, 302.68642025807
5654, 35.503940796562, 97.577205540991, 295.22963837921
5655, 50.941189377764, 182.1372567081, 276.66918117938
5656, 45.960133478837, 167.46467503093, 284.55309147685
5657, 55.311064154231, 2.2470080402229, 265.71420319732
5658, 46.049576856858, 131.22793672491, 284.43379838624
5659, 56.860879958698, 16.843842872312, 258.54928829333
5660, 19.947445596372, 26.487794410487, 303.92911471719
5661, 55.216159728656, 176.75841792107, 266.04449141667
5662, 40.394713000389, 113.6200806936, 290.92086462449
5663, 53.893852899889, 110.15607408776, 270.04252029075
5664, 40.623615295081, 90.899182678262, 290.69363439602
5665, 21.958774887623, 75.367676490185, 303.14190630223
5666, 25.12439233393, 77.648834218088, 301.72054630271
5667, 57.4798274894, 128.38651773956, 251.52296808531
5668, 55.951737054935, 86.580091561491, 263.25341920168
5669, 55.993517013761, 110.82527038318, 263.07578114032
5670, 48.789339880035, 49.776072518375, 280.42778851758
5671, 35.627193365767, 30.335834748088, 295.13261672979
5672, 47.22310791663, 139.36029226794, 282.80591530036
5673, 53.31751794375, 131.01927402287, 271.52887085562
5674, 39.702221612228, 49.748104371878, 291.59307152704
5675, 57.212029648155, 62.615817714865, 255.74749193463
5676, 22.242200310518, 125.66199591313, 303.02390522535
5677, 32.494390218503, 69.755960181422, 297.43800801391
5678, 47.486921306103, -0.97261697202239, 282.42286700568
5679, 51.293626215861, 93.495632499675, 275.98487848014
5680, 56.417633672483, 180.35647532425, 261.10408081732
5681, 57.352490623173, 142.43226576495, 254.1160441347
5682, 52.17571821166, 163.54094083985, 274.16494214968
5683, 23.323803725613, 65.21970111818, 302.55711350302
5684, 50.809664234141, 116.88975206013, 276.91891566193
5685, 54.846284415205, 138.96350340056, 267.26658871481
5686, 37.187792463611, 138.00376295403, 293.85565062433
5687, 46.768714443081, 150.3697785674, 283.45052091286
5688, 47.076211234929, 107.7394854028, 283.01636466609
5689, 42.071700222197, 157.79956733071, 289.19466852027
5690, 54.334940560425, 95.766828365096, 268.81393723534
5691, 52.532501121291, 24.048118302931, 273.37918574163
5692, 23.4555551852, 97.588711819354, 302.4984469385
5693, 39.965052204635, 171.69120997674, 291.34059266969
5694, 56.125356524954, -0.47138071810139, 262.49777399967
5695, 47.479640073704, 176.61127698415, 282.43352861579
5696, 55.745831553693, 144.37000270025, 264.09440542865
5697, 22.3205250058, 50.88788354337, 302.99098190698
5698, 42.417799929537, 107.47991328399, 288.81984349708
5699, 43.297250561672, 173.08198684958, 287.83646513352
5700, 32.844538694044, 103.57823136474, 297.19625279591
5701, 20.073099086102, 89.679393269971, 303.88247111148
5702, 35.033060750763, 50.746504715979, 295.59533588464
5703, 56.517658827066, 55.06024472104, 260.58320559695
5704, 54.278379563855, 129.19799329665, 268.97649893742
5705, 34.053776810833, 28.4564305123, 296.33130998491
5706, 53.395797484193, 70.733054562001, 271.33398254024
5707, 49.761470855992, 177.050549131, 278.81051922906
5708, 24.241646213486, 122.59950664746, 302.14012455739
5709, 46.583373327313, 137.62695411922, 283.70814930322
5710, 31.391171852113, 74.129455386485, 298.17514223903
5711, 55.160263298029, 44.193646267202, 266.23561988013
5712, 53.299838573658, 46.465337206112, 271.5726031814
5713, 49.621523594207, 24.067324142801, 279.05089320812
5714, 51.142692425609, 175.7439297648, 276.28069655583
5715, 53.288622827598, 156.26164615411, 271.60029345028
5716, 53.508772308149, 42.790797508309, 271.04902102414
5717, 57.464947328837, 135.17543510423, 252.00744327293
5718, 54.591045827108, 143.7988920298, 268.05734519531
5719, 37.618226297803, 141.98955206372, 293.48699863416
5720, 22.180544538952, 72.221211592491, 303.04972614402
5721, 53.82616672512, 154.15024599026, 270.22359452915
5722, 56.582662981393, 155.19152860856, 260.22996822743
5723, 56.657079172019, 163.9991923125, 259.80945358802
5724, 41.233774569921, 132.3914173558, 290.07525214789
5725, 45.153711540128, 18.813720337899, 285.60045412844
5726, 50.703518660226, 133.06822471393, 277.11831844846
5727, 30.747497744155, 103.98248375493, 298.58849022632
5728, 49.263793264584, 100.03865403973, 279.65347657838
5729, 52.411754964544, 45.210859009729, 273.64863508824
5730, 21.478271977006, 188.15832350126, 303.33792115261
5731, 50.007811507586, 13.654620216281, 278.38078202273
5732, 38.076304079873, -1.914660408414, 251.47629759867
5733, 1.476297990891, -1.9146611743004, 288.07630483161
5734, 13.869793220018, -2.5, 296.36419745134
5735, 22.288653699358, -2.5, 293.03510370917
5736, 32.007403906601, -2.5, 286.6820389467
5737, 45.639753865135, -2.5, 266.11018640377
5738, 41.038198770496, -2.5, 276.15717028312
5739, 7.7198880021592, -2.5, 301.16671780627
5740, 48.57483666108, -2.5, 258.25334837012
5741, 16.335803320115, -2.5, 300.44605746386
5742, 37.329801922268, -2.5, 282.34906866337
5743, 8.3794101552732, -2.5, 295.11485506051
5744, 19.178228922844, -2.5, 296.86413850586
5745, 16.387402485019, -2.5, 291.8475788736
5746, 28.38522501286, -2.5, 291.65915629603
5747, 46.23144969783, -2.5, 272.27237211152
5748, 41.010430277905, -2.5, 269.5183959939
5749, 24.666179183857, -2.5, 287.08908163149
5750, 12.021657042879, -2.5, 302.87349375451
5751, 32.603486776301, -2.5, 280.23090323365
5752, 43.803748730692, -2.5, 260.53151806754
5753, 35.765411407319, -2.5, 276.93200156727
5754, 50.582283588953, -2.5, 263.6902609355
5755, 12.082538101464, -2.5, 292.38643340724
5756, 44.020710483563, -2.5, 254.9755069006
5757, 4.5498614033261, -2.5, 304.85594318371
5758, 36.901238474905, -2.5, 288.04570064297
5759, 43.000268563123, -2.5, 280.69899506702
5760, 4.5218232365235, -2.5, 297.82318012014
5761, 52.362710093647, -2.5, 254.8811722682
5762, 23.215349633365, -2.5, 297.93619007321
5763, 11.135968755474, -2.5, 299.46409475074
5764, 20.176547722515, -2.5, 289.00246233647
5765, 33.233312731016, -2.5, 290.90355322298
5766, 45.583492808308, -2.5, 276.79578554697
5767, 49.620534479164, -2.5, 268.96667752056
5768, 28.388071745289, -2.5, 283.63171699614
5769, 41.346906783074, -2.5, 264.80236567657
5770, 37.696600969921, -2.5, 272.80669933164
5771, 8.6357186215979, -2.5, 305.03049410809
5772, 19.777050688329, -2.5, 300.80769197774
5773, 4.1081265368659, -2.5, 293.80656384707
5774, 16.891630265344, -2.5, 302.65479701407
5775, 52.597247908217, -2.5, 259.65614235
5776, 48.120767260537, -2.5, 253.97181405944
5777, 27.183203162345, -2.5, 296.10288687593
5778, 16.349650138816, -2.5, 297.87435338103
5779, 16.478998687847, -2.5, 294.81869020262
5780, 4.6068662157378, -2.5, 301.32437883065
5781, 14.112054158689, -2.5, 302.77224552395
5782, 10.898238342559, -2.5, 295.97921329949
5783, 41.482372079041, -2.5, 285.31738853006
5784, 38.523712931909, -2.5, 278.91904215409
5785, 12.961017674507, -2.5, 299.96345668316
5786, 34.578353247041, -2.5, 284.3867995184
5787, 28.775464089602, -2.5, 288.50380466429
5788, 7.552184097973, -2.5, 297.6373270846
5789, 47.099759877479, -2.5, 262.92895283127
5790, 42.772122749939, -2.5, 272.86516179079
5791, 19.93633702861, -2.5, 293.22716473138
5792, 41.853857139044, -2.5, 257.60508505343
5793, 8.5306691063802, -2.5, 291.83307857873
5794, 25.249083237398, -2.5, 291.86622026092
5795, 44.689855034926, -2.5, 269.54813777179
5796, 31.921487911526, -2.5, 277.49008550765
5797, 13.948119414363, -2.5, 289.96185125192
5798, 25.371741505594, -2.5, 283.76409348645
5799, 31.347681180957, -2.5, 295.13546043553
5800, 51.54782529837, -2.5, 266.53877504355
5801, 35.66684192981, -2.5, 280.23457609304
5802, 39.120429653416, -2.5, 266.64165326172
5803, 14.516605616045, -2.5, 294.11923249414
5804, 48.221828373219, -2.5, 275.14281284554
5805, 17.206446126563, -2.5, 288.71989087196
5806, 21.78622977687, -2.5, 286.76069311456
5807, 45.377543200345, -2.5, 258.15641514208
5808, 49.497518737212, -2.5, 272.15816281731
5809, 15.76833276671, -2.5, 304.24743218101
5810, 2.7932075131421, -2.5, 306.95993533069
5811, 10.898574528773, -2.5, 305.49648823454
5812, 36.000431496186, -2.5, 290.99463741215
5813, 18.471527573857, -2.5, 302.71071261762
5814, 29.43782014951, -2.5, 281.10847011838
5815, 13.515406734842, -2.5, 304.80815031566
5816, 39.747319948516, -2.5, 287.69051979658
5817, 37.555717914364, -2.5, 269.8486483861
5818, 41.025757315667, -2.5, 262.18252758487
5819, 45.455282412093, -2.5, 279.61368900769
5820, 54.324144797091, -2.5, 257.27063249555
5821, 6.6671503193422, -2.5, 306.65954909049
5822, 35.180707375906, -2.5, 274.04586239947
5823, 53.344366224884, -2.5, 262.56620304129
5824, 21.198244199196, -2.5, 295.57855437674
5825, 48.607721264858, -2.5, 265.99874236898
5826, 10.250820361571, -2.5, 301.26196830635
5827, 24.556060777486, -2.5, 295.04454271679
5828, 20.680883675858, -2.5, 298.35996305334
5829, 41.835850343197, -2.5, 252.46909611276
5830, 43.621706916922, -2.5, 283.34872900701
5831, 54.477982648482, -2.5, 252.94429158306
5832, 31.609874400941, -2.5, 283.38312941941
5833, 43.902260048125, -2.5, 263.78747059336
5834, 14.454173730404, -2.5, 298.50420620768
5835, 5.505597302846, -2.5, 291.71032011723
5836, 22.908746131669, -2.5, 289.79919849032
5837, 38.054637766073, -2.5, 275.47671108763
5838, 27.230183472502, -2.5, 286.31880560478
5839, 33.992087975378, -2.5, 288.65882912733
5840, 17.640433512076, -2.5, 301.12756203978
5841, 2.525037616309, -2.5, 303.37195688181
5842, 2.6122996305555, -2.5, 296.1412001473
5843, 6.9221603437641, -2.5, 303.60018042907
5844, 2.3452964531927, -2.5, 299.37572509637
5845, 43.296110900983, -2.5, 277.9015115675
5846, 45.883485114191, -2.5, 252.87460202463
5847, 50.216120716222, -2.5, 252.68044955955
5848, 42.595516323461, -2.5, 267.12392467061
5849, 22.094662066183, -2.5, 300.52451180913
5850, 50.036343720431, -2.5, 260.65210468781
5851, 37.915127894811, -2.5, 285.22522342935
5852, 10.282495078363, -2.5, 293.95918430568
5853, 5.5906470607978, -2.5, 295.71284101964
5854, 25.943254905388, -2.5, 298.4638522702
5855, 51.17855332446, -2.5, 257.6820888608
5856, 10.683994915226, -2.5, 290.17952307791
5857, 31.239401169908, -2.5, 289.79077278825
5858, 18.732796204775, -2.5, 291.21681135918
5859, 33.719681510622, -2.5, 293.47609122748
5860, 43.705769687431, -2.5, 275.65781079983
5861, 12.269331514355, -2.5, 297.57534939151
5862, 40.427926899561, -2.5, 282.12459874416
5863, 40.210326854353, -2.5, 271.96923721121
5864, 6.3841079077304, -2.5, 299.3510970957
5865, 46.976283981819, -2.5, 268.29680901501
5866, 17.873887807074, -2.5, 298.89179122327
5867, 2.3834001566449, -2.5, 291.80832512049
5868, 41.380823970754, -2.5, 255.04276879744
5869, 46.993227983674, -2.5, 256.13281114719
5870, 19.215010860875, -2.5, 286.8624677767
5871, 39.208594071928, -2.5, 263.94253539681
5872, 46.918887237443, -2.5, 260.09498208787
5873, 26.943330624074, -2.5, 281.67409446647
5874, 9.5629334319255, -2.5, 303.25795427638
5875, 52.128542165161, -2.5, 268.93138464255
5876, 38.420659216593, -2.5, 289.96307473509
5877, 29.573051829705, -2.5, 296.71200213432
5878, 12.508684755009, -2.5, 295.13515642348
5879, 47.443748245422, -2.5, 278.40674705672
5880, 8.832104396953, -2.5, 306.92892121973
5881, 33.375746148818, -2.5, 275.60121884975
5882, 31.097828951364, -2.5, 292.51997610254
5883, 26.703518800837, -2.5, 293.77349605807
5884, 35.555921134383, -2.5, 271.71189124836
5885, 24.273580966556, -2.5, 300.08316263686
5886, 15.662908147177, -2.5, 301.98562908968
5887, 8.8320211767926, -2.5, 299.40958133826
5888, 45.565458644121, -2.5, 274.55787573331
5889, 47.552915766221, -2.5, 270.36521159182
5890, 14.233666404223, -2.5, 292.07877400672
5891, 17.372723580465, -2.5, 303.79784992962
5892, 15.654116716462, -2.5, 296.32011169422
5893, 1.8207652648133, -2.5, 293.91423137174
5894, 14.638637852163, -2.5, 300.65068147081
5895, 29.602199522987, -2.5, 285.70389912626
5896, 11.913219938046, -2.5, 301.05620981399
5897, 54.833475008344, -2.5, 260.11349437941
5898, 40.617680525531, -2.5, 259.86730493484
5899, 9.8445256737377, -2.5, 297.53007015418
5900, 4.7273884601939, -2.5, 307.57890533692
5901, 20.808616157385, -2.5, 291.2561481253
5902, 49.574369339937, -2.5, 255.60028071088
5903, 34.357671655272, -2.5, 282.11689538557
5904, 55.137277291552, -2.5, 255.08379651114
5905, 53.335014288809, -2.5, 264.97847100861
5906, 29.048418156345, -2.5, 294.31716298374
5907, 26.32954547451, -2.5, 289.32021262962
5908, 51.563354990471, -2.5, 270.98607667705
5909, 1.7326677576135, -2.5, 305.28943238672
5910, 30.080475159084, -2.5, 278.81984626053
5911, 17.281180120101, -2.5, 296.48942361245
5912, 15.747872078453, -2.5, 299.16513975211
5913, 44.023595470083, -2.5, 251.56786471312
5914, 13.162289670828, -2.5, 301.58802632728
5915, 41.218744863397, -2.5, 279.11840093318
5916, 6.3700387075956, -2.5, 293.7539198582
5917, 50.295053757628, -2.5, 274.14337556686
5918, 2.3693000713099, -2.5, 301.32358800292
5919, 52.623287563494, -2.5, 252.02056657587
5920, 33.866594834755, -2.5, 278.09775705027
5921, 47.807391875596, -2.5, 252.01830203459
5922, 39.785043732304, -2.5, 274.04901743922
5923, 35.078842299747, -2.5, 286.59971833295
5924, 22.932475353656, -2.5, 284.74345723871
5925, 18.598998949952, -2.5, 295.0564259606
5926, 18.02690667124, -2.5, 293.23333422548
5927, 45.319953871987, -2.5, 281.90635642107
5928, 81.887004474365, 195.11703761911, 306.88522341594
5929, 81.618308763277, 210.43603787058, 306.61913128028
5930, 81.659144077992, 208.07759002, 306.66062941579
5931, 81.705956740388, 205.42821474809, 306.70630715659
5932, 81.750097948798, 202.78190287639, 306.75454556304
5933, 81.795576407254, 200.13405928444, 306.80150095934
5934, 81.841055884267, 197.48621567916, 306.84845457341
5935, 74.497197775206, 200.01687240159, 307.3862475691
5936, 74.562650219322, 205.84934916924, 307.28444130843
5937, 72.197550598057, 203.00938564803, 307.33401305609
5938, 76.761795840499, 203.01488843893, 307.33391700451
5939, 77.040499886735, 197.41260234134, 307.43170527209
5940, 71.995644882349, 197.3094256302, 307.43350622829
5941, 72.142059879374, 208.53884376665, 307.23749600561
5942, 76.230399426973, 208.19543690612, 307.24349019466
5943, 71.399887870068, 205.73180953911, 307.28649297031
5944, 77.548875242737, 205.74618083081, 307.28624211848
5945, 77.844698523141, 200.12064138308, 307.38443627479
5946, 71.00104649975, 200.15740591764, 307.38379454745
5947, 74.490352119638, 196.28704478472, 307.45135195232
5948, 74.466744804818, 209.51423193393, 307.22047054182
5949, 74.492725838307, 203.36823542681, 307.3277493099
5950, 70.557376074774, 195.51405530743, 307.46484453384
5951, 78.413741694082, 195.54365656289, 307.464327842
5952, 78.148886931839, 210.01730384766, 307.2116893889
5953, 70.683099869704, 210.07689928916, 307.2106491466
5954, 78.712443982629, 202.79257324598, 307.33779753064
5955, 70.2420748734, 202.79987116042, 307.33767014507
5956, 78.484073946002, 208.01704011525, 307.24660412222
5957, 70.19777522592, 208.04610449307, 307.24609680162
5958, 75.32505075546, 198.59642967621, 307.4110414891
5959, 78.994301379182, 197.44669568571, 307.43111017055
5960, 70.001040390128, 197.45560023841, 307.43095474101
5961, 76.254463556553, 195.17034981798, 307.47084393547
5962, 73.076802718086, 201.14654086284, 307.36652913276
5963, 75.862630405673, 201.13456983443, 307.36673808784
5964, 72.74432711096, 195.17146243128, 307.47082451474
5965, 75.841511785216, 204.49466346645, 307.30808743533
5966, 73.163203631439, 204.4896949458, 307.30817416118
5967, 73.226959935014, 198.98281646548, 307.40429708261
5968, 72.719734947411, 210.41957658128, 307.20466769222
5969, 73.863579343497, 207.69423297488, 307.25223874182
5970, 76.123843305428, 210.35935646269, 307.2057188383
5971, 81.332351511511, 213.20804145271, 306.27463026285
5972, 75.109270469381, 192.74160080006, 251.38432091006
5973, 75.010720553249, 192.76638889451, 254.18860926398
5974, 72.742958228269, 192.64837506957, 258.01573615111
5975, 68.170605645388, 192.4959866434, 258.08652571564
5976, 66.506589102362, 192.51732495853, 258.10821380013
5977, 69.83238597008, 192.51958798622, 258.1105529973
5978, 74.022847014303, 193.14987436689, 267.37957632568
5979, 73.711605794559, 193.39839883201, 295.85765930869
5980, 73.642226827569, 193.29577713883, 284.09837801336
5981, 73.450305863256, 193.2234812086, 275.81408495801
5982, 70.855974449615, 193.34771020024, 290.04931741705
5983, 75.441911046437, 193.44688266807, 301.41335663512
5984, 77.47220678437, 193.10571191316, 262.31906036724
5985, 70.140537198718, 193.11901071977, 263.84295266486
5986, 70.294896745368, 193.45261875233, 302.07064678838
5987, 76.917707425395, 193.34233859711, 289.43379266564
5988, 77.223573294129, 193.18910510295, 271.87497341441
5989, 77.013554580954, 193.25855649506, 279.83331468692
5990, 70.637305568867, 193.18168210432, 271.02438202239
5991, 79.295806532063, 193.4722188632, 304.31659703553
5992, 70.364049348028, 193.26289885708, 280.33090008888
5993, 78.049820986644, 193.38074849336, 293.83513082766
5994, 69.505554894225, 193.38417375451, 294.2276268795
5995, 69.50817885289, 193.30891414893, 285.60373026721
5996, 78.918263546142, 193.06858541527, 258.0647850894
5997, 77.931365207747, 193.2977408779, 284.32340022167
5998, 78.274334210571, 193.1415305168, 266.42346580733
5999, 73.645464317208, 193.11134547987, 262.96460317189
6000, 69.062872867538, 193.2206316925, 275.48756275427
6001, 68.250976960786, 193.4700120102, 304.06371672825
6002, 78.352891433784, 193.22414446098, 275.89008615331
6003, 79.995693661176, 193.03786203796, 254.54423475681
6004, 78.604359178657, 193.4167124485, 297.95619190082
6005, 68.76230081549, 193.41999937934, 298.33283686909
6006, 68.781067034004, 193.15345667617, 267.79006831139
6007, 80.785841972426, 193.48512299443, 305.79526401394
6008, 74.276949650339, 193.36772153862, 292.3423896689
6009, 67.839433470467, 193.10076159863, 261.75181050696
6010, 73.65912116646, 193.46806690505, 303.84082975564
6011, 73.349624267535, 193.42539638099, 298.95127200262
6012, 73.94723652459, 193.17445399123, 270.19612230025
6013, 74.09304229103, 193.32155918276, 287.05270762476
6014, 73.869905184919, 193.25353610851, 279.25803536875
6015, 80.102109953613, 193.43859209379, 300.46335091956
6016, 68.310004867652, 193.28407906056, 282.7579110146
6017, 79.626492858802, 193.31764379384, 286.60404849315
6018, 67.915671533379, 193.34761383153, 290.03827465684
6019, 79.748926067446, 193.16373012845, 268.96728934049
6020, 75.603925806965, 193.08648645304, 260.11604084399
6021, 75.714272253833, 193.12634968242, 264.68391448774
6022, 67.787951020973, 193.24348873792, 278.10672073526
6023, 79.584745078652, 193.09240768338, 260.79454663563
6024, 79.357793681415, 193.35855751793, 291.29229690854
6025, 76.327831286845, 193.47743335136, 304.91411819442
6026, 67.891090186697, 193.19906599601, 273.01637870423
6027, 67.860981692801, 193.44187380202, 300.83939743673
6028, 79.43267420901, 193.27267597922, 281.45124731632
6029, 71.605764539988, 193.10443273329, 262.17248087183
6030, 79.7326193931, 193.11995909636, 263.95162585771
6031, 71.657495282282, 193.16024142433, 268.56752344467
6032, 76.546420848822, 193.16341884451, 268.93161973353
6033, 79.507027501862, 193.24323765167, 278.07794910105
6034, 67.773185998255, 193.12839573867, 264.91836931133
6035, 76.589360711237, 193.31675608893, 286.5023275862
6036, 71.120831550608, 193.47443309544, 304.57032291813
6037, 76.346064063547, 193.23567856875, 277.21176399282
6038, 71.165756018871, 193.28771014714, 283.17399232504
6039, 76.175232175439, 193.21188486368, 274.48527544744
6040, 79.585957621126, 193.01644566416, 252.09016139149
6041, 79.541384384724, 193.20288535157, 273.4540335027
6042, 76.035410294729, 193.42026640204, 298.36343463996
6043, 75.872841548378, 193.27899516168, 282.17535390433
6044, 71.103678093571, 193.237502562, 277.42077291749
6045, 71.149506043199, 193.20858802853, 274.10749555727
6046, 72.713017759853, 193.12872014259, 264.95554231925
6047, 67.630901229047, 193.39984685246, 296.02358601676
6048, 70.961311608604, 193.40384015934, 296.48117366186
6049, 80.017550580118, 193.39645383534, 295.63478476554
6050, 67.420736891664, 193.17260791129, 269.98458249116
6051, 71.760316484744, 193.37305778179, 292.95386257117
6052, 67.399839561627, 193.37106602097, 292.72562938673
6053, 67.354104583407, 193.32347635114, 287.27239336134
6054, 66.632915622372, 193.4806289558, 305.2802981932
6055, 73.109149190458, 193.2755569258, 281.78137109647
6056, 71.383227308186, 193.32627021167, 287.59253806816
6057, 78.942237008159, 193.48906999944, 306.24754599008
6058, 76.94147661708, 193.06927938106, 258.14430569255
6059, 81.070414654888, 193.47096180519, 304.17255245422
6060, 73.736069482044, 193.19971401889, 273.09063477216
6061, 73.313010937914, 193.09344922435, 260.91389540919
6062, 78.239123376554, 193.05180569338, 256.14201940914
6063, 70.782746856486, 193.43105387973, 299.59955714672
6064, 76.001012895763, 193.38217313526, 293.99837862046
6065, 76.517581211209, 193.36322972919, 291.82767928985
6066, 67.03311741266, 193.30202399935, 284.81419732796
6067, 80.399563169782, 193.29415700265, 283.91272879548
6068, 70.885745795016, 193.14127399537, 266.39407136284
6069, 67.242320667167, 193.26553782546, 280.63329591262
6070, 80.553700560375, 193.14040821297, 266.2948625264
6071, 69.487471384718, 193.36472431781, 291.99894218226
6072, 80.527065426471, 193.34027516695, 289.19734698901
6073, 80.42930920625, 193.05753622956, 256.79867381368
6074, 66.815108314109, 193.22070158514, 275.49557165736
6075, 69.302968791743, 193.48460949419, 305.73642271394
6076, 73.624891982555, 193.34839356982, 290.12762381508
6077, 72.580506251591, 193.44960295142, 301.72507023313
6078, 80.265206595277, 193.37666099722, 293.36675016312
6079, 71.958486259709, 193.30804616587, 285.5042692597
6080, 66.764808677563, 193.14569670481, 266.90086366766
6081, 77.270099845179, 193.4006691344, 296.11781019445
6082, 69.933753148919, 193.09695114402, 261.31517565756
6083, 66.712876348707, 193.42380376106, 298.76877583465
6084, 77.704123566642, 193.08449416918, 259.88774772576
6085, 80.255328492468, 193.45815790768, 302.70537112211
6086, 77.218115161415, 193.01081263084, 251.44467970744
6087, 80.819120246485, 193.41881954459, 298.19764119824
6088, 76.174672149674, 193.14541782989, 266.86890776687
6089, 78.185113917958, 193.45459038666, 302.29657370476
6090, 81.248882941285, 193.00913822254, 251.2528115212
6091, 80.482251334485, 193.2200080614, 275.41610170868
6092, 66.234770513287, 193.09225796099, 260.77739014906
6093, 77.843476020149, 193.03115530058, 253.7757187731
6094, 75.426980816736, 193.10406169051, 262.12996358154
6095, 80.450483476743, 193.18548265603, 271.45988211191
6096, 69.342597478228, 193.33328719743, 288.39660499444
6097, 77.673780878279, 193.43540879981, 300.09858156004
6098, 75.674271548201, 193.30145806388, 284.74934754599
6099, 73.166719374312, 193.48554269285, 305.84335668938
6100, 77.791736700921, 193.12303924992, 264.30457649608
6101, 67.866474087247, 193.48638992575, 305.94043996391
6102, 80.789344162854, 193.07867659435, 259.22111967838
6103, 66.067104260323, 196.08599904665, 306.7913006879
6104, 65.901830444517, 200.24517232654, 306.58963354221
6105, 66.030144931456, 205.24393030871, 306.54761173691
6106, 64.721655456384, 195.16270476916, 305.692091377
6107, 65.983956200812, 208.5093506218, 306.43811525278
6108, 65.481832670772, 202.71976064526, 306.22240843454
6109, 65.764377529853, 194.6457075289, 306.63895845689
6110, 66.591269030721, 197.96729582978, 307.01061333157
6111, 67.215171103477, 194.72487617791, 307.29974718398
6112, 65.220717787375, 210.32681291771, 305.78032370921
6113, 66.900251537032, 210.32744195225, 306.8644867162
6114, 65.014466830013, 197.50146372439, 305.94320759736
6115, 67.134059678642, 202.77495997215, 307.10849841062
6116, 61.864712086398, 192.52817487809, 258.06150173929
6117, 60.218432637036, 192.48246529593, 258.00311962937
6118, 63.502016168187, 192.43879001209, 258.00064881915
6119, 67.370478371138, 41.33641127199, 255.30633372471
6120, 70.860988669018, 41.811353620401, 251.34981151579
6121, 66.018827807749, 40.798786151748, 255.79680547805
6122, 70.978931464572, 41.21467185738, 252.92411642051
6123, 69.437378379556, 41.380760145076, 254.3474760753
6124, 66.497682493759, 41.729698906569, 254.86603132457
6125, 71.842296199989, 40.956883225218, 251.32556687943
6126, 67.370439578578, 20.66357716856, 255.30633015361
6127, 70.860925312423, 20.188621374098, 251.34982222629
6128, 66.01887112612, 21.20119742767, 255.79679926874
6129, 70.978692014097, 20.784647247911, 252.92347144413
6130, 69.43717979319, 20.618339825275, 254.34647184003
6131, 66.497662612171, 20.270300027612, 254.86603010464
6132, 71.842172687278, 21.042835129241, 251.32541126254
6133, 19.277326702738, 212.91695250698, 303.59257811658
6134, 31.765661536728, 213.43141963516, 296.81358583332
6135, 29.706757016094, 213.39660393458, 298.18731825551
6136, 34.560586979767, 213.39608771318, 294.9219846673
6137, 64.052373661326, 213.39490090999, 302.70141030222
6138, 65.785233393019, 213.67923741079, 305.00317115099
6139, 67.37773234623, 213.67931815125, 306.03053751568
6140, 66.450406946627, 213.59305585809, 305.7111326791
6141, 70.460054022932, 213.42650089831, 306.57859517134
6142, 78.453008699923, 213.42650089831, 306.57859517134
6143, 75.886592681756, 213.42650089831, 306.57859517134
6144, 73.026470041099, 213.42650089831, 306.57859517134
6145, 72.353786616548, 188.63071799696, 252.69635933069
6146, 69.489658405009, 183.72539109247, 252.76283612173
6147, 66.713457248423, 178.96581740779, 252.75747284213
6148, 63.937253107704, 174.20624546385, 252.75220849341
6149, 61.109980099888, 169.35786929006, 252.72879825383
6150, 59.7855045537, 167.08081198554, 252.63460881576
6151, 70.877487530439, 186.10477827511, 252.76646557321
6152, 68.082579000129, 181.31421242061, 252.77665115845
6153, 65.302324481622, 176.54793905953, 252.77487988706
6154, 62.513557987909, 171.76686528361, 252.77010078901
6155, 73.32546376397, 190.35570698179, 253.55137343284
6156, 58.698054316189, 165.16842021326, 251.93925665392
6157, 73.497510400569, 190.52971749442, 251.80652645205
6158, 71.736902587725, 189.2466651717, 257.05649523754
6159, 60.54435310576, 169.61104330585, 256.84317790523
6160, 63.831698738323, 186.80214733545, 257.5
6161, 62.476318120247, 183.30553758363, 257.5
6162, 66.025585674346, 188.51181808209, 257.5
6163, 61.818031489078, 188.62651514015, 257.5
6164, 61.706171294449, 180.43498738282, 257.5
6165, 61.269366222825, 186.17057686722, 257.5
6166, 63.888583303503, 189.22346396051, 257.5
6167, 64.609025645304, 184.15519193138, 257.5
6168, 59.773576706739, 173.52475181042, 257.5
6169, 66.032643383759, 185.92314550381, 257.5
6170, 68.067100948539, 189.16887833229, 257.5
6171, 61.062841467727, 178.13548573429, 257.5
6172, 63.594115728891, 181.46705359787, 257.5
6173, 60.663093691811, 184.18081779842, 257.5
6174, 60.468762144638, 175.91552489674, 257.5
6175, 60.082981758317, 189.73680734541, 257.5
6176, 60.508016118419, 182.14737774188, 257.5
6177, 62.818963957376, 185.060713575, 257.5
6178, 58.893136750392, 202.53778559105, 297.40621488588
6179, 48.104503012283, 202.78364280617, 292.60305052886
6180, 41.254619083304, 201.51355426538, 292.96617095445
6181, 54.053625276094, 205.59719759708, 294.22865083253
6182, 53.253811840345, 199.49335940822, 293.99943097053
6183, 43.380367309503, 206.44129847078, 292.52068486576
6184, 61.504136923839, 206.68454037862, 300.03127285187
6185, 61.616932483822, 198.68206232961, 300.4029630872
6186, 45.117884519273, 198.52808635946, 292.53675789845
6187, 38.342906880695, 206.75853909825, 293.75736984326
6188, 57.671171871176, 207.75050508875, 296.31122935961
6189, 57.218675649323, 197.85971799933, 296.19821771669
6190, 48.110698896939, 207.62235828291, 292.51872109304
6191, 37.815076799106, 197.71321223747, 294.14233897588
6192, 49.390899259327, 197.84216758856, 292.8899082721
6193, 62.135075858774, 202.73208651445, 300.98816758167
6194, 37.238842933871, 202.90584604882, 294.29814205799
6195, 41.60354351196, 197.17397757858, 292.96843175386
6196, 44.255804505848, 202.45449019844, 292.51012066541
6197, 55.512788429885, 202.35803796004, 295.03174217294
6198, 51.165573578508, 208.25342496935, 293.12042706925
6199, 52.198714012816, 202.51931182035, 293.54766334806
6200, 55.20923095399, 208.65001242498, 294.74057596117
6201, 41.043687831312, 208.63571442321, 292.88700600764
6202, 40.440212722464, 204.47696532749, 293.11332729954
6203, 59.391297647745, 196.87568963559, 297.98941042398
6204, 45.197163787945, 208.99422552794, 292.35201532496
6205, 62.553863240576, 208.95602176983, 301.40752000324
6206, 54.775695197075, 196.7289413954, 294.74905538776
6207, 62.390661743201, 196.55490316531, 301.55310645141
6208, 59.737753535397, 209.16329278852, 298.02295246117
6209, 50.303603686777, 205.87925302907, 292.94017242372
6210, 62.912384375177, 205.15089840626, 302.09434513754
6211, 62.813662225552, 200.09577118583, 302.10204986134
6212, 36.34546770513, 208.95694341709, 294.6170961569
6213, 59.421597748286, 199.67347945282, 297.95087427432
6214, 46.241248379808, 205.14824553222, 292.42193204267
6215, 52.002865126998, 196.51188890481, 293.59217931545
6216, 60.354654114582, 204.0927650333, 298.77276717344
6217, 36.794157723127, 195.18472135414, 294.65951502285
6218, 56.264478969128, 205.16865182403, 295.41664244261
6219, 36.298375139014, 200.15433578946, 294.81499982084
6220, 46.964959338577, 196.32519903231, 292.60988211034
6221, 47.798041881802, 199.92880976923, 292.61819642723
6222, 36.018830474767, 205.11517206728, 294.8663045047
6223, 39.529585176628, 195.57703278398, 293.54351626614
6224, 50.203986604326, 200.43646451114, 293.01446293584
6225, 43.869301083239, 196.16472374054, 292.65118967095
6226, 60.844733871887, 201.33072376896, 299.38517598146
6227, 42.737331654826, 199.59054829779, 292.72513251741
6228, 59.684306378197, 206.19312491562, 298.04345707722
6229, 38.675777085778, 209.43897189001, 293.5816322026
6230, 57.178445372771, 200.80269118069, 296.10731822057
6231, 58.141341719861, 209.86055365346, 296.62135017427
6232, 57.706786165671, 195.80392128858, 296.59762447649
6233, 61.145325758327, 195.83969436773, 299.88850441151
6234, 48.119710655291, 209.98634571235, 292.4782500363
6235, 38.240362990533, 200.12302339755, 293.92207526839
6236, 52.785716428086, 209.95040642512, 293.62038706338
6237, 55.454702717003, 199.42215173779, 295.05799064597
6238, 43.014029107694, 209.87806006938, 292.50522396102
6239, 61.389801391069, 209.75033659746, 299.8038322158
6240, 35.770559744316, 197.34761927766, 295.15917652868
6241, 49.522936038037, 195.80345327217, 292.95156264322
6242, 58.122159983403, 204.84037415364, 296.71757884875
6243, 63.294049294321, 202.7517594198, 302.83306469718
6244, 53.675231524336, 203.38271932001, 294.10281369331
6245, 35.466251440766, 202.31844484379, 295.23452336653
6246, 42.71919525491, 204.222021192, 292.64608950537
6247, 48.406943952356, 204.94537019482, 292.60414207917
6248, 51.315500620315, 198.58646627442, 293.33911613921
6249, 39.283575578665, 202.8127756045, 293.49122416672
6250, 45.756634463573, 200.72113688484, 292.49121284295
6251, 53.156244934121, 207.6886208249, 293.80590266727
6252, 41.986123253113, 195.27678623378, 292.92689402718
6253, 41.373292281114, 206.4868347059, 292.85106679761
6254, 50.213886642691, 210.04056697768, 292.84470140367
6255, 61.752701890363, 204.69106710593, 300.40805406522
6256, 40.335323589588, 199.06866463619, 293.23962358705
6257, 63.248886939136, 207.27779209103, 302.59165974993
6258, 56.69419783085, 210.08067229867, 295.5867175964
6259, 38.309318073163, 204.65287502749, 293.80990668509
6260, 63.151186296531, 198.23856321873, 302.7391718288
6261, 56.049738426725, 195.28649492066, 295.48755411158
6262, 53.494144545618, 195.22908604748, 294.18004186505
6263, 63.366515871577, 210.31749657972, 302.69189550098
6264, 57.26400243503, 203.11186511286, 296.11801672502
6265, 45.898379616463, 207.10259137669, 292.38095647779
6266, 63.192391802028, 195.2082672185, 302.92127413265
6267, 35.244267976822, 207.3096973488, 295.26498782664
6268, 50.254019343615, 203.54573053236, 292.97037664259
6269, 53.978374205134, 201.46164559802, 294.27373413422
6270, 46.324844816541, 203.11212032886, 292.46004739999
6271, 35.060363945302, 210.36093205901, 295.31427411711
6272, 52.254362173044, 204.76176084884, 293.52540657737
6273, 59.480574644993, 193.40135115909, 286.85158127287
6274, 60.442412191489, 193.3239246977, 278.96405043422
6275, 61.489533003456, 193.4286848001, 292.21456758593
6276, 54.013333968157, 193.43671438284, 287.19085212263
6277, 55.791291190533, 193.38542222362, 282.24063060998
6278, 58.011985277348, 193.44898573462, 291.03739661427
6279, 61.057890932306, 193.27386681126, 273.93604670569
6280, 58.523375414813, 193.39185415532, 284.90607271643
6281, 62.222216634583, 193.16754525863, 263.30530190094
6282, 61.568578832399, 193.22462653432, 268.93633285376
6283, 58.210811930878, 193.32616010773, 277.12142066231
6284, 50.337642546566, 193.4622945166, 288.84995551808
6285, 62.602818611434, 193.45216019577, 296.4994477162
6286, 60.068286719887, 193.46099728569, 294.27121660921
6287, 60.932629357449, 193.41625536068, 290.10170384886
6288, 62.841575298586, 193.3385278375, 283.86984737761
6289, 54.660650583744, 193.47004590178, 291.32178155664
6290, 55.875834780458, 193.35879125411, 279.23896919108
6291, 53.058193218502, 193.41154322104, 283.89740760692
6292, 59.007467344564, 193.25727486707, 269.9050230746
6293, 63.278077231682, 193.2227278073, 271.37252615089
6294, 60.918154104092, 193.39835139782, 288.03312994632
6295, 58.095870307278, 193.29593043588, 273.56561846408
6296, 62.4413600057, 193.28398461636, 276.97733526827
6297, 59.990903677329, 193.35862526751, 282.46115607422
6298, 57.169473575608, 193.42575540643, 287.74926028754
6299, 62.636624725834, 193.31890606055, 281.28555382043
6300, 47.736133986095, 193.4753290935, 289.89750721205
6301, 60.558769872414, 193.20245543393, 265.17444503236
6302, 62.868231024289, 193.18069052767, 265.83027442404
6303, 51.087918774922, 193.43725766986, 286.17667647047
6304, 56.036184140505, 193.40533942292, 284.66898794935
6305, 52.062733332786, 193.47574013018, 290.88782256581
6306, 45.043938022875, 193.48582413485, 291.00250540583
6307, 56.900522448709, 193.47748387948, 293.49076426417
6308, 53.407373995856, 193.38409041111, 280.89443364761
6309, 62.924554977021, 193.29361137012, 278.86394122296
6310, 55.761584758393, 193.33397885441, 276.32847856644
6311, 60.573594790904, 193.17280678253, 261.79377565222
6312, 58.153542600871, 193.35707038265, 280.61733488182
6313, 59.075806001645, 193.23639662569, 267.57417419594
6314, 63.445419573466, 193.35805983732, 287.19608109508
6315, 60.983621404407, 193.37438004572, 285.36404941838
6316, 63.274057803764, 193.46351634679, 298.95305201298
6317, 63.745463921807, 193.37694149604, 289.96754764913
6318, 60.445972218682, 193.29918414974, 276.13309980178
6319, 63.462915305449, 193.13314843036, 261.46165423773
6320, 59.141606175944, 193.4222609768, 288.93118635665
6321, 49.973685275149, 193.48119457088, 290.93183514829
6322, 63.175906704047, 193.42534963925, 294.4000801105
6323, 49.051276945389, 193.44889741705, 287.05004953498
6324, 57.871697009045, 193.37875357424, 282.88066625941
6325, 63.338029121246, 193.23606552837, 273.01310099108
6326, 60.571220151983, 193.47552259804, 296.4772634848
6327, 55.31864257941, 193.44778214625, 289.1174205204
6328, 52.633670519293, 193.45633865572, 288.86707060701
6329, 62.513671263809, 193.38538431809, 288.70776543722
6330, 61.34084181969, 193.24900429814, 271.43643008358
6331, 62.65528314938, 193.26509701121, 275.15024825596
6332, 50.761418105743, 193.41873281916, 283.96498721814
6333, 62.000372374095, 193.15211486857, 261.21646482793
6334, 53.917735610356, 193.36062269928, 278.42806127856
6335, 57.613157158047, 192.13481935716, 258.15697686346
6336, 26.194544941887, 195.59890540711, 301.14571298323
6337, 26.157246387227, 208.08224219858, 300.91995523193
6338, 22.257290070658, 194.343907205, 303.00159670587
6339, 24.177176012895, 201.85301855079, 302.00930813898
6340, 29.043443960539, 200.26353982814, 299.48904553071
6341, 29.651733382626, 204.98191028999, 299.03077465532
6342, 30.382187359403, 210.56020563863, 298.46664692063
6343, 29.988630531071, 193.29948158605, 299.06459577177
6344, 22.215685019303, 206.38647861809, 302.79106446827
6345, 21.947266448752, 198.49594524656, 303.05230039292
6346, 20.524132066652, 193.85490912638, 303.70565725025
6347, 20.154916992836, 196.25288779974, 303.8006103027
6348, 32.673699246459, 195.46085175609, 297.27308396584
6349, 26.566882658151, 204.40355659449, 300.77991635751
6350, 32.245291342056, 208.73108061149, 297.28623504746
6351, 21.068892015181, 202.77444167386, 303.32692667374
6352, 25.79176405197, 199.48926935964, 301.27400297933
6353, 29.140960104454, 196.71587128042, 299.50355817831
6354, 23.843189241316, 196.50305769338, 302.26592522201
6355, 30.786470881856, 202.67798300154, 298.37401794539
6356, 20.914894354371, 208.87403934394, 303.27314896074
6357, 31.587433122716, 197.79181520351, 297.95700763003
6358, 23.585833694724, 208.65036323573, 302.14994311659
6359, 28.747849156182, 207.92227508001, 299.50681005504
6360, 20.250248622264, 200.34529479083, 303.68846174886
6361, 23.993312945396, 194.27911569475, 302.23990021648
6362, 26.975636945777, 201.6867002975, 300.61770443554
6363, 24.221149868811, 204.46923164479, 301.93846035926
6364, 20.241867837896, 205.17649707094, 303.60148985754
6365, 19.071129513015, 193.37054586988, 304.24759793471
6366, 31.933336663523, 204.84755706086, 297.57912275895
6367, 19.289657833323, 195.06503119269, 304.13887982785
6368, 23.989256757034, 199.43840690998, 302.14264998721
6369, 28.958783879923, 202.80339309573, 299.48727315334
6370, 28.097961204239, 194.06766597244, 300.15590872485
6371, 22.292924932838, 200.69081396338, 302.86640613779
6372, 20.024974797933, 198.28349421533, 303.81129335679
6373, 27.539422976282, 209.98726553764, 300.14795688483
6374, 30.770256401248, 207.27364760946, 298.28924137673
6375, 24.852390231046, 206.54155433134, 301.59924209635
6376, 21.953957822018, 196.14191985991, 303.09399825811
6377, 31.189606350554, 195.41258478603, 298.26614109995
6378, 25.170369543219, 210.06211610362, 301.3764576278
6379, 27.398012428918, 206.37948838826, 300.29707785105
6380, 21.007353551343, 194.90297919726, 303.49883597611
6381, 27.31804521257, 197.357313561, 300.51965981986
6382, 32.56127482112, 193.29948158605, 297.39637012895
6383, 32.061710986973, 200.47706969707, 297.5847267694
6384, 22.356676340829, 210.30469420442, 302.6572165568
6385, 22.612621271754, 204.0436083102, 302.6667703819
6386, 25.417770991637, 197.34800830247, 301.50210866818
6387, 19.751639335472, 207.36068064524, 303.74344875281
6388, 19.638397162053, 210.38760690696, 303.72868142055
6389, 32.479581158464, 210.59371841082, 297.08612383388
6390, 19.299719899203, 202.77036252928, 303.99248370076
6391, 61.714040074578, 20.036858904422, 252.11164522008
6392, 66.658723520142, 20.034585920027, 251.98142603129
6393, 64.081925945714, 20.034767883955, 251.99185073775
6394, 63.483414034785, 41.262508143474, 255.333113829
6395, 61.628941526165, 41.208526786986, 255.7027548977
6396, 63.482573821016, 20.735006103335, 255.33094543118
6397, 61.630335587384, 20.788283809482, 255.69956976836
6398, 57.659912312715, 20.053537364878, 258.64414773976
6399, 58.946703508504, 20.659027020717, 257.11893071776
6400, 61.713986214905, 41.963104453849, 252.11374442334
6401, 66.658386231277, 41.965409614994, 251.98168182981
6402, 64.081966044391, 41.965209226763, 251.99316206383
6403, 57.659912312482, 41.946462634736, 258.64414774068
6404, 58.946703532077, 41.340972975965, 257.11893069301
6405, 57.186441873407, 168.09809082425, 258.18469931143
6406, 57.440293175249, 171.08132609579, 257.9770660779
6407, 57.440293175249, 189.54022551276, 257.9770660779
6408, 57.440293175249, 184.38239020058, 257.9770660779
6409, 57.440293175249, 181.66798060304, 257.9770660779
6410, 57.440293175249, 187.09679979813, 257.9770660779
6411, 57.440293175249, 178.9535710055, 257.9770660779
6412, 57.440293175249, 173.52475181042, 257.9770660779
6413, 57.440293175249, 176.23916140796, 257.9770660779
6414, 56.988924181226, 192.59236119262, 261.18333022564
6415, 56.517444897187, 192.66057734835, 263.55417731407
6416, 58.043493414288, 19.418049278198, 251.50858196073
6417, 57.885797473583, 19.391091595713, 253.67347954352
6418, 57.773820951971, 19.462896265392, 255.52504870353
6419, 59.841778018582, 23.701050503016, 257.00292237922
6420, 59.688170348025, 29.49169083726, 257.09956843564
6421, 59.768784351796, 35.465381246911, 257.04824183747
6422, 63.994642928078, 35.664507149274, 255.82211876766
6423, 57.868664921328, 26.622545318462, 258.71329043778
6424, 57.895534306056, 32.490151665188, 258.68108360712
6425, 61.983205457886, 26.347438777458, 256.08700622251
6426, 62.153439715573, 32.64469841863, 256.04406257817
6427, 57.734683875006, 37.190622366735, 258.87919529653
6428, 62.552708489323, 38.442302078214, 255.95870579838
6429, 62.673651280161, 23.557697921699, 255.93702111746
6430, 57.392093646883, 29.562182519768, 259.34941616881
6431, 57.555186226752, 24.003752176222, 259.11658460167
6432, 62.620011875178, 29.511539584305, 255.94640193652
6433, 56.864781363911, 39.490547139092, 260.25397077315
6434, 56.981043450448, 34.498994329365, 260.02961128575
6435, 59.503654487986, 37.816533783522, 257.22225550961
6436, 59.648509502758, 26.041816443414, 257.12532084941
6437, 56.865753959272, 21.983944287627, 260.25201969615
6438, 59.652163001485, 32.170701887654, 257.12293461662
6439, 61.766285707977, 36.252293127291, 256.14754426404
6440, 56.847797392772, 31.456336755955, 260.28825829894
6441, 56.844149733692, 27.688806450847, 260.29567641368
6442, 56.834405869053, 25.83422978856, 260.31558772211
6443, 58.18195653606, 34.432219236519, 258.35773659386
6444, 56.63625936082, 36.68050679526, 260.75505745887
6445, 58.04357436928, 42.581865161619, 251.50862670843
6446, 57.886135129037, 42.608527252197, 253.67348825501
6447, 57.773871911475, 42.537055713108, 255.52499621702
6448, 2.7755575615629e-14, 196.71915904428, 294.7094351467
6449, 2.7755575615629e-14, 182.92411609911, 295.31330536066
6450, 2.7755575615629e-14, 168.52202326705, 295.74127714093
6451, 2.7755575615629e-14, 153.50087414762, 296.30577063182
6452, 2.7755575615629e-14, 138.58927754378, 296.46210920781
6453, 2.7755575615629e-14, 123.72542901269, 296.73874108986
6454, 2.7755575615629e-14, 108.86363636364, 296.87125007761
6455, 2.7755575615629e-14, 94.015151515152, 297.12429669587
6456, 2.7755575615629e-14, 202.48065693652, 283.90076308385
6457, 2.7755575615629e-14, 79.167103530583, 297.02747585887
6458, 2.7755575615629e-14, 64.529643033491, 297.45494862804
6459, 2.7755575615629e-14, 51.848963726366, 297.45748336029
6460, 2.7755575615629e-14, 39.744874840877, 297.51901094147
6461, 2.7755575615629e-14, 28.269978547578, 298.22850242943
6462, 2.7755575615629e-14, 16.685092827934, 298.47527551358
6463, 2.7755575615629e-14, 203.04730054737, 273.35473131083
6464, 2.7755575615629e-14, 203.31440332631, 263.20461973314
6465, 2.7755575615629e-14, 204.34903513706, 300.25843315552
6466, 2.7755575615629e-14, 189.55258970872, 289.75249366149
6467, 2.7755575615629e-14, 7.3225976622433, 300.30839751408
6468, 2.7755575615629e-14, 190.46290700248, 300.6681743898
6469, 2.7755575615629e-14, 205.24080649979, 291.96342196693
6470, 2.7755575615629e-14, 161.02641790799, 300.94932402727
6471, 2.7755575615629e-14, 160.89360827881, 290.95235752685
6472, 2.7755575615629e-14, 175.72089769833, 290.1109111009
6473, 2.7755575615629e-14, 175.77278429592, 301.07990944413
6474, 2.7755575615629e-14, 145.89987347563, 291.30199749014
6475, 2.7755575615629e-14, 146.06892358012, 301.1145296919
6476, 2.7755575615629e-14, 131.21731134526, 301.20436654519
6477, 2.7755575615629e-14, 131.11863248432, 291.92857955812
6478, 2.7755575615629e-14, 116.36568765712, 301.29243853123
6479, 2.7755575615629e-14, 116.24441776032, 292.58439935194
6480, 2.7755575615629e-14, 101.5140526058, 301.37865816015
6481, 2.7755575615629e-14, 101.48919321331, 292.88348222089
6482, 2.7755575615629e-14, 86.66240636643, 301.46293294646
6483, 2.7755575615629e-14, 86.494007370726, 293.17726287202
6484, 2.7755575615629e-14, 71.793092880465, 301.58883802024
6485, 2.7755575615629e-14, 71.822557554615, 293.24391753853
6486, 2.7755575615629e-14, 195.428353248, 285.63018134581
6487, 2.7755575615629e-14, 197.59907860586, 302.64087888825
6488, 2.7755575615629e-14, 58.287630736058, 302.4244916232
6489, 2.7755575615629e-14, 58.195861474304, 293.20944832327
6490, 2.7755575615629e-14, 46.178393216797, 302.53138180447
6491, 2.7755575615629e-14, 46.10234838343, 293.4540547764
6492, 2.7755575615629e-14, 34.269379722484, 302.65277255009
6493, 2.7755575615629e-14, 34.739748366511, 293.84375605183
6494, 2.7755575615629e-14, 182.33162929142, 288.25181540955
6495, 2.7755575615629e-14, 198.74604357187, 278.75183002953
6496, 2.7755575615629e-14, 183.26266014462, 303.10503843391
6497, 2.7755575615629e-14, 23.325572037244, 302.48727747998
6498, 2.7755575615629e-14, 22.395875310084, 293.91935220736
6499, 2.7755575615629e-14, 168.11084252174, 303.32293690232
6500, 2.7755575615629e-14, 207.01968435402, 278.87686202253
6501, 2.7755575615629e-14, 199.91718502194, 256.95985323266
6502, 2.7755575615629e-14, 206.97379035323, 256.74973483992
6503, 2.7755575615629e-14, 168.84157494316, 288.55660793183
6504, 2.7755575615629e-14, 153.83073702738, 288.73042622412
6505, 2.7755575615629e-14, 153.40909090909, 303.13258377348
6506, 2.7755575615629e-14, 11.173655405172, 294.17815220963
6507, 2.7755575615629e-14, 138.777385193, 289.10544224375
6508, 2.7755575615629e-14, 138.50742930711, 303.30123749757
6509, 2.7755575615629e-14, 199.53831987763, 268.29331204878
6510, 2.7755575615629e-14, 207.30258800524, 268.97246556638
6511, 2.7755575615629e-14, 123.71147427818, 303.9578638647
6512, 2.7755575615629e-14, 123.94741604972, 289.7197456804
6513, 2.7755575615629e-14, 3.965458344937, 293.90753387191
6514, 2.7755575615629e-14, 108.86363636364, 303.51959247805
6515, 2.7755575615629e-14, 109.00898982827, 290.19980114395
6516, 2.7755575615629e-14, 12.48928828054, 303.78305193651
6517, 2.7755575615629e-14, 94.010363808165, 304.17333516943
6518, 2.7755575615629e-14, 207.90120122719, 286.59927231892
6519, 2.7755575615629e-14, 93.977322483778, 289.97602224516
6520, 2.7755575615629e-14, 199.99482573987, 289.08372830285
6521, 2.7755575615629e-14, 79.190340446894, 304.26381695042
6522, 2.7755575615629e-14, 80.516683247937, 291.55950525302
6523, 2.7755575615629e-14, 65.891209755621, 292.0016997409
6524, 2.7755575615629e-14, 65.9110742817, 303.71414374601
6525, 2.7755575615629e-14, 191.48892673824, 295.12820696024
6526, 2.7755575615629e-14, 52.015414505671, 303.14696472806
6527, 2.7755575615629e-14, 52.075566353799, 292.82348857663
6528, 2.7755575615629e-14, 40.021408652318, 303.24114813966
6529, 2.7755575615629e-14, 40.195879566886, 292.75917676632
6530, 2.7755575615629e-14, 207.58191047918, 304.4673949118
6531, 2.7755575615629e-14, 28.214867398304, 303.371697763
6532, 2.7755575615629e-14, 28.145589495506, 292.4487930726
6533, 2.7755575615629e-14, 208.5550837039, 296.2580515241
6534, 2.7755575615629e-14, 3.3133875741537, 304.18784295531
6535, 2.7755575615629e-14, 0.5694167449757, 290.79127564554
6536, 2.7755575615629e-14, 16.865999746416, 292.66040236107
6537, 2.7755575615629e-14, 202.04706164657, 295.56725745624
6538, 2.7755575615629e-14, 177.1816070843, 295.65405256947
6539, 2.7755575615629e-14, 202.76012270368, 305.00630905705
6540, 2.7755575615629e-14, 198.23936234006, 273.52251485552
6541, 2.7755575615629e-14, 209.21511631073, 274.42331185226
6542, 2.7755575615629e-14, 198.1261427867, 263.50076905456
6543, 2.7755575615629e-14, 208.52190656036, 264.00694887087
6544, 2.7755575615629e-14, 190.69921693076, 284.94786011502
6545, 2.7755575615629e-14, 194.36997320762, 290.35362067085
6546, 2.7755575615629e-14, 193.28838791326, 304.72330458092
6547, 2.7755575615629e-14, 162.92352558586, 295.66385256367
6548, 2.7755575615629e-14, 194.50826866226, 298.51315867551
6549, 2.7755575615629e-14, 210.90354381397, 306.64639810288
6550, 2.7755575615629e-14, 148.19550099371, 296.37825485726
6551, 2.7755575615629e-14, 17.74562756503, 304.90248716031
6552, 2.7755575615629e-14, 133.3993248257, 296.6142862384
6553, 2.7755575615629e-14, 188.21595472354, 305.18332088416
6554, 2.7755575615629e-14, 118.60438809937, 296.84251646398
6555, 2.7755575615629e-14, 149.07759018918, 287.26003204445
6556, 2.7755575615629e-14, 163.90864518411, 286.73560376749
6557, 2.7755575615629e-14, 178.74433223614, 304.91032836598
6558, 2.7755575615629e-14, 158.08679471423, 304.97682122419
6559, 2.7755575615629e-14, 75.588200958868, 289.69954930157
6560, 2.7755575615629e-14, 103.81782437552, 297.03185503393
6561, 2.7755575615629e-14, 134.20006900795, 287.65797629511
6562, 2.7755575615629e-14, 178.07797459144, 286.18827177869
6563, 2.7755575615629e-14, 187.13077441499, 293.99945811315
6564, 2.7755575615629e-14, 173.18404689016, 305.28026876153
6565, 2.7755575615629e-14, 163.54202496206, 305.12414119087
6566, 2.7755575615629e-14, 84.15493416973, 297.12879578794
6567, 2.7755575615629e-14, 158.3573548195, 296.64967628092
6568, 2.7755575615629e-14, 143.14057450749, 305.0756078786
6569, 2.7755575615629e-14, 119.27905575566, 288.09573016687
6570, 2.7755575615629e-14, 2.0727031943174, 298.37894659393
6571, 2.7755575615629e-14, 98.936511394545, 297.18582497765
6572, 2.7755575615629e-14, 69.23640984736, 297.71659637943
6573, 2.7755575615629e-14, 148.67102219043, 305.19277192874
6574, 2.7755575615629e-14, 89.10443937622, 297.20176297624
6575, 2.7755575615629e-14, 128.28329061402, 305.36607548688
6576, 2.7755575615629e-14, 113.73764784803, 297.17631653869
6577, 2.7755575615629e-14, 133.9106970423, 305.21470256426
6578, 2.7755575615629e-14, 186.34263039795, 286.0137197618
6579, 2.7755575615629e-14, 8.009491231961, 305.35804131279
6580, 2.7755575615629e-14, 104.24634404647, 288.50199454173
6581, 2.7755575615629e-14, 113.41803333802, 305.38864995906
6582, 2.7755575615629e-14, 59.253881331597, 298.0635413068
6583, 2.7755575615629e-14, 128.53719367383, 297.15607659673
6584, 2.7755575615629e-14, 119.07899707532, 305.26203437807
6585, 2.7755575615629e-14, 143.42100183906, 296.80450849528
6586, 2.7755575615629e-14, 173.00636896606, 286.36664384148
6587, 2.7755575615629e-14, 158.6077874799, 286.4989624112
6588, 2.7755575615629e-14, 98.676306009483, 305.43418259495
6589, 2.7755575615629e-14, 195.2385871744, 281.63062952962
6590, 2.7755575615629e-14, 74.351885826222, 297.45477693349
6591, 2.7755575615629e-14, 186.39448221082, 298.85020630473
6592, 2.7755575615629e-14, 104.24733101371, 305.3081067171
6593, 2.7755575615629e-14, 83.6850248617, 305.71004634881
6594, 2.7755575615629e-14, 143.48514380602, 287.0928417101
6595, 2.7755575615629e-14, 128.66210120276, 287.57385918382
6596, 2.7755575615629e-14, 89.399929335274, 305.57871707392
6597, 2.7755575615629e-14, 46.706888629989, 297.99966393181
6598, 2.7755575615629e-14, 209.48085939657, 290.80472494222
6599, 2.7755575615629e-14, 89.540875899211, 288.87951904607
6600, 2.7755575615629e-14, 113.49238942794, 287.99175158478
6601, 2.7755575615629e-14, 98.510490906716, 288.7764425378
6602, 2.7755575615629e-14, 11.526711768953, 298.92015225982
6603, 2.7755575615629e-14, 74.721605578253, 305.36951110126
6604, 2.7755575615629e-14, 180.23216951007, 299.60935265786
6605, 2.7755575615629e-14, 202.83808133436, 279.88407073054
6606, 2.7755575615629e-14, 150.810946913, 291.95820720094
6607, 2.7755575615629e-14, 34.771370928592, 298.1956480694
6608, 2.7755575615629e-14, 171.49294829368, 299.50208464098
6609, 2.7755575615629e-14, 209.84060098377, 300.57706632474
6610, 2.7755575615629e-14, 172.84023650635, 294.01484530294
6611, 2.7755575615629e-14, 203.92924481577, 287.84912053012
6612, 2.7755575615629e-14, 61.404574067225, 289.88262360997
6613, 2.7755575615629e-14, 61.556785089823, 305.55438370681
6614, 2.7755575615629e-14, 21.287845660825, 298.3876057723
6615, 2.7755575615629e-14, 165.47882220446, 291.79462654237
6616, 2.7755575615629e-14, 179.89948976053, 292.05695588409
6617, 2.7755575615629e-14, 135.90752004878, 292.29104456423
6618, 2.7755575615629e-14, 203.11631067747, 254.35212600707
6619, 2.7755575615629e-14, 199.16286235974, 298.52898251106
6620, 2.7755575615629e-14, 84.47801592992, 288.971531289
6621, 2.7755575615629e-14, 209.86792044353, 282.59912798638
6622, 2.7755575615629e-14, 69.737895479295, 305.91592624985
6623, 2.7755575615629e-14, 156.74988953417, 292.6567177903
6624, 2.7755575615629e-14, 141.74131916349, 292.94756422483
6625, 2.7755575615629e-14, 70.250296157551, 289.15607593965
6626, 2.7755575615629e-14, 120.68736687932, 292.79666249279
6627, 2.7755575615629e-14, 150.41098416363, 300.12412831573
6628, 2.7755575615629e-14, 165.32288534279, 299.94389155519
6629, 2.7755575615629e-14, 8.051482148525, 291.4859053683
6630, 2.7755575615629e-14, 126.89313290761, 293.09700755036
6631, 2.7755575615629e-14, 135.54044274129, 300.3591911599
6632, 2.7755575615629e-14, 105.84003137621, 293.08605445864
6633, 2.7755575615629e-14, 198.67170838149, 283.38238349463
6634, 2.7755575615629e-14, 111.91939847243, 293.13500772695
6635, 2.7755575615629e-14, 120.66925076498, 300.59260711605
6636, 2.7755575615629e-14, 203.49924313692, 269.46172683337
6637, 2.7755575615629e-14, 76.532352228528, 293.6304564824
6638, 2.7755575615629e-14, 82.45209854114, 301.12029046296
6639, 2.7755575615629e-14, 62.316164177934, 301.34465648051
6640, 2.7755575615629e-14, 105.68505062842, 300.74570612318
6641, 2.7755575615629e-14, 90.818650603739, 293.33895786514
6642, 2.7755575615629e-14, 196.98492043786, 254.02793438799
6643, 2.7755575615629e-14, 210.01450655254, 254.02752866
6644, 2.7755575615629e-14, 97.215727649827, 293.33842583957
6645, 2.7755575615629e-14, 97.326215365642, 301.06444071669
6646, 2.7755575615629e-14, 156.56527826456, 300.43540886422
6647, 2.7755575615629e-14, 198.85684582762, 306.19535179931
6648, 2.7755575615629e-14, 203.49995956949, 258.9148141616
6649, 2.7755575615629e-14, 56.02284213269, 305.92378616229
6650, 2.7755575615629e-14, 61.951943846673, 294.17267065337
6651, 2.7755575615629e-14, 48.628606642654, 305.89151718495
6652, 2.7755575615629e-14, 90.799839278412, 301.00371643202
6653, 2.7755575615629e-14, 111.97297325268, 300.961931556
6654, 2.7755575615629e-14, 48.171952090516, 289.88412498832
6655, 2.7755575615629e-14, 56.120250925107, 289.78983229948
6656, 2.7755575615629e-14, 126.94621927955, 301.01488164817
6657, 2.7755575615629e-14, 44.037481890852, 305.95105124936
6658, 2.7755575615629e-14, 76.148226278249, 301.19326707621
6659, 2.7755575615629e-14, 141.62334896869, 300.62997702689
6660, 2.7755575615629e-14, 36.691587266383, 305.95044528551
6661, 2.7755575615629e-14, 36.419493877585, 290.22396657329
6662, 2.7755575615629e-14, 43.846240362121, 289.97823841174
6663, 2.7755575615629e-14, 32.163720457632, 306.0202634409
6664, 2.7755575615629e-14, 206.03614108208, 282.84688288744
6665, 2.7755575615629e-14, 7.8517989333928, 295.72111757597
6666, 2.7755575615629e-14, 31.96457811623, 290.34215304682
6667, 2.7755575615629e-14, 185.55261673953, 290.1812204417
6668, 2.7755575615629e-14, 24.978893035392, 306.12457075578
6669, 2.7755575615629e-14, 201.62152935085, 301.46492672028
6670, 2.7755575615629e-14, 210.17677627076, 259.23813601341
6671, 2.7755575615629e-14, 196.8212344069, 259.23096751836
6672, 2.7755575615629e-14, 200.78889748667, 292.54263780811
6673, 2.7755575615629e-14, 25.168900117102, 290.66007409295
6674, 2.7755575615629e-14, 55.912462623186, 299.22499623645
6675, 2.7755575615629e-14, -0.82933178981528, 289.23463749503
6676, 2.7755575615629e-14, 54.310160070377, 294.69381500193
6677, 2.7755575615629e-14, 13.307644015742, 290.77352361367
6678, 2.7755575615629e-14, 49.750081846421, 301.12790844665
6679, 2.7755575615629e-14, 49.990783757495, 295.06027887243
6680, 2.7755575615629e-14, 44.29842357884, 299.62020674838
6681, 2.7755575615629e-14, 210.31268559818, 277.09161226725
6682, 2.7755575615629e-14, 20.043337374293, 290.99608255279
6683, 2.7755575615629e-14, 183.31310711272, 285.35010166006
6684, 2.7755575615629e-14, 210.72856192373, 270.53919284229
6685, 2.7755575615629e-14, 42.52888119433, 295.01750504325
6686, 2.7755575615629e-14, 37.78478777523, 301.27473990717
6687, 2.7755575615629e-14, 37.835954798564, 295.12637413922
6688, 2.7755575615629e-14, 32.414533051813, 299.78676279878
6689, 2.7755575615629e-14, 30.330988196987, 294.98835970663
6690, 2.7755575615629e-14, 200.87331120214, 276.82756743937
6691, 2.7755575615629e-14, 195.40829266304, 277.76508562724
6692, 2.7755575615629e-14, 26.010417756215, 301.53030608357
6693, 2.7755575615629e-14, 196.68936800972, 265.7144842374
6694, 2.7755575615629e-14, 210.3619693403, 266.04221141752
6695, 2.7755575615629e-14, 24.757302452412, 296.87644515394
6696, 2.7755575615629e-14, 183.10606060606, 306.54853755181
6697, 2.7755575615629e-14, 20.656485522924, 305.87248270879
6698, 2.7755575615629e-14, 196.41291738901, 270.27873287271
6699, 2.7755575615629e-14, 171.60138559251, 290.7659826747
6700, 2.7755575615629e-14, 192.16127055044, 287.83490980883
6701, 2.7755575615629e-14, 18.399419192001, 301.46537506523
6702, 2.7755575615629e-14, 168.77788780443, 284.66416381719
6703, 2.7755575615629e-14, 168.25757575758, 306.64990605553
6704, 2.7755575615629e-14, 205.37402122036, 306.7359623306
6705, 2.7755575615629e-14, 67.658545471153, 300.65507668069
6706, 2.7755575615629e-14, 19.251846838291, 295.61404582328
6707, 2.7755575615629e-14, 81.616076847471, 294.68419253969
6708, 2.7755575615629e-14, 205.75371329189, 297.50543831527
6709, 2.7755575615629e-14, 14.568997252446, 295.51267932216
6710, 2.7755575615629e-14, 14.493548642818, 306.47161721103
6711, 2.7755575615629e-14, 206.38139797095, 271.49316622241
6712, 2.7755575615629e-14, 205.41515098149, 277.22362007123
6713, 2.7755575615629e-14, 153.83662796489, 285.43812097133
6714, 2.7755575615629e-14, 153.44305594397, 306.84651829007
6715, 2.7755575615629e-14, 211.54885619531, 302.91692098713
6716, 2.7755575615629e-14, 194.60752771899, 301.8363952636
6717, 2.7755575615629e-14, 195.96790625237, 306.62827777071
6718, 2.7755575615629e-14, 202.33062025179, 266.01689680596
6719, 2.7755575615629e-14, 210.6158665394, 293.64749387217
6720, 2.7755575615629e-14, 138.58034708345, 306.90796294252
6721, 2.7755575615629e-14, 197.04686176952, 290.75467584534
6722, 2.7755575615629e-14, 206.18270822549, 265.12060159183
6723, 2.7755575615629e-14, 138.85399665502, 285.877455912
6724, 2.7755575615629e-14, 189.3461015642, 297.712654893
6725, 2.7755575615629e-14, 192.59371252528, 282.53463002135
6726, 2.7755575615629e-14, 168.88656051469, 292.30366400069
6727, 2.7755575615629e-14, 206.55194892876, 260.36194456249
6728, 2.7755575615629e-14, 67.001875761781, 295.50041979011
6729, 2.7755575615629e-14, 200.3864497524, 260.36033199177
6730, 2.7755575615629e-14, 15.561029222384, 301.80490797505
6731, 2.7755575615629e-14, 78.935927110695, 288.301722609
6732, 2.7755575615629e-14, 1.0604515311316, 301.52498733354
6733, 2.7755575615629e-14, 174.11454132105, 297.15644050041
6734, 2.7755575615629e-14, 194.05235250279, 293.88624840742
6735, 2.7755575615629e-14, 123.71212121212, 306.86229441627
6736, 2.7755575615629e-14, 123.87174096552, 286.3275472127
6737, 2.7755575615629e-14, 175.88829337959, 306.54633351108
6738, 2.7755575615629e-14, 198.30376364203, 286.41590086883
6739, 2.7755575615629e-14, 0.88965453988156, 306.60373191319
6740, 2.7755575615629e-14, 1.0787347638051, 295.32673237458
6741, 2.7755575615629e-14, 200.93446632231, 271.32187262474
6742, 2.7755575615629e-14, 200.19816551152, 253.02691764897
6743, 2.7755575615629e-14, 153.69508026736, 299.62102179756
6744, 2.7755575615629e-14, 206.66128548079, 253.45243385116
6745, 2.7755575615629e-14, 183.31016943194, 292.28611729362
6746, 2.7755575615629e-14, 108.86363636364, 306.92990707044
6747, 2.7755575615629e-14, 11.073548944572, 306.8428447412
6748, 2.7755575615629e-14, 107.40109251393, 287.17614750206
6749, 2.7755575615629e-14, 4.7249745332879, 290.85467215831
6750, 2.7755575615629e-14, 138.81257411222, 299.74844607204
6751, 2.7755575615629e-14, 187.41655371545, 301.93440369978
6752, 2.7755575615629e-14, 9.3607387181353, 302.43552584228
6753, 2.7755575615629e-14, 95.543672986339, 306.64013106752
6754, 2.7755575615629e-14, 123.89500130395, 299.97732805928
6755, 2.7755575615629e-14, 146.27998156895, 285.76765722833
6756, 2.7755575615629e-14, 188.04462022998, 283.90759433066
6757, 2.7755575615629e-14, 191.57857356227, 292.1350549438
6758, 2.7755575615629e-14, 93.907255113845, 287.22846082099
6759, 2.7755575615629e-14, 64.750587532632, 306.83805348473
6760, 2.7755575615629e-14, 210.83911878917, 285.73586871684
6761, 2.7755575615629e-14, 205.20061096135, 303.29859587123
6762, 2.7755575615629e-14, 108.86786459563, 300.70820028027
6763, 2.7755575615629e-14, 5.1759969719016, 307.00528064107
6764, 2.7755575615629e-14, 202.30646717373, 290.8146389708
6765, 2.7755575615629e-14, 80.625762068158, 306.32029425829
6766, 2.7755575615629e-14, 64.424714591657, 288.57709925298
6767, 2.7755575615629e-14, 131.31851951542, 286.25934891079
6768, 2.7755575615629e-14, 145.99722894172, 306.66857814189
6769, 2.7755575615629e-14, 160.8812381475, 306.64603547991
6770, 2.7755575615629e-14, 160.2795310202, 294.21196535957
6771, 2.7755575615629e-14, 116.33106664273, 286.76281290552
6772, 2.7755575615629e-14, 131.14899560037, 306.69137493251
6773, 2.7755575615629e-14, 72.855138937035, 287.88133310634
6774, 2.7755575615629e-14, 101.37912798076, 287.27568442121
6775, 2.7755575615629e-14, 206.64481421892, 289.26593830225
6776, 2.7755575615629e-14, 116.29735193404, 306.70312585308
6777, 2.7755575615629e-14, 208.65155085375, 307.2648235396
6778, 2.7755575615629e-14, 101.4731568406, 306.72111192702
6779, 2.7755575615629e-14, 86.508796413625, 306.77210489765
6780, 2.7755575615629e-14, 94.027800865924, 300.90180360816
6781, 2.7755575615629e-14, 145.27335421563, 294.50290050445
6782, 2.7755575615629e-14, 195.75673074673, 275.0252107985
6783, 2.7755575615629e-14, 94.016222042823, 293.34511243382
6784, 2.7755575615629e-14, 212.32918338995, 308.00711457651
6785, 2.7755575615629e-14, 179.69393848583, 288.97159261931
6786, 2.7755575615629e-14, 201.71155393404, 299.10019481327
6787, 2.7755575615629e-14, 161.20136348795, 285.24353344256
6788, 2.7755575615629e-14, 77.555002900952, 306.71659372533
6789, 2.7755575615629e-14, 201.24321475952, 286.79286753535
6790, 2.7755575615629e-14, 4.2174730461025, 300.95866061994
6791, 2.7755575615629e-14, 211.28257654378, 297.96517605076
6792, 2.7755575615629e-14, 108.7927928522, 293.52042347859
6793, 2.7755575615629e-14, 200.63448203542, 281.44158355395
6794, 2.7755575615629e-14, 92.509078394034, 306.31012707152
6795, 2.7755575615629e-14, 79.223052376789, 301.00540117338
6796, 2.7755575615629e-14, 52.519924244198, 307.85333333858
6797, 2.7755575615629e-14, 83.714625540483, 291.91304379943
6798, 2.7755575615629e-14, 190.7756229024, 306.45606942895
6799, 2.7755575615629e-14, 207.27867951875, 299.12492967048
6800, 2.7755575615629e-14, 55.225421373437, 302.50314117181
6801, 2.7755575615629e-14, 175.08650264241, 284.27280584917
6802, 2.7755575615629e-14, 207.75060916984, 293.54871934231
6803, 2.7755575615629e-14, 123.73228125731, 293.05285404502
6804, 2.7755575615629e-14, 110.40452487823, 287.40309527791
6805, 2.7755575615629e-14, 68.779969622232, 292.82161679498
6806, 2.7755575615629e-14, 51.944375243502, 287.76158043069
6807, 2.7755575615629e-14, 153.66576228667, 293.05296659856
6808, 2.7755575615629e-14, 40.604732173592, 307.87536533081
6809, 2.7755575615629e-14, 58.137432760953, 288.02849260093
6810, 2.7755575615629e-14, 138.77929194311, 293.42768763614
6811, 2.7755575615629e-14, 43.342665941521, 303.25420618213
6812, 2.7755575615629e-14, 130.64199879228, 294.8373195653
6813, 2.7755575615629e-14, 58.595930711625, 307.359944498
6814, 2.7755575615629e-14, 168.49455257486, 298.89170687211
6815, 2.7755575615629e-14, 39.954955936258, 288.13347318282
6816, 2.7755575615629e-14, 28.642829319335, 308.00028930401
6817, 2.7755575615629e-14, 82.349985465094, 287.1346374149
6818, 2.7755575615629e-14, 186.08133291158, 307.3088814448
6819, 2.7755575615629e-14, 196.1884298877, 288.25466175683
6820, 2.7755575615629e-14, 31.479147719161, 303.37179154015
6821, 2.7755575615629e-14, 183.13917453074, 298.54463775853
6822, 2.7755575615629e-14, 192.06339683743, 297.96487971134
6823, 2.7755575615629e-14, 27.557550908313, 295.83640908412
6824, 2.7755575615629e-14, 10.340384345665, 289.79800769243
6825, 2.7755575615629e-14, 165.78689036781, 284.41491992748
6826, 2.7755575615629e-14, 27.915761011856, 289.15291598049
6827, 2.7755575615629e-14, 158.30097020342, 289.7306907437
6828, 2.7755575615629e-14, 205.12758919876, 285.07443634996
6829, 2.7755575615629e-14, 211.75608955738, 280.02719911937
6830, 2.7755575615629e-14, 15.72878466082, 289.30461336655
6831, 2.7755575615629e-14, 199.33019566166, 296.05208388303
6832, 2.7755575615629e-14, 116.16214316401, 295.66067916251
6833, 2.7755575615629e-14, 180.68892253718, 283.79996583983
6834, 2.7755575615629e-14, 150.8458017873, 284.85422618077
6835, 2.7755575615629e-14, 190.40641319324, 303.53380334441
6836, 2.7755575615629e-14, 64.711823333791, 300.60590737367
6837, 2.7755575615629e-14, 180.70643467195, 302.40715421648
6838, 2.7755575615629e-14, 156.31960944082, 307.37987289557
6839, 2.7755575615629e-14, 173.0413847445, 302.28937553809
6840, 2.7755575615629e-14, 86.833541315659, 287.60427070679
6841, 2.7755575615629e-14, 5.5150083200053, 297.12722639756
6842, 2.7755575615629e-14, 143.21253750785, 290.1220674116
6843, 2.7755575615629e-14, 135.87905128878, 285.32859883577
6844, 2.7755575615629e-14, 179.99739376066, 296.55122677241
6845, 2.7755575615629e-14, 189.07713382672, 286.93394979993
6846, 2.7755575615629e-14, 177.05799621884, 298.71188933279
6847, 2.7755575615629e-14, 211.68201498652, 256.89908257988
6848, 2.7755575615629e-14, 195.31730831202, 256.8950015004
6849, 2.7755575615629e-14, 202.71503893263, 293.34076540861
6850, 2.7755575615629e-14, 161.25087616499, 297.73232133267
6851, 2.7755575615629e-14, 195.12173934896, 296.10707723868
6852, 2.7755575615629e-14, 199.51125885281, 266.16012556603
6853, 2.7755575615629e-14, 52.710007059572, 299.88826937367
6854, 2.7755575615629e-14, 120.92705042956, 285.8145050855
6855, 2.7755575615629e-14, 72.568170744683, 307.24417967742
6856, 2.7755575615629e-14, 207.42467804977, 301.84868848739
6857, 2.7755575615629e-14, 176.90489769417, 292.66905505776
6858, 2.7755575615629e-14, 141.40863169406, 307.42191410535
6859, 2.7755575615629e-14, 171.14607253528, 307.40236221335
6860, 2.7755575615629e-14, 202.53079837588, 307.53545839833
6861, 2.7755575615629e-14, 6.4950554253821, 302.88863177395
6862, 2.7755575615629e-14, 211.54556801586, 288.80347960423
6863, 2.7755575615629e-14, 175.449577447, 287.34993695205
6864, 2.7755575615629e-14, 161.20860743046, 288.0410882349
6865, 2.7755575615629e-14, 165.59427670986, 294.81300542542
6866, 2.7755575615629e-14, 211.87928119841, 274.88863398011
6867, 2.7755575615629e-14, 185.39736932919, 296.17475049764
6868, 2.7755575615629e-14, 165.51619864205, 302.76825251515
6869, 2.7755575615629e-14, 67.775920430345, 307.67681843987
6870, 2.7755575615629e-14, 101.39467151168, 295.81279716969
6871, 2.7755575615629e-14, 126.5813933363, 307.48844435058
6872, 2.7755575615629e-14, 165.46816025839, 307.41767343606
6873, 2.7755575615629e-14, 160.76113369512, 303.81037237869
6874, 2.7755575615629e-14, 145.8294100781, 298.02207091779
6875, 2.7755575615629e-14, 25.118596286923, 293.48933643208
6876, 2.7755575615629e-14, 150.61421735837, 307.43233413427
6877, 2.7755575615629e-14, 111.72489671745, 307.50522891064
6878, 2.7755575615629e-14, 56.789557016249, 295.68204869842
6879, 2.7755575615629e-14, 198.30818607071, 275.98353136902
6880, 2.7755575615629e-14, 165.75134232819, 289.04122922712
6881, 2.7755575615629e-14, 150.84712544923, 294.84057995303
6882, 2.7755575615629e-14, 40.770984138921, 300.15224472762
6883, 2.7755575615629e-14, 131.06208141991, 298.25273273298
6884, 2.7755575615629e-14, 135.73307500068, 307.46391905727
6885, 2.7755575615629e-14, 195.64346256034, 262.64394733968
6886, 2.7755575615629e-14, 211.31903050682, 262.75615765441
6887, 2.7755575615629e-14, 67.653824330645, 287.51404368785
6888, 2.7755575615629e-14, 116.24952764068, 298.44862537848
6889, 2.7755575615629e-14, 71.766979836322, 298.68403912879
6890, 2.7755575615629e-14, 171.21082042896, 296.65277601805
6891, 2.7755575615629e-14, 180.22809452144, 307.34121486669
6892, 2.7755575615629e-14, 101.4654491922, 298.5198496713
6893, 2.7755575615629e-14, 120.85562995251, 307.49560076095
6894, 2.7755575615629e-14, 86.614226276374, 298.60498434937
6895, 2.7755575615629e-14, 128.4741472557, 290.47328192772
6896, 2.7755575615629e-14, 148.25504305433, 293.19021051367
6897, 2.7755575615629e-14, 150.65103082223, 302.85634186204
6898, 2.7755575615629e-14, 156.56800501344, 284.59868496263
6899, 2.7755575615629e-14, 105.98851875827, 307.53876963565
6900, 2.7755575615629e-14, 44.947680667187, 296.00282016829
6901, 2.7755575615629e-14, 136.03648241581, 295.05296374121
6902, 2.7755575615629e-14, 148.51264270932, 290.27168170958
6903, 2.7755575615629e-14, 151.18218423365, 289.36149919161
6904, 2.7755575615629e-14, 189.98557129711, 282.56411768428
6905, 2.7755575615629e-14, 28.962630274048, 300.57372388764
6906, 2.7755575615629e-14, 32.970242887919, 296.19689595877
6907, 2.7755575615629e-14, 45.950764931311, 288.26776179595
6908, 2.7755575615629e-14, 207.91840876576, 276.87887138558
6909, 2.7755575615629e-14, 34.030708624681, 288.64558607095
6910, 2.7755575615629e-14, 91.052194150905, 286.66940457323
6911, 2.7755575615629e-14, 23.781049159389, 299.84664566213
6912, 2.7755575615629e-14, 46.514579618598, 307.55532900518
6913, 2.7755575615629e-14, 145.8111981983, 303.90882275832
6914, 2.7755575615629e-14, 86.546066323795, 295.87659210536
6915, 2.7755575615629e-14, 111.29151231133, 298.45550468097
6916, 2.7755575615629e-14, 17.078353547126, 307.47475566875
6917, 2.7755575615629e-14, 96.756797548425, 286.56574963411
6918, 2.7755575615629e-14, 175.99723031093, 303.62697349318
6919, 2.7755575615629e-14, 121.13112709128, 295.43011783578
6920, 2.7755575615629e-14, 197.81366538296, 281.1887666824
6921, 2.7755575615629e-14, 126.64382541981, 285.59350055372
6922, 2.7755575615629e-14, 163.00478486836, 292.93548313591
6923, 2.7755575615629e-14, 141.54286331882, 285.08460501978
6924, 2.7755575615629e-14, 206.00174860319, 274.06055962482
6925, 2.7755575615629e-14, 131.01140893769, 303.98131925516
6926, 2.7755575615629e-14, 131.4670630943, 289.04654352903
6927, 2.7755575615629e-14, 145.99276322049, 288.60104019687
6928, 2.7755575615629e-14, 196.99072039923, 300.01329999707
6929, 2.7755575615629e-14, 193.49141678801, 307.48383727473
6930, 2.7755575615629e-14, 205.05221780282, 295.08109041938
6931, 2.7755575615629e-14, 195.64118000327, 304.17412154089
6932, 2.7755575615629e-14, 34.624848179243, 307.59105559289
6933, 2.7755575615629e-14, 106.34017091488, 295.70893131692
6934, 2.7755575615629e-14, 135.80537549728, 302.97475200052
6935, 2.7755575615629e-14, 96.542005622912, 298.5208307857
6936, 2.7755575615629e-14, 200.61636145829, 263.04300835749
6937, 2.7755575615629e-14, 136.22164969744, 289.75315045173
6938, 2.7755575615629e-14, 200.82537590044, 274.00897946395
6939, 2.7755575615629e-14, 185.54657294478, 304.31979430417
6940, 2.7755575615629e-14, 200.25096839671, 303.80545552313
6941, 2.7755575615629e-14, 126.28208565575, 298.3204255712
6942, 2.7755575615629e-14, 86.932317690606, 290.23195322599
6943, 2.7755575615629e-14, 116.15594073596, 304.01893560078
6944, 2.7755575615629e-14, 72.85977069347, 290.65080006688
6945, 2.7755575615629e-14, 116.46157827607, 289.53577783767
6946, 2.7755575615629e-14, 81.67087282959, 298.49232116416
6947, 2.7755575615629e-14, 156.03420579722, 295.23865445619
6948, 2.7755575615629e-14, 91.508886967696, 298.48294728005
6949, 2.7755575615629e-14, 113.88276630639, 291.33709985753
6950, 2.7755575615629e-14, 133.47731172367, 293.55009136953
6951, 2.7755575615629e-14, 9.1212708808277, 297.9681630287
6952, 2.7755575615629e-14, 71.796085721906, 296.14637288863
6953, 2.7755575615629e-14, 193.17845290485, 285.08293103416
6954, 2.7755575615629e-14, 76.712332583897, 298.72268361163
6955, 2.7755575615629e-14, 101.4335784999, 304.06272856978
6956, 2.7755575615629e-14, 171.79649788634, 283.87393593494
6957, 2.7755575615629e-14, 121.052236481, 303.2190102953
6958, 2.7755575615629e-14, 101.44425856816, 290.0062579081
6959, 2.7755575615629e-14, 77.744016923015, 291.42712576393
6960, 2.7755575615629e-14, 121.44639044707, 290.40939431384
6961, 2.7755575615629e-14, 189.04643957653, 292.31980922979
6962, 2.7755575615629e-14, 211.82066649166, 268.23388523891
6963, 2.7755575615629e-14, 71.93230919652, 304.42378346413
6964, 2.7755575615629e-14, 141.13545585095, 295.57195168812
6965, 2.7755575615629e-14, 75.86912633185, 287.10295647401
6966, 2.7755575615629e-14, 86.541659097962, 304.18875935983
6967, 2.7755575615629e-14, 196.97215757936, 297.32067290868
6968, 2.7755575615629e-14, 74.328042797382, 294.81872856256
6969, 2.7755575615629e-14, 155.37052689112, 304.99461160125
6970, 2.7755575615629e-14, 20.730583193056, 303.4389836241
6971, 2.7755575615629e-14, 60.104275004156, 300.72714249349
6972, 2.7755575615629e-14, 205.05033567942, 267.42058002415
6973, 2.7755575615629e-14, 55.576379144006, 292.29547478442
6974, 2.7755575615629e-14, 156.10320957096, 297.9561088701
6975, 2.7755575615629e-14, 111.3303369126, 295.71675922522
6976, 2.7755575615629e-14, 185.49006149557, 283.54961933542
6977, 2.7755575615629e-14, 13.845646379168, 298.94403439159
6978, 2.7755575615629e-14, 106.2317138296, 303.32739463652
6979, 2.7755575615629e-14, 170.70208425246, 304.4658112862
6980, 2.7755575615629e-14, 106.37318154344, 290.44927653173
6981, 2.7755575615629e-14, 22.114868940843, 289.14842180167
6982, 2.7755575615629e-14, 0.099136069976106, 304.12764403804
6983, 2.7755575615629e-14, 195.44291836448, 272.5517129559
6984, 2.7755575615629e-14, 180.71703437452, 286.55931419356
6985, 2.7755575615629e-14, -0.38198682522767, 299.30031045272
6986, 2.7755575615629e-14, 62.022089670088, 296.49727897683
6987, 2.7755575615629e-14, 99.050005368228, 291.73514909389
6988, 2.7755575615629e-14, 96.464830885438, 295.76269066944
6989, 2.7755575615629e-14, 141.17626584537, 298.1641853242
6990, 2.7755575615629e-14, 211.92845879037, 291.37740491012
6991, 2.7755575615629e-14, 69.028596506107, 303.20479843006
6992, 2.7755575615629e-14, 106.48671716028, 298.37997803183
6993, 2.7755575615629e-14, 66.77521462212, 298.39563905735
6994, 2.7755575615629e-14, 203.76934576275, 282.0460900634
6995, 2.7755575615629e-14, 118.50018042056, 294.05321956019
6996, 2.7755575615629e-14, 189.12637149543, 294.9556948204
6997, 2.7755575615629e-14, 163.25866958593, 289.77947906007
6998, 2.7755575615629e-14, 84.505142050441, 294.55597742089
6999, 2.7755575615629e-14, 140.46736170881, 305.0968932351
7000, 2.7755575615629e-14, 59.790739615651, 295.06267555631
7001, 2.7755575615629e-14, 91.630797015829, 295.74712765501
7002, 2.7755575615629e-14, 43.601081742159, 292.62726986438
7003, 2.7755575615629e-14, 121.29044396219, 298.15239500174
7004, 2.7755575615629e-14, 202.36439192103, 256.63012617836
7005, 2.7755575615629e-14, 212.58571310726, 306.43078773311
7006, 2.7755575615629e-14, 126.20925769011, 295.55009773688
7007, 2.7755575615629e-14, 193.78283320194, 280.03243570434
7008, 2.7755575615629e-14, 196.32400467404, 283.44377379774
7009, 2.7755575615629e-14, 136.15854789228, 297.90823184043
7010, 2.7755575615629e-14, 133.73204100941, 290.70456429463
7011, 2.7755575615629e-14, 103.74677528793, 302.5305084785
7012, 2.7755575615629e-14, 126.31830730723, 303.44688959758
7013, 2.7755575615629e-14, 48.949060553676, 303.89408394157
7014, 2.7755575615629e-14, 96.507138875445, 303.52111705635
7015, 2.7755575615629e-14, 91.52538309678, 303.47714356454
7016, 2.7755575615629e-14, 166.42799272671, 297.42409555473
7017, 2.7755575615629e-14, 88.914487093003, 302.65560577788
7018, 2.7755575615629e-14, 111.44230302176, 303.50910195357
7019, 2.7755575615629e-14, 151.01543242503, 297.69163357823
7020, 2.7755575615629e-14, 91.606313399946, 290.98266926573
7021, 2.7755575615629e-14, 177.84616124812, 283.37019819761
7022, 2.7755575615629e-14, 156.05807553822, 287.45905712177
7023, 2.7755575615629e-14, 48.519811110625, 292.49607527463
7024, 2.7755575615629e-14, 81.683502724818, 303.57855826166
7025, 2.7755575615629e-14, 8.0093831872626, 307.84123333901
7026, 2.7755575615629e-14, 166.61326812554, 286.68250493422
7027, 2.7755575615629e-14, 118.54683404372, 302.54088051827
7028, 2.7755575615629e-14, 178.15169437062, 301.58524963408
7029, 2.7755575615629e-14, 63.07047280993, 292.00896233127
7030, 2.7755575615629e-14, 78.672867657694, 294.10382320513
7031, 2.7755575615629e-14, 133.35191397613, 302.47696369971
7032, 2.7755575615629e-14, 96.454118885581, 290.85223121404
7033, 2.7755575615629e-14, 166.17896042836, 305.05658201999
7034, 2.7755575615629e-14, 19.934982861613, 293.23506100645
7035, 2.7755575615629e-14, 148.20000861777, 302.30245027922
7036, 2.7755575615629e-14, 173.72247043979, 307.84579289719
7037, 2.7755575615629e-14, 141.00990269212, 287.89460583025
7038, 2.7755575615629e-14, 37.000842006019, 303.98371524469
7039, 2.7755575615629e-14, 36.987658632069, 292.26865512201
7040, 2.7755575615629e-14, 126.2780105319, 288.4318886434
7041, 2.7755575615629e-14, 22.739771930205, 307.59543810828
7042, 2.7755575615629e-14, 195.17646268316, 268.03146964888
7043, 2.7755575615629e-14, 76.71817039556, 303.64217305461
7044, 2.7755575615629e-14, 105.0946004343, 286.10313773526
7045, 2.7755575615629e-14, 31.697619620914, 292.81099586629
7046, 2.7755575615629e-14, 207.9964611948, 284.17323756138
7047, 2.7755575615629e-14, 63.319797139812, 303.54830795338
7048, 2.7755575615629e-14, 103.68226731409, 294.37855438191
7049, 2.7755575615629e-14, 60.616420007589, 303.06559330161
7050, 2.7755575615629e-14, 118.76983158984, 291.24586395388
7051, 2.7755575615629e-14, 205.96690922549, 262.79228322269
7052, 2.7755575615629e-14, 52.237106657487, 295.35540789242
7053, 2.7755575615629e-14, -0.30489370209341, 293.07268467085
7054, 2.7755575615629e-14, 60.979825537511, 287.44211232196
7055, 2.7755575615629e-14, 158.93080324122, 299.46676277313
7056, 2.7755575615629e-14, 171.3966950356, 288.05285942453
7057, 2.7755575615629e-14, 60.409034499599, 292.41313690045
7058, 2.7755575615629e-14, 192.77903140783, 300.22571822813
7059, 2.7755575615629e-14, 97.773589600588, 307.76357213652
7060, 2.7755575615629e-14, 46.278047937099, 304.89784768045
7061, 2.7755575615629e-14, 25.605691616548, 303.98578352662
7062, 2.7755575615629e-14, 151.35768344482, 305.09210999772
7063, 2.7755575615629e-14, 61.348484848485, 308.00452299252
7064, 2.7755575615629e-14, 169.84703811705, 301.56882988286
7065, 2.7755575615629e-14, 46.035081239684, 291.03585677307
7066, 2.7755575615629e-14, 89.019786393936, 291.68238587146
7067, 2.7755575615629e-14, 200.06597623565, 307.89863685113
7068, 2.7755575615629e-14, 12.022337772162, 296.37109784049
7069, 2.7755575615629e-14, 13.428991708388, 293.36400335698
7070, 2.7755575615629e-14, 111.49502861688, 290.34167169746
7071, 2.7755575615629e-14, 84.386479433833, 307.82507086507
7072, 2.7755575615629e-14, 163.10241543702, 302.17797558238
7073, 2.7755575615629e-14, 88.816665651146, 294.68131928655
7074, 2.7755575615629e-14, 197.90892471557, 308.06426870869
7075, 2.7755575615629e-14, 184.81060632632, 288.08738976717
7076, 2.7755575615629e-14, 47.351529853508, 300.08228661558
7077, 2.7755575615629e-14, 49.564545496691, 298.3471631691
7078, 2.7755575615629e-14, 181.20951643604, 304.86245468697
7079, 2.7755575615629e-14, 40.338288659748, 295.56943825658
7080, 2.7755575615629e-14, 88.807051520254, 307.82318505426
7081, 2.7755575615629e-14, 114.0898621821, 285.71483783316
7082, 2.7755575615629e-14, 188.46816552835, 307.74899831006
7083, 2.7755575615629e-14, 187.20655819482, 288.76475408294
7084, 2.7755575615629e-14, 210.67062109171, 308.39666787527
7085, 2.7755575615629e-14, 158.49408521177, 302.04599184841
7086, 2.7755575615629e-14, 54.222429142504, 297.13558716995
7087, 2.7755575615629e-14, 34.379035331014, 305.01484143709
7088, 2.7755575615629e-14, 205.17195361754, 280.08369728753
7089, 2.7755575615629e-14, 143.94692126871, 299.66711000024
7090, 2.7755575615629e-14, 212.12942755727, 283.16414656958
7091, 2.7755575615629e-14, 144.15493769143, 284.56734081437
7092, 2.7755575615629e-14, 103.84587934362, 291.55093667383
7093, 2.7755575615629e-14, 129.21315205851, 299.79806231475
7094, 2.7755575615629e-14, 151.93342494092, 287.08168310149
7095, 2.7755575615629e-14, 188.40501112324, 299.79135982182
7096, 2.7755575615629e-14, 6.4875024218399, 293.79750730891
7097, 2.7755575615629e-14, 0.83062292178118, 288.93061252026
7098, 2.7755575615629e-14, 163.35415954452, 284.07007065726
7099, 2.7755575615629e-14, 73.874938027356, 300.08771176697
7100, 2.7755575615629e-14, 84.656884099344, 300.06736218184
7101, 2.7755575615629e-14, 114.36377870964, 299.89294776984
7102, 2.7755575615629e-14, 133.37936197283, 284.99489774694
7103, 2.7755575615629e-14, 207.79337696925, 281.42458948544
7104, 2.7755575615629e-14, 170.40607349022, 294.21590186434
7105, 2.7755575615629e-14, 99.513074045002, 299.98285995931
7106, 2.7755575615629e-14, 12.071146036102, 300.99725976969
7107, 2.7755575615629e-14, 201.13887889832, 278.81906901755
7108, 2.7755575615629e-14, 118.41538614815, 285.48956371503
7109, 2.7755575615629e-14, 148.4377526805, 284.6078690471
7110, 2.7755575615629e-14, 209.27495945665, 288.39708710189
7111, 2.7755575615629e-14, 9.0379234721961, 293.78196148254
7112, 2.7755575615629e-14, 10.233266793802, 304.6048659582
7113, 2.7755575615629e-14, 99.246975956337, 286.12961877588
7114, 2.7755575615629e-14, 143.90928702865, 307.83322002517
7115, 2.7755575615629e-14, 192.07953019487, 290.0274760167
7116, 2.7755575615629e-14, 212.16878068023, 300.4671795624
7117, 2.7755575615629e-14, 75.004402284388, 292.14266419943
7118, 2.7755575615629e-14, 129.06334197074, 307.90917895399
7119, 2.7755575615629e-14, 199.32480611499, 300.95188903237
7120, 2.7755575615629e-14, 114.20926851911, 307.91940094456
7121, 2.7755575615629e-14, 184.81551973411, 301.21226518907
7122, 2.7755575615629e-14, 195.32484200873, 252.29947607474
7123, 2.7755575615629e-14, -1.1129617493866, 291.0123719381
7124, 2.7755575615629e-14, 75.262484068164, 307.63871769039
7125, 2.7755575615629e-14, 158.71758070414, 307.7317681905
7126, 2.7755575615629e-14, 211.67550656206, 252.29962348963
7127, 2.7755575615629e-14, 129.22634675243, 285.07290289724
7128, 2.7755575615629e-14, 35.421427039328, 300.24492559632
7129, 2.7755575615629e-14, 7.1934452090847, 289.25837695683
7130, 2.7755575615629e-14, 37.582309023022, 298.52168617982
7131, 2.7755575615629e-14, 136.50738478616, 305.17251481243
7132, 2.7755575615629e-14, 34.306634539665, 291.35585212186
7133, 2.7755575615629e-14, 70.119427633895, 308.16738487343
7134, 2.7755575615629e-14, 15.127155767242, 304.23016993482
7135, 2.7755575615629e-14, 88.594344416362, 300.00098338382
7136, 2.7755575615629e-14, 84.658118783453, 286.55737248424
7137, 2.7755575615629e-14, 173.92128519713, 299.7084400319
7138, 2.7755575615629e-14, 103.51149829221, 307.91359765595
7139, 2.7755575615629e-14, 204.81056253354, 256.23286134357
7140, 2.7755575615629e-14, 148.21621319519, 307.70254424516
7141, 2.7755575615629e-14, 118.35548670147, 307.89215219842
7142, 2.7755575615629e-14, 133.20703837715, 307.87399931081
7143, 2.7755575615629e-14, 203.0607486136, 302.82659124808
7144, 2.7755575615629e-14, 173.49556005644, 289.08098292493
7145, 2.7755575615629e-14, 42.200039776868, 297.34747464664
7146, 2.7755575615629e-14, 175.23183921074, 294.24935857757
7147, 2.7755575615629e-14, 163.08531306701, 307.70918725877
7148, 2.7755575615629e-14, 3.1700965522823, 296.17452805002
7149, 2.7755575615629e-14, 103.42566934808, 299.91634081734
7150, 2.7755575615629e-14, 99.106231878546, 302.64392853674
7151, 2.7755575615629e-14, 76.627430770718, 295.95965744235
7152, 2.7755575615629e-14, 136.86630380358, 287.53032777201
7153, 2.7755575615629e-14, 30.603604370803, 297.59716187727
7154, 2.7755575615629e-14, 148.1922989581, 299.37547562245
7155, 2.7755575615629e-14, 118.35658098181, 299.77949247001
7156, 2.7755575615629e-14, 113.95311945253, 302.51066756175
7157, 2.7755575615629e-14, 207.34128605989, 291.37369548096
7158, 2.7755575615629e-14, 49.573172008703, 307.8233496726
7159, 2.7755575615629e-14, 84.189314451809, 302.77268468397
7160, 2.7755575615629e-14, 200.38721768144, 284.70217916709
7161, 2.7755575615629e-14, 133.35559225118, 299.54450768421
7162, 2.7755575615629e-14, 128.83161492371, 302.46859914129
7163, 2.7755575615629e-14, 143.54846541254, 302.19563185123
7164, 2.7755575615629e-14, 162.95842327712, 299.56860061798
7165, 2.7755575615629e-14, 37.65901349889, 307.84918422144
7166, 2.7755575615629e-14, 69.948632995451, 286.93747317788
7167, 2.7755575615629e-14, 180.79055690438, 294.32176397952
7168, 2.7755575615629e-14, 181.79384299877, 290.33856239487
7169, 2.7755575615629e-14, 62.211703445281, 299.07916186457
7170, 2.7755575615629e-14, 64.077872479597, 294.60599668675
7171, 2.7755575615629e-14, 25.998694086645, 298.91622278476
7172, 2.7755575615629e-14, 18.447690258062, 289.04658730648
7173, 2.7755575615629e-14, 203.46179020917, 251.96835755812
7174, 2.7755575615629e-14, 58.113867897753, 304.79457755226
7175, 2.7755575615629e-14, 22.443566748573, 296.3026890492
7176, 2.7755575615629e-14, 74.1980570594, 302.7175474139
7177, 2.7755575615629e-14, 182.30672071998, 300.86020109278
7178, 2.7755575615629e-14, 174.29913612642, 291.81518927313
7179, 2.7755575615629e-14, 185.16856917795, 293.89922824511
7180, 2.7755575615629e-14, 19.396123378011, 307.9168926904
7181, 2.7755575615629e-14, 158.91795473047, 284.24508867604
7182, 2.7755575615629e-14, 69.727379701579, 295.08578467834
7183, 2.7755575615629e-14, 121.68209179983, 305.35936074306
7184, 2.7755575615629e-14, 99.073783827817, 294.63490033505
7185, 2.7755575615629e-14, 18.970273400231, 298.72618476125
7186, 2.7755575615629e-14, 22.390164723524, 291.55218710955
7187, 2.7755575615629e-14, 207.83145239256, 266.71267693116
7188, 2.7755575615629e-14, 54.914900195134, 287.68545046074
7189, 2.7755575615629e-14, 55.409090909091, 308.18613112793
7190, 2.7755575615629e-14, 47.479757266587, 295.56541468905
7191, 2.7755575615629e-14, 194.27141668398, 287.31977875519
7192, 2.7755575615629e-14, 2.9237035818999, 307.73191404739
7193, 2.7755575615629e-14, 48.926499501878, 287.60543018257
7194, 2.7755575615629e-14, 58.172642776342, 290.87089011502
7195, 2.7755575615629e-14, 121.96289670593, 288.02575706659
7196, 2.7755575615629e-14, 126.06883229789, 290.90339730204
7197, 2.7755575615629e-14, 177.82695406656, 307.82748036887
7198, 2.7755575615629e-14, 35.544436845387, 296.08391252505
7199, 2.7755575615629e-14, 197.57133484934, 251.80328820977
7200, 2.7755575615629e-14, 209.45019009547, 251.88085787325
7201, 2.7755575615629e-14, 209.88104971949, 304.78282224223
7202, 2.7755575615629e-14, 25.712121212121, 308.22985797096
7203, 2.7755575615629e-14, 212.27876765071, 260.09343591248
7204, 2.7755575615629e-14, 194.71978075445, 260.08460740547
7205, 2.7755575615629e-14, 205.89172322519, 287.25409967112
7206, 2.7755575615629e-14, 202.06844006892, 288.75476818103
7207, 2.7755575615629e-14, 211.90019274588, 272.29756008616
7208, 2.7755575615629e-14, 204.49575283786, 260.89140486448
7209, 2.7755575615629e-14, 42.909008285297, 287.86856861207
7210, 2.7755575615629e-14, 113.87945174396, 294.26837697714
7211, 2.7755575615629e-14, 140.39499950801, 290.79518455915
7212, 2.7755575615629e-14, 21.14645878023, 300.77010862389
7213, 2.7755575615629e-14, 209.2554190855, 302.91857859066
7214, 2.7755575615629e-14, 204.38328691311, 289.92797962742
7215, 2.7755575615629e-14, 209.20084641745, 279.45315197427
7216, 2.7755575615629e-14, 36.9409030616, 287.97146275165
7217, 2.7755575615629e-14, 198.41622986047, 271.16605691454
7218, 2.7755575615629e-14, 106.92050871937, 305.35708566538
7219, 2.7755575615629e-14, 30.921596057829, 288.33467192058
7220, 2.7755575615629e-14, 43.483597992047, 308.14465735544
7221, 2.7755575615629e-14, 159.02022324837, 292.28707757012
7222, 2.7755575615629e-14, 155.41183013662, 290.45626257431
7223, 2.7755575615629e-14, 128.27475011706, 294.68326634263
7224, 2.7755575615629e-14, 81.999047458826, 289.57608807307
7225, 2.7755575615629e-14, 211.80589005118, 295.67648779853
7226, 2.7755575615629e-14, 144.00589402616, 292.59305149068
7227, 2.7755575615629e-14, 167.4583034397, 301.29912354553
7228, 2.7755575615629e-14, -0.48926323408698, 297.26653987708
7229, 2.7755575615629e-14, 16.877516448524, 296.19871517554
7230, 2.7755575615629e-14, 212.27440562022, 254.37555024518
7231, 2.7755575615629e-14, 194.72541415172, 254.37327223356
7232, 2.7755575615629e-14, 177.88258787829, 290.50977692666
7233, 2.7755575615629e-14, 31.651515151515, 308.29506042459
7234, 2.7755575615629e-14, 198.28090536015, 256.22762659705
7235, 2.7755575615629e-14, 196.10822067205, 292.56923386453
7236, 2.7755575615629e-14, 67.669809501352, 290.08080888117
7237, 2.7755575615629e-14, 209.10711497279, 256.05212170448
7238, 2.7755575615629e-14, 152.17632577924, 301.26549326119
7239, 2.7755575615629e-14, 204.25737864923, 271.54160179169
7240, 2.7755575615629e-14, 205.40731058158, 269.71494981513
7241, 2.7755575615629e-14, 167.23957499763, 290.4240319255
7242, 2.7755575615629e-14, 192.30033900578, 302.20892713894
7243, 2.7755575615629e-14, 93.80033747582, 308.29982916916
7244, 2.7755575615629e-14, 208.63118854524, 271.7465657897
7245, 2.7755575615629e-14, 23.006166222562, 304.91742270059
7246, 2.7755575615629e-14, 197.58208078273, 304.70374272227
7247, 2.7755575615629e-14, 79.329762566357, 308.29669302346
7248, 2.7755575615629e-14, 197.86986309628, 289.26668186469
7249, 2.7755575615629e-14, 9.84139729275, 295.60409842747
7250, 2.7755575615629e-14, 109.03991595023, 285.41587918975
7251, 2.7755575615629e-14, 70.70076696845, 291.41156234403
7252, 2.7755575615629e-14, 155.76894361527, 302.58478462663
7253, 2.7755575615629e-14, 24.954469890943, 288.31353449766
7254, 2.7755575615629e-14, 197.3776348781, 268.2173123003
7255, 2.7755575615629e-14, 196.19788439884, 279.87374951463
7256, 2.7755575615629e-14, 103.0203424255, 285.72965899012
7257, 2.7755575615629e-14, 99.813103478382, 308.21341645831
7258, 2.7755575615629e-14, 201.75210740595, 268.20110003556
7259, 2.7755575615629e-14, 50.836527607373, 305.63991850692
7260, 2.7755575615629e-14, 92.016792209537, 288.74721519024
7261, 2.7755575615629e-14, 209.56920654457, 268.7132541162
7262, 2.7755575615629e-14, 194.45987539787, 283.52581901412
7263, 2.7755575615629e-14, 129.09216752149, 292.77583026387
7264, 2.7755575615629e-14, 110.78313827297, 305.4203469883
7265, 2.7755575615629e-14, 158.07318125983, 294.43639370332
7266, 2.7755575615629e-14, 125.46288482439, 305.52043088741
7267, 2.7755575615629e-14, 137.16645541448, 301.59590668251
7268, 2.7755575615629e-14, 5.4157719117699, 304.79098481901
7269, 2.7755575615629e-14, 11.146743091693, 292.07153086177
7270, 2.7755575615629e-14, 203.20694032323, 277.74354590286
7271, 2.7755575615629e-14, 9.8804930132522, 300.12589968291
7272, 2.7755575615629e-14, 82.113871896143, 308.2914068408
7273, 2.7755575615629e-14, 209.21049999602, 298.40520574652
7274, 2.7755575615629e-14, 53.556719773778, 290.02606598383
7275, 2.7755575615629e-14, 140.81527774405, 302.7401666774
7276, 2.7755575615629e-14, 204.24635013005, 264.99532247233
7277, 2.7755575615629e-14, 198.41227342933, 261.26381243325
7278, 2.7755575615629e-14, 95.742441514167, 288.62326635245
7279, 2.7755575615629e-14, 2.0983961852581, 292.27414551929
7280, 2.7755575615629e-14, 208.44141056578, 261.32805565952
7281, 2.7755575615629e-14, 202.32202680542, 261.11256781682
7282, 2.7755575615629e-14, 183.5597729576, 289.82902106138
7283, 2.7755575615629e-14, 53.67153679541, 305.54221250593
7284, 2.7755575615629e-14, 205.6984628926, 258.61183770199
7285, 2.7755575615629e-14, 201.36185993615, 258.56739662201
7286, 2.7755575615629e-14, 198.56986404335, 293.19907374071
7287, 2.7755575615629e-14, 57.749559268324, 300.4111365571
7288, 2.7755575615629e-14, 50.535353465296, 290.1627274486
7289, 2.7755575615629e-14, -0.62454505132492, 308.14059558962
7290, 2.7755575615629e-14, 38.851095192301, 305.67823911941
7291, 2.7755575615629e-14, 152.98029211946, 290.71187235791
7292, 2.7755575615629e-14, 207.82491733065, 258.72363841363
7293, 2.7755575615629e-14, 199.37126960485, 291.11061169173
7294, 2.7755575615629e-14, 110.27302262726, 291.93536523766
7295, 2.7755575615629e-14, 143.10275921472, 294.64399304756
7296, 2.7755575615629e-14, 199.04155170649, 258.78572843026
7297, 2.7755575615629e-14, 200.88402678222, 297.3703646908
7298, 2.7755575615629e-14, 211.6958383324, 305.03071153281
7299, 2.7755575615629e-14, 12.966963671023, 288.62487813313
7300, 2.7755575615629e-14, 27.197801512369, 305.8951894648
7301, 2.7755575615629e-14, 41.543840440665, 290.34839730869
7302, 2.7755575615629e-14, 200.94777307496, 306.02492410382
7303, 2.7755575615629e-14, 38.673788585844, 290.28418861746
7304, 2.7755575615629e-14, 138.01616927807, 291.074501891
7305, 2.7755575615629e-14, 29.965909496668, 290.63707865807
7306, 2.7755575615629e-14, 122.87703977235, 301.89962606006
7307, 2.7755575615629e-14, 41.723496973772, 305.69077789613
7308, 2.7755575615629e-14, 12.901785869806, 307.94056096441
7309, 2.7755575615629e-14, 193.21985417206, 296.27018179073
7310, 2.7755575615629e-14, 177.31880084856, 288.54307011278
7311, 2.7755575615629e-14, 203.01910275371, 285.90599800983
7312, 2.7755575615629e-14, 194.5931371709, 265.72970761677
7313, 2.7755575615629e-14, 88.716610696956, 286.43222535113
7314, 2.7755575615629e-14, 212.52286297008, 265.86111357675
7315, 2.7755575615629e-14, 91.059970135468, 308.35690268526
7316, 2.7755575615629e-14, 170.75332175828, 286.20091967139
7317, 2.7755575615629e-14, 69.896724908281, 300.36986972784
7318, 2.7755575615629e-14, 178.82116298452, 294.2082464483
7319, 2.7755575615629e-14, 187.08041661454, 291.72250996046
7320, 2.7755575615629e-14, 186.72193386966, 282.35485943797
7321, 2.7755575615629e-14, 124.74960838825, 302.05931784596
7322, 2.7755575615629e-14, 203.29960143243, 297.48046314175
7323, 2.7755575615629e-14, 183.37065249415, 282.97423041319
7324, 2.7755575615629e-14, 187.5028100119, 296.38362748143
7325, 2.7755575615629e-14, 200.67142084282, 294.28735631254
7326, 2.7755575615629e-14, 200.77539169842, 255.43932993282
7327, 2.7755575615629e-14, 111.80636454617, 285.29464273608
7328, 2.7755575615629e-14, 164.14165306665, 297.6253405189
7329, 2.7755575615629e-14, 2.6786060067085, 289.59610662746
7330, 2.7755575615629e-14, 29.891646926386, 305.82571532291
7331, 2.7755575615629e-14, 67.440814846016, 305.4699480701
7332, 2.7755575615629e-14, 212.55803321164, 277.3964689053
7333, 2.7755575615629e-14, 190.31589058551, 293.61258058907
7334, 2.7755575615629e-14, 203.29890225821, 275.58078276996
7335, 44.841346376721, 168.61217112338, 250
7336, 54.110005663433, 31.000063878158, 250
7337, 51.02701319023, 193.1753260049, 250
7338, 65.881686198351, 201.34802940281, 250
7339, 48.401293300628, 22.561977253926, 250
7340, 48.446848697476, 39.418925717282, 250
7341, 73.537161319501, 200.52166117513, 250
7342, 39.57196247492, 200.44433450311, 250
7343, 52.272788037193, 180.02681951599, 250
7344, 50.622097004516, 163.10151099346, 250
7345, 44.755458895505, 152.12151322897, 250
7346, 44.694561738038, 139.5098489453, 250
7347, 61.708834402846, 191.41357890706, 250
7348, 45.31457365049, 127.25657951322, 250
7349, 55.184746299579, 203.34857336681, 250
7350, 45.719524142277, 113.63007411949, 250
7351, 47.10073301876, 50.642529332826, 250
7352, 41.531971940882, 186.98386723618, 250
7353, 45.28267590815, 101.36946124449, 250
7354, 45.980612708932, 89.894560894466, 250
7355, 30.010285704076, 202.97047302772, 250
7356, 44.933183757083, 31.612213447402, 250
7357, 46.186541470984, 78.050881865207, 250
7358, 60.626116462502, 27.581519706466, 250
7359, 60.146729156326, 34.830405946974, 250
7360, 47.534258400513, 12.810931068914, 250
7361, 46.079288815911, 65.854340269858, 250
7362, 18.728556610153, 203.35941180026, 250
7363, 54.73590689195, 37.324730057464, 250
7364, 54.711980811808, 24.630064181084, 250
7365, 41.064180349477, 177.31447807781, 250
7366, 67.933702596577, 194.64249901438, 250
7367, 9.3871372827788, 202.36477876924, 250
7368, 60.413200697739, 183.29192347873, 250
7369, 40.914665434244, 160.40950831662, 250
7370, 46.772253497225, 205.33009034247, 250
7371, 52.742672002272, 171.40449171003, 250
7372, 51.193192405098, 45.263959104601, 250
7373, 70.488112551064, 206.85949511589, 250
7374, 43.812859435424, 58.13822603806, 250
7375, 51.358439166351, 17.09927431488, 250
7376, 37.370283670847, 193.1590080511, 250
7377, 49.946751896207, 27.694806220421, 250
7378, 49.953789734068, 34.702846032291, 250
7379, 71.746624422701, 194.96258660292, 250
7380, 53.707278981147, 41.537776069294, 250
7381, 49.609816337135, 121.03095231043, 250
7382, 41.579463669855, 120.35163690242, 250
7383, 59.799824133342, 198.05904121409, 250
7384, 61.387344598628, 206.7857579083, 250
7385, 49.762093447802, 146.07691902745, 250
7386, 49.944939853423, 4.9199622094971, 250
7387, 40.413810355586, 145.95010041438, 250
7388, 43.29061607783, 44.208411152981, 250
7389, 65.869849968305, 31.635234894044, 250
7390, 49.840107689879, 133.71098262235, 250
7391, 35.682217175114, 206.66417895336, 250
7392, 44.168855237345, 194.89568763491, 250
7393, 40.54524532369, 133.68003084269, 250
7394, 42.409514467134, 36.80426266727, 250
7395, 48.837889531471, 186.70569737, 250
7396, 77.218115161417, 197.48724541717, 250
7397, 50.185034197724, 107.73929262791, 250
7398, 42.779443873779, 25.318667412396, 250
7399, 43.071202093426, 18.536228849632, 250
7400, 41.456923138156, 107.22258660824, 250
7401, 50.264061480986, 95.893028698709, 250
7402, 32.857414464148, 197.53804458501, 250
7403, 41.785296998448, 95.419215375617, 250
7404, 50.341848889214, 84.046760927678, 250
7405, 42.188752222839, 83.446371182747, 250
7406, 55.873739665058, 188.72137677854, 250
7407, 50.432482844761, 72.905743258993, 250
7408, 57.860942695997, 176.81296157196, 250
7409, 42.32310157039, 72.254491872252, 250
7410, 38.698083678465, 170.78016063715, 250
7411, 50.465857709347, 156.83108508906, 250
7412, 50.561969433774, 60.427539034239, 250
7413, 54.631299727072, 164.55999401143, 250
7414, 53.99114484779, 20.454466449915, 250
7415, 76.629922534183, 205.87330659922, 250
7416, 49.835123136756, 199.60125951462, 250
7417, 46.579814375533, 175.78178230668, 250
7418, 66.403136501382, 25.782489666477, 250
7419, 24.021694450506, 207.15774393477, 250
7420, 24.491189413276, 199.10101081957, 250
7421, 14.147555189603, 208.01331314577, 250
7422, 58.569654395736, 37.951045429822, 250
7423, 38.596874229909, 154.24017031383, 250
7424, 43.115902962772, 6.5303075240096, 250
7425, 58.557374578256, 24.029564763605, 250
7426, 65.273538905665, 36.724222625816, 250
7427, 69.378675349696, 198.43721862917, 250
7428, 67.168505725229, 189.20285131856, 250
7429, 45.866881903766, 181.29838336131, 250
7430, 37.406339012242, 182.63977038386, 250
7431, 50.474121534949, 139.68131585011, 250
7432, 5.5583311571243, 207.74800651376, 250
7433, 51.702781480531, 54.012140441256, 250
7434, 38.987674261655, 139.589042152, 250
7435, 58.227802624571, 30.638358891565, 250
7436, 52.176324154985, 208.3096518479, 250
7437, 14.515625114185, 198.85794478901, 250
7438, 51.282670678076, 126.44535774502, 250
7439, 39.083210234174, 126.96756548339, 250
7440, 41.614660669617, 208.04427933529, 250
7441, 40.361230657552, 114.78195315907, 250
7442, 51.193238480756, 113.37107162245, 250
7443, 50.935762679521, 101.4846328536, 250
7444, 74.916590757206, 195.66051854532, 250
7445, 56.417876757975, 193.88619118445, 250
7446, 56.178819344214, 27.898808802523, 250
7447, 36.628959473039, 188.12139832341, 250
7448, 40.857053697079, 63.061727502879, 250
7449, 56.399126228914, 33.861028804975, 250
7450, 40.120032219689, 101.93884507345, 250
7451, 51.835439949549, 89.894560894466, 250
7452, 37.26599114769, 165.17781766825, 250
7453, 64.375291070584, 197.34232238493, 250
7454, 41.251151439406, 52.795537824416, 250
7455, 40.517711873358, 90.185362309137, 250
7456, 51.940135962279, 78.050881865207, 250
7457, 40.952532818092, 0.86680423105744, 250
7458, 30.807130464561, 209.00202542886, 250
7459, 40.58368942024, 78.623761659103, 250
7460, 52.019671996673, 66.32514912963, 250
7461, 52.383498647926, 12.086188855423, 250
7462, 78.820448822001, 210.43980335411, 250
7463, 52.10537355163, 151.16340332129, 250
7464, 69.135946757947, 38.677193192513, 250
7465, 68.961703437702, 23.288198452253, 250
7466, 4.9699152336182, 198.08632674545, 250
7467, 44.717442941332, 200.19201009874, 250
7468, 65.914336358389, 205.69747537549, 250
7469, 64.791440319605, 184.76357901005, 250
7470, 46.331091135847, 160.11859362918, 250
7471, 42.035519541208, 14.333266812169, 250
7472, 18.767976409468, 208.73101650042, 250
7473, 62.017319206786, 202.19815203233, 250
7474, 47.378461431788, 18.648434580278, 250
7475, 47.54444718335, 43.887661819576, 250
7476, 45.773480149693, 189.77073082936, 250
7477, 69.697822892774, 202.8392763447, 250
7478, 46.507672347227, 35.778103626552, 250
7479, 19.970655521317, 198.60398934993, 250
7480, 54.503098166157, 198.49331150749, 250
7481, 34.633798983546, 201.76778440179, 250
7482, 54.860621473882, 183.79087655645, 250
7483, 51.018708356634, 31.401137131914, 250
7484, 77.850187737112, 201.58090899197, 250
7485, 56.786895513388, 209.07394554614, 250
7486, 36.3665679077, 175.36187766293, 250
7487, 54.136424782949, 44.908188576295, 250
7488, 53.307843526871, 48.788967780389, 250
7489, 40.936482754913, 32.881023561864, 250
7490, 61.799958309577, 31.428322230014, 250
7491, 51.768702259759, 22.70228673058, 250
7492, 51.808024997025, 39.107308721702, 250
7493, 62.442033268381, 23.632160049354, 250
7494, 47.118401073471, 25.797314600384, 250
7495, 43.119529021437, 172.79625758453, 250
7496, 53.779208190177, 160.68975667246, 250
7497, 56.382798007021, 40.161859008672, 250
7498, 57.928016033979, 172.22607192625, 250
7499, 28.18334755437, 196.51843682297, 250
7500, 56.490024667731, 21.989864061856, 250
7501, 62.125511894647, 38.223222223414, 250
7502, 54.281098069855, 16.846049795448, 250
7503, 44.689116041707, 147.33316954675, 250
7504, 61.9546395178, 179.22565790754, 250
7505, 40.176316719544, 48.357568933484, 250
7506, 70.314397453975, 191.88143776984, 250
7507, 45.414100660674, 2.5065779464818, 250
7508, 73.69624858352, 209.50391557029, 250
7509, 45.144992266443, 134.91962279445, 250
7510, 50.523025009894, 42.128644437396, 250
7511, 4.6631991079998, 203.22615086373, 250
7512, 41.514398662725, 191.52546718634, 250
7513, 36.715360504923, 149.72699674505, 250
7514, 10.260508205212, 197.45766149968, 250
7515, 53.188941419411, 34.42257811753, 250
7516, 53.134300478882, 27.540903740978, 250
7517, 50.27504795059, 167.90883363051, 250
7518, 44.580961566299, 40.351495186138, 250
7519, 40.252770707416, 40.400733660526, 250
7520, 55.986700047477, 168.34900863072, 250
7521, 42.055589469196, 165.03191348125, 250
7522, 60.292105165606, 187.21342557504, 250
7523, 39.45844957953, 68.072142922894, 250
7524, 36.645899946895, 158.49320277063, 250
7525, 45.660672283078, 108.90960569459, 250
7526, 45.203942231555, 118.33914712681, 250
7527, 33.161903603037, 193.66018022843, 250
7528, 50.887017785336, 203.84682958912, 250
7529, 53.170786801519, 2.2623202004699, 250
7530, 45.59599644427, 123.01462960711, 250
7531, 53.613208386167, 175.90872780341, 250
7532, 36.657146708234, 197.61479490314, 250
7533, 45.653185525349, 209.81910140471, 250
7534, 42.961881051243, 156.82759849487, 250
7535, 67.901091755076, 209.898497666, 250
7536, 42.377615885588, 203.75813182212, 250
7537, 46.621557317266, 54.593691248947, 250
7538, 45.866047957065, 97.161801793186, 250
7539, 64.799980832555, 193.51480640967, 250
7540, 41.851678744932, 182.67554272343, 250
7541, 55.309926917404, 162.76174208202, 250
7542, 53.009997378359, 117.89234966719, 250
7543, 53.142587340118, 130.78025594054, 250
7544, 73.145230440491, 204.0183397218, 250
7545, 46.070220969774, 85.411204744196, 250
7546, 23.164609227105, 203.04555721022, 250
7547, 44.841204205754, 22.109184313045, 250
7548, 53.452257057892, 7.4890164809213, 250
7549, 46.379046735675, 61.764660032498, 250
7550, 41.609848481529, 28.984049439179, 250
7551, 73.118224134921, 193.82210710292, 250
7552, 40.526617549021, 21.954636399254, 250
7553, 46.32464464682, 73.683668049661, 250
7554, 37.843667504994, 122.96926961586, 250
7555, 50.438327917555, 20.099294918651, 250
7556, 53.338927599658, 122.62542759507, 250
7557, 14.45834454079, 203.32809809618, 250
7558, 47.843842110427, 196.13653619459, 250
7559, 51.723737199383, 189.69508652107, 250
7560, 37.884645636754, 110.42575302929, 250
7561, 46.316092453492, 164.38506053516, 250
7562, 40.327643449569, 195.79129260013, 250
7563, 9.9806969762999, 209.85224808909, 250
7564, 39.664170320031, 57.998508203996, 250
7565, 37.588937603283, 118.47571607919, 250
7566, 37.659740524491, 130.70893304111, 250
7567, 36.784356771487, 135.83668801492, 250
7568, 53.275299026488, 143.77371161395, 250
7569, 36.712397199356, 143.558010937, 250
7570, 68.439572371426, 34.364704225575, 250
7571, 53.450932230862, 136.12716578698, 250
7572, 63.657834114009, 210.1803319062, 250
7573, 64.549780574473, 28.507428426684, 250
7574, 77.615397992193, 195.27242576219, 250
7575, 41.488224747689, 149.76785556262, 250
7576, 47.727646851418, 29.478512383114, 250
7577, 73.091951583735, 197.81268609172, 250
7578, 68.591583722409, 28.904033756718, 250
7579, 56.931842349897, 180.54746006547, 250
7580, 38.089275544471, 210.25339100916, 250
7581, 45.103763652468, 185.34284158349, 250
7582, 48.347578825969, 130.05449154764, 250
7583, 61.393006384352, 195.28806789098, 250
7584, 53.467262347139, 57.302706452072, 250
7585, 47.739833910583, 8.6371469505622, 250
7586, 53.509112552962, 105.39576758671, 250
7587, 47.983516975454, 46.935965586345, 250
7588, 38.173865168833, 98.06131276532, 250
7589, 53.536485788903, 110.03749945593, 250
7590, 47.031198252882, 143.17185892955, 250
7591, 38.575643845783, 86.283344548293, 250
7592, 48.600513380261, 150.10037742419, 250
7593, 37.862898516502, 105.26688997485, 250
7594, 38.964729602265, 74.54600359486, 250
7595, 53.544814877717, 93.547410058103, 250
7596, 38.084187197631, 204.77021520785, 250
7597, 26.754844222544, 210.18369331071, 250
7598, 53.576736296962, 98.168560474542, 250
7599, 35.619950606789, 179.67292162057, 250
7600, 41.871077058347, 142.23957436519, 250
7601, 33.516433309487, 210.12283381917, 250
7602, 42.210821471357, 111.20332579419, 250
7603, 41.89226860726, 129.88925346687, 250
7604, 38.115615607909, 93.559292105359, 250
7605, 63.758941333904, 34.939831415529, 250
7606, 59.276154527919, 205.06198672998, 250
7607, 53.579850076113, 81.698933684401, 250
7608, 40.895186487006, 9.9521616198906, 250
7609, 55.860041037027, 42.491979224912, 250
7610, 48.488391198209, 137.70869878935, 250
7611, 47.760029901017, 32.684590687642, 250
7612, 53.713447364087, 86.359835206367, 250
7613, 56.719853070012, 36.309215203338, 250
7614, 38.507192871293, 81.693467291669, 250
7615, 49.614666914836, 182.70813627149, 250
7616, 53.61419251818, 69.850333897592, 250
7617, 49.046032934922, 116.62958251882, 250
7618, 39.267429008964, -0.77976720880169, 250
7619, 53.752523644693, 74.518554321393, 250
7620, 47.578486345376, 171.43911326847, 250
7621, 50.411654284148, 25.115048479139, 250
7622, 44.745379077078, 16.002403136187, 250
7623, 35.380385581342, 167.89327047095, 250
7624, 53.686497501648, 62.652888360061, 250
7625, 53.071091449988, 148.14301031944, 250
7626, 42.262821294681, 137.35931498175, 250
7627, 58.202628653789, 200.99400647901, 250
7628, 32.694179335669, 204.61449162714, 250
7629, 60.726516259149, 39.451969597088, 250
7630, 62.54540966576, 188.85602988356, 250
7631, 66.860087416456, 197.50616918546, 250
7632, 53.721209565137, 154.57066205117, 250
7633, 50.079999548157, 36.394777626178, 250
7634, 48.539235261667, 15.440121470801, 250
7635, 56.696377427927, 25.56527733808, 250
7636, 43.735888263677, 34.254095953533, 250
7637, 47.152562965622, 105.34655198002, 250
7638, 44.246531059634, 47.235282231379, 250
7639, 47.205644240132, 93.548396440124, 250
7640, 47.484986058206, 81.310106980409, 250
7641, 47.637030606474, 69.444860773443, 250
7642, 58.268885602493, 190.94985830006, 250
7643, 41.425504466509, 124.7796112043, 250
7644, 33.821106572055, 190.08575027603, 250
7645, 29.902024926875, 200.12915523138, 250
7646, 48.664084012315, 178.69700018448, 250
7647, 49.087426322851, 0.76440797236461, 250
7648, 60.361474523642, 22.742388112579, 250
7649, 10.223919469111, 205.58222318771, 250
7650, 48.373932032719, 111.08857392038, 250
7651, 27.522383459166, 206.38851454964, 250
7652, 69.828383555112, 196.26515159906, 250
7653, 55.658227487626, 19.579816915263, 250
7654, 42.90233638955, 99.539466391696, 250
7655, 42.728266674633, 104.24312999575, 250
7656, 44.143720228245, 177.2051863562, 250
7657, 41.513596320329, 168.38544028646, 250
7658, 61.24290332492, 175.96500667884, 250
7659, 42.803040402506, 87.837435434048, 250
7660, 21.940069493029, 210.78868048513, 250
7661, 38.97008243067, 44.261768174824, 250
7662, 43.142000281075, 92.354586362369, 250
7663, 42.561654173335, 76.081624241509, 250
7664, 49.949978303231, 50.899901354784, 250
7665, 51.77496619126, 37.269499456602, 250
7666, 46.933359973245, 155.34056999564, 250
7667, 48.636762575547, 210.61783746859, 250
7668, 52.072282278792, 196.72015769947, 250
7669, 52.688825888721, 167.71153286682, 250
7670, 48.801269765771, 98.92945848825, 250
7671, 43.573417540994, 68.48359620117, 250
7672, 64.284510080544, 181.71777079897, 250
7673, 63.545359277889, 199.97076960407, 250
7674, 56.652232449046, 165.70786334549, 250
7675, 43.305488029904, 80.614469897722, 250
7676, 45.645773428162, 131.5219682746, 250
7677, 59.880947908632, 210.23786674394, 250
7678, 34.858907044818, 184.22727962169, 250
7679, 4.2537477634793, 210.29605347509, 250
7680, 35.473934332212, 161.98839198417, 250
7681, 40.565205956272, 17.145990810676, 250
7682, 48.861984199894, 87.429006807669, 250
7683, 34.882646966297, 172.37330570571, 250
7684, 15.672640257762, 210.4114487887, 250
7685, 48.275579168713, 58.291404238539, 250
7686, 66.117986543972, 22.009707468795, 250
7687, 50.887403791612, 174.16603873367, 250
7688, 41.063172822825, 4.7554464348486, 250
7689, 49.279266697559, 63.487378686599, 250
7690, 49.640987160627, 159.95202912243, 250
7691, 70.751213649206, 209.87351995596, 250
7692, 48.951673593839, 75.608393062542, 250
7693, 52.802626390895, 185.50179684342, 250
7694, 39.810393664153, 174.04371874345, 250
7695, 54.465401227273, 39.503456839025, 250
7696, 47.524764137834, 202.04922988216, 250
7697, 79.009965278874, 204.40571135585, 250
7698, 63.846850126511, 203.82285143796, 250
7699, 54.250767718699, 191.44924352393, 250
7700, 54.482904107715, 22.461873672796, 250
7701, 22.443998206438, 196.36382312573, 250
7702, 48.629067048761, 124.02135477653, 250
7703, 40.373699054344, 26.386849398127, 250
7704, 44.367001814429, 10.525277506441, 250
7705, 43.481989677683, 116.02867719491, 250
7706, 44.811439972352, 28.255355751642, 250
7707, 39.827953174118, 35.655615938067, 250
7708, 79.560441929639, 199.35973989469, 250
7709, 56.103487924297, 30.210358609885, 250
7710, 52.185240821722, 25.255339952703, 250
7711, 16.533089972091, 196.33559122134, 250
7712, 58.50947351151, 32.914149738676, 250
7713, 52.685383141256, 201.33065314168, 250
7714, 38.795658109215, 185.87145441866, 250
7715, 67.009102415717, 186.05814610661, 250
7716, 58.791321617912, 28.403801507441, 250
7717, 26.131630644144, 201.97748526989, 250
7718, 38.894096186571, 190.64075969342, 250
7719, 54.291485513963, 52.519843960619, 250
7720, 20.872677841524, 206.01248453949, 250
7721, 57.990309096164, 40.409153812312, 250
7722, 52.696375905528, 32.42424147962, 250
7723, 48.046751864655, 192.69568903056, 250
7724, 52.359407259455, 29.677324905661, 250
7725, 54.79503471085, 206.54998934505, 250
7726, 52.732280059114, 15.177684489911, 250
7727, 16.599697964856, 205.96260842454, 250
7728, 66.778030152632, 192.06034652615, 250
7729, 72.536071938724, 192.01953168612, 250
7730, 79.705884474358, 196.40629312218, 250
7731, 30.418688889, 194.60871339502, 250
7732, 58.825940993635, 26.263645567703, 250
7733, 70.924320205507, 200.66887062071, 250
7734, 38.453250103892, 71.134160528318, 250
7735, 42.006241921144, 198.4803135884, 250
7736, 57.207514081032, 186.16023630793, 250
7737, 78.664710613054, 207.40144222712, 250
7738, 2.8198402638461, 205.89852664492, 250
7739, 13.089484565729, 196.04139666942, 250
7740, 35.129259676766, 153.93490466036, 250
7741, 54.083919061554, 210.6158999234, 250
7742, 75.350413360168, 194.1236199544, 250
7743, 38.304255673647, 60.779817037363, 250
7744, 68.133980967356, 26.528756044907, 250
7745, 58.359169756415, 21.955730463834, 250
7746, 52.461905645151, 43.475497160903, 250
7747, 38.19278265924, 179.54072902789, 250
7748, 70.420232452102, 21.844758514718, 250
7749, 35.740083576672, 146.56361121693, 250
7750, 38.316858319413, 55.285945319256, 250
7751, 39.790017536784, 157.25288136737, 250
7752, 41.84320320907, 153.78746553657, 250
7753, 57.076709817216, 196.83505390758, 250
7754, 67.177806263644, 203.65964320582, 250
7755, 64.392313702183, 190.88233782225, 250
7756, 50.344477688815, 9.3419415844345, 250
7757, 58.644776475542, 36.351615191033, 250
7758, 17.346789073186, 200.46382387635, 250
7759, 43.751357759478, 162.23511530052, 250
7760, 49.172378671255, 152.94499088446, 250
7761, 48.867099645701, 189.27598245859, 250
7762, 54.711373750616, 4.8184351666526, 250
7763, 35.600982300615, 138.85996343113, 250
7764, 42.815635436381, 210.98852292339, 250
7765, 55.286251992876, 140.25526567066, 250
7766, 69.583521825103, 189.24617521623, 250
7767, 56.203854338908, 38.328660513221, 250
7768, 68.428170603104, 201.01407609189, 250
7769, 54.361605468954, 125.43821057973, 250
7770, 22.076884583095, 200.54261667464, 250
7771, 2.8996706824008, 200.48625711311, 250
7772, 64.321508690482, 39.305238285445, 250
7773, 3.2141436087078, 196.20332419793, 250
7774, 25.558616831622, 195.94954483146, 250
7775, 7.2998106546163, 195.84814533479, 250
7776, 50.16814015101, 143.21805223672, 250
7777, 54.895493952526, 157.81694671807, 250
7778, 7.1660335134574, 211.01293767626, 250
7779, 50.512811143687, 69.140553400818, 250
7780, 38.948246645091, 50.648411771773, 250
7781, 43.719390027884, 50.174110204073, 250
7782, 73.535270243504, 206.50283601004, 250
7783, 50.574916595304, 81.111322588823, 250
7784, 46.123973475989, 38.560683959819, 250
7785, 54.477555111897, 28.904272621709, 250
7786, 48.969615408716, 207.50332411423, 250
7787, 50.435694581628, 92.908840030253, 250
7788, 70.062054047484, 194.16612857359, 250
7789, 54.492722445753, 33.114897920744, 250
7790, 50.506399782506, 105.1003749596, 250
7791, 35.871269777102, 114.86085449301, 250
7792, 38.569810541481, 65.311301660192, 250
7793, 39.308824103246, 30.580289670574, 250
7794, 35.891675273388, 126.85611462683, 250
7795, 75.019228298736, 202.29043302218, 250
7796, 31.954919352544, 201.84235497872, 250
7797, 54.633107319333, 178.68554530985, 250
7798, 50.70907239323, 57.320749519751, 250
7799, 11.449227183899, 200.22244421887, 250
7800, 60.303009887262, 29.847505615622, 250
7801, 43.906542932045, 206.23902484108, 250
7802, 43.630696704697, 55.515827422961, 250
7803, 75.895694527322, 199.69197431365, 250
7804, 53.018962124342, 194.03817168423, 250
7805, 68.348460935219, 31.662975208015, 250
7806, 55.205104334807, 113.55615674957, 250
7807, 59.309998905786, 193.39457373648, 250
7808, 50.467554702132, 48.02735555533, 250
7809, 45.916085432605, 5.7366677949808, 250
7810, 38.589966744822, 207.70362934361, 250
7811, 41.470162490206, 60.113419517102, 250
7812, 60.470043644436, 172.8677575904, 250
7813, 44.35437122518, 64.108466212984, 250
7814, 44.983297475116, 197.14341855479, 250
7815, 61.236879409234, 185.17888367285, 250
7816, 52.188550563027, 19.109855016689, 250
7817, 54.472558134548, 133.37947554857, 250
7818, 55.504040521304, 101.74598425603, 250
7819, 7.2520419416385, 204.86727461072, 250
7820, 65.534767204325, 199.06365667709, 250
7821, 46.766697279656, 20.839036037348, 250
7822, 54.998238456682, 35.348060423263, 250
7823, 33.57246416085, 187.18370765921, 250
7824, 56.134044681931, 23.762409163067, 250
7825, 54.842821928696, 26.633996630788, 250
7826, 36.555527189211, 102.67628918052, 250
7827, 42.889396024002, 180.06067042086, 250
7828, 36.951841815994, 90.812699383359, 250
7829, 36.997857087232, 79.365304663391, 250
7830, 38.577403439766, 162.33528585346, 250
7831, 54.685979704547, 89.500929060675, 250
7832, 63.007086292467, 26.37494354275, 250
7833, 52.01931109205, 182.6306888609, 250
7834, 51.267585201534, 177.77702286388, 250
7835, 34.493946271322, 165.51991753285, 250
7836, 66.010774648792, 195.47528943514, 250
7837, 46.744117747122, 41.063724733728, 250
7838, 12.606344743083, 210.92051162422, 250
7839, 56.134208505276, 174.38798218717, 250
7840, 80.253919141546, 212.08994950142, 250
7841, 60.636671019814, 25.104036957076, 250
7842, 56.917357334768, 31.879867387986, 250
7843, 54.850152278342, 10.27270870039, 250
7844, 38.302493043894, 167.98510167532, 250
7845, 47.292399060425, 140.40886265974, 250
7846, 31.46295320546, 211.74841290073, 250
7847, 54.73802731505, 77.663162126754, 250
7848, 42.841435123186, 144.90898350089, 250
7849, 52.886384231338, 46.571840356851, 250
7850, 8.173563457262, 199.68104027992, 250
7851, 40.423950183646, 117.60408812089, 250
7852, 71.680871624758, 193.50846512821, 250
7853, 70.577485278763, 40.261068733701, 250
7854, 75.09366964107, 197.55442028078, 250
7855, 55.19678428642, 152.24084095324, 250
7856, 71.163901916158, 197.74118767481, 250
7857, 46.610172748963, 187.32446432426, 250
7858, 34.72298876298, 196.08438135504, 250
7859, 25.370324566611, 204.95491043861, 250
7860, 43.609231982804, -0.15444302725461, 250
7861, 58.102568657948, 169.64156931856, 250
7862, 54.774814314962, 65.83160044582, 250
7863, 34.729272673829, 198.83882175568, 250
7864, 60.459717143999, 32.739679139736, 250
7865, 76.091279262991, 211.46029376449, 250
7866, 44.922922844095, 202.93175623492, 250
7867, 34.090399131992, 181.95300970626, 250
7868, 66.053940338585, 34.007274946891, 250
7869, 46.477282911565, 23.702605899489, 250
7870, 44.475466940641, 192.37188494511, 250
7871, 39.173072407779, 19.671795372988, 250
7872, 27.305431981595, 199.0864583312, 250
7873, 36.613258980728, 107.78836901772, 250
7874, 76.239646676542, 208.53026625421, 250
7875, 33.128001789665, 207.51249180886, 250
7876, 63.879637038853, 207.61853273074, 250
7877, 35.494371450786, 133.11796812962, 250
7878, 19.370697051988, 211.52228309835, 250
7879, 48.267140046798, 127.31696434756, 250
7880, 56.572743191061, 163.64614736888, 250
7881, 55.152156990943, 128.67361383623, 250
7882, 48.215059102482, 27.665056656551, 250
7883, 43.223727467007, 189.42905663857, 250
7884, 38.794456147319, 38.216070706675, 250
7885, 49.488437395357, 43.929265943906, 250
7886, 54.850070301723, 119.89491332579, 250
7887, 55.221389979779, 60.105282455354, 250
7888, 54.97695897842, 13.039560581136, 250
7889, 48.006182756589, 102.23259390528, 250
7890, 48.617606435532, 35.683441384092, 250
7891, 50.586083901079, 13.906105199747, 250
7892, 42.154729955962, 201.12971941325, 250
7893, 55.048522061092, 54.981030338555, 250
7894, 57.838186251195, 211.6339583888, 250
7895, 59.358111889348, 207.68821605089, 250
7896, 55.935394250697, 44.49432162866, 250
7897, 59.63108253403, 180.91470843087, 250
7898, 68.81180526928, 205.2793048789, 250
7899, 45.037015979836, 42.735118468528, 250
7900, 51.981023880529, 40.996837336921, 250
7901, 50.183552685702, 170.93042925849, 250
7902, 30.118837177426, 205.74952847533, 250
7903, 39.560103118512, 12.559802870631, 250
7904, 41.923977158348, 66.264892568473, 250
7905, 40.16032254488, 7.7218988003166, 250
7906, 48.430668232349, 90.774167069032, 250
7907, 42.287070497969, 127.48744042182, 250
7908, 66.349717752002, 183.10971999237, 250
7909, 34.543966106383, 156.67237844799, 250
7910, 55.129395507019, 107.69367868718, 250
7911, 47.329684095996, 166.91999819266, 250
7912, 36.982663465977, 199.97316890975, 250
7913, 35.872180144129, 120.72944374809, 250
7914, 48.071068312681, 162.25797030226, 250
7915, 12.093184871622, 202.99655711993, 250
7916, 55.570125031216, 171.26919510015, 250
7917, 60.14000408983, 37.519250516669, 250
7918, 50.580166024084, 148.27762472453, 250
7919, 43.686423085973, 4.3358338843768, 250
7920, 48.60571180692, 78.868123984958, 250
7921, 55.137516101706, 95.84245118219, 250
7922, 49.458130399317, 17.924753971158, 250
7923, 47.992334947227, 157.50357191749, 250
7924, 44.42776990877, 174.81616311326, 250
7925, 48.53254066693, 114.22774962645, 250
7926, 50.283969708712, 40.29037542254, 250
7927, 44.221217038076, 106.48982162436, 250
7928, 55.131771446444, 84.002247603962, 250
7929, 45.176460447299, 52.516243666233, 250
7930, 80.115331800952, 202.15525858504, 250
7931, 45.735461398195, 45.520432844882, 250
7932, 36.085049210357, 191.29375324161, 250
7933, 44.974484026934, 94.803972487888, 250
7934, 46.765432321894, 0.14590665072398, 250
7935, 55.143665692537, 72.157276310503, 250
7936, 55.226866980071, 47.184497594122, 250
7937, 61.906847184356, 36.054028215719, 250
7938, 44.871309623538, 71.048111075702, 250
7939, 48.762468220875, 66.311413819608, 250
7940, 42.358860967774, 39.382247360097, 250
7941, 54.498535655178, 181.35443588419, 250
7942, 45.198948152908, 82.901554076193, 250
7943, 40.220262512622, 211.76599314714, 250
7944, 34.727676114349, 151.08113662801, 250
7945, 43.707605402037, 159.311595202, 250
7946, 55.703704666856, 200.8363462712, 250
7947, 61.808907119078, 181.83294478381, 250
7948, 42.760671535793, 132.22169977168, 250
7949, 62.255159676132, 197.675635348, 250
7950, 62.361374337332, 39.935384000063, 250
7951, 51.923644344083, 21.056533517932, 250
7952, 19.337949132333, 195.7284190734, 250
7953, 42.724922578395, 31.298985478827, 250
7954, 44.899279342228, 12.862567331268, 250
7955, 34.007040207953, 177.43346316861, 250
7956, 38.395729303424, 46.550933889185, 250
7957, 72.593066424446, 211.78164043143, 250
7958, 45.402586539599, 170.86226618462, 250
7959, 24.59635829441, 211.61588759421, 250
7960, 39.533584911909, 136.13128853681, 250
7961, 47.385642243393, 198.97996837807, 250
7962, 39.649925831086, 151.37840874111, 250
7963, 71.093329812237, 204.65277721307, 250
7964, 46.288402636642, 33.419951936625, 250
7965, 38.926767115033, 197.95267854644, 250
7966, 58.083991688461, 34.853282976999, 250
7967, 38.99906778333, 24.08886400623, 250
7968, 66.58232332165, 27.734811586121, 250
7969, 35.664094029038, 204.04581945384, 250
7970, 66.718313612273, 39.718915002642, 250
7971, 55.868692234216, 160.77051893182, 250
7972, 44.200402058251, 120.53828419087, 250
7973, 52.104167322524, 165.49505440029, 250
7974, 60.872368544301, 200.27087521673, 250
7975, 39.842915175091, 193.35845018431, 250
7976, 41.093136294668, 55.86328121828, 250
7977, 48.463135459455, 53.025709700957, 250
7978, 47.488465665791, 133.04808790647, 250
7979, 42.7281576386, 41.613214491397, 250
7980, 55.93833890041, 17.489898727764, 250
7981, 48.213192054633, 37.444825134162, 250
7982, 46.772562348976, 120.57630682102, 250
7983, 55.192606454553, 116.48766678912, 250
7984, 54.794325695108, 186.26987931896, 250
7985, 61.795659770975, 204.53437462339, 250
7986, 73.344523302144, 195.38765382246, 250
7987, 49.630623141509, 32.843411873537, 250
7988, 57.464600055232, 183.04989105633, 250
7989, 67.300116027033, 199.37599809753, 250
7990, 51.716182227087, 211.54133831598, 250
7991, 63.639546829217, 177.56941963931, 250
7992, 53.227774195158, 38.181534906656, 250
7993, 42.729049701893, 23.136143671152, 250
7994, 39.415063398159, 143.27067092822, 250
7995, 53.063157841339, 23.80098417092, 250
7996, 34.200012242557, 159.54733596505, 250
7997, 54.456354109179, 43.107271758905, 250
7998, 43.680664125597, 149.60115334557, 250
7999, 42.330092686366, 147.55062716868, 250
8000, 41.203503195788, 171.17719484575, 250
8001, 38.63707106226, 177.00722526312, 250
8002, 63.843055768007, 22.057981825407, 250
8003, 52.17909547673, 158.73084404104, 250
8004, 57.061181424769, 20.497849244102, 250
8005, 34.933463488904, 141.60909144398, 250
8006, 50.80641322589, 136.42390073803, 250
8007, 36.937696955807, 84.530490508082, 250
8008, 36.540499420244, 96.396326737922, 250
8009, 52.106314488464, 120.55397642386, 250
8010, 41.727459664961, 34.898749530183, 250
8011, 35.928191791611, 112.19273545969, 250
8012, 45.271557391627, 19.129562970507, 250
8013, 49.939607594128, 29.340576222887, 250
8014, 57.014144762271, 41.570379896095, 250
8015, 36.216846455814, 99.753423870042, 250
8016, 41.224086130052, 45.947116971388, 250
8017, 52.952272399263, 162.88655321242, 250
8018, 66.12672410298, 211.51003876761, 250
8019, 40.39879054365, 105.08572155949, 250
8020, 50.200438142956, 21.756416856674, 250
8021, 27.69475941786, 194.48712342419, 250
8022, 48.838474290319, 41.786433012405, 250
8023, 53.091991021327, 204.70823993781, 250
8024, 40.690588411673, 205.68339654718, 250
8025, 44.601289089204, 37.00935126241, 250
8026, 54.945303306951, 0.045172748562542, 250
8027, 67.640142125174, 36.655506887845, 250
8028, 40.702934449365, 93.266216690317, 250
8029, 5.5959348509841, 200.84062872929, 250
8030, 55.067523367355, 15.283349137652, 250
8031, 70.891603615716, 23.394022498225, 250
8032, 68.416789994136, 192.89216859233, 250
8033, 42.64002004529, 16.516687336591, 250
8034, 44.372488763331, 166.00147762536, 250
8035, 41.00026996303, 81.445619068742, 250
8036, 42.16392839914, 193.90037193604, 250
8037, 46.667157096629, 116.1769664596, 250
8038, 37.345714820815, 172.8774995389, 250
8039, 36.677993075018, 87.971258203777, 250
8040, 58.958159037814, 195.59212511969, 250
8041, 39.460858538903, 188.13683695863, 250
8042, 47.339184856481, 184.02079485268, 250
8043, 72.425587698984, 202.24097677859, 250
8044, 48.590953916084, 24.45884209874, 250
8045, 54.917694765438, 146.0926757765, 250
8046, 2.0983898410763, 203.5, 250
8047, 38.589117813938, 33.383232113063, 250
8048, 39.173424613283, 148.06156588863, 250
8049, 47.528561588388, 147.34413946926, 250
8050, 44.764553708894, 25.402933453079, 250
8051, 44.073509278469, 125.03757092777, 250
8052, 58.727222840922, 174.45195599093, 250
8053, 39.941393059345, 131.28014856467, 250
8054, 51.51535005816, 110.34492201554, 250
8055, 35.515105100917, 124.31435248909, 250
8056, 37.597548901199, 195.3994102352, 250
8057, 72.139652637943, 199.22745362313, 250
8058, 49.306304184751, 11.330099429514, 250
8059, 37.661356389927, 76.208697381056, 250
8060, 42.504743350796, 139.88744111615, 250
8061, 64.675899698919, 24.382319801707, 250
8062, 63.849183463296, 32.711803644738, 250
8063, 44.408877977085, 142.21808718765, 250
8064, 43.799310755268, 61.299734260732, 250
8065, 44.6953250725, 111.25139636327, 250
8066, 52.142181625582, 4.7383789081578, 250
8067, 42.355593293533, 175.1876501679, 250
8068, 70.082719957291, 36.121782858053, 250
8069, 10.141176149632, 195.04564808299, 250
8070, 43.094742055034, 109.15549583684, 250
8071, 33.611088749427, 174.9108341158, 250
8072, 50.794566539889, 128.98729947651, 250
8073, 44.325523650284, 183.04154044744, 250
8074, 47.959612152641, 3.3667670119333, 250
8075, 51.238418202857, 124.00005087157, 250
8076, 45.840972569056, 137.39608510991, 250
8077, 28.719146279078, 211.72476227586, 250
8078, 51.187007727205, 154.50990446236, 250
8079, 38.913232703606, 120.42260578354, 250
8080, 42.965890828845, 184.94069138184, 250
8081, 31.606853820036, 192.05888804327, 250
8082, 54.271834522672, 18.588590238352, 250
8083, 69.052152085046, 211.7299302018, 250
8084, 55.270572623571, 137.6340189103, 250
8085, 42.932598777648, 118.50982093791, 250
8086, 60.163517860493, 189.42922803658, 250
8087, 49.257705825301, 165.25145387951, 250
8088, 54.522663872916, 166.74476187707, 250
8089, 51.52725812159, 26.765437294187, 250
8090, 57.057193087472, 199.04355187588, 250
8091, 76.776934606707, 203.70232821534, 250
8092, 59.336783813751, 178.48613776537, 250
8093, 52.15367283113, 198.81097618848, 250
8094, 53.268426533093, 36.283464744058, 250
8095, 35.974566964441, 211.60817221685, 250
8096, 38.018880537801, 133.17950200562, 250
8097, 65.031873193989, 187.63351619453, 250
8098, 40.570330870508, 98.330856559058, 250
8099, 66.012661253722, 208.80883789996, 250
8100, 51.619652270564, 35.454721070407, 250
8101, 51.537297714561, -0.011405060354321, 250
8102, 51.58947048699, 98.427920521207, 250
8103, 39.847406572136, 181.5353343185, 250
8104, 55.314398104658, 149.43677574645, 250
8105, 68.517934148258, 21.535202756808, 250
8106, 38.346170439467, 42.021211636695, 250
8107, 62.334765424078, 29.170859675997, 250
8108, 58.258638758029, 188.55723143321, 250
8109, 37.162279125404, 67.331452448166, 250
8110, 68.596344153024, 207.94815095375, 250
8111, 39.819853868736, 165.60060084912, 250
8112, 43.837635657909, 78.164008845916, 250
8113, 40.017528563168, 203.03303742876, 250
8114, 43.858985113236, 90.004180754969, 250
8115, 46.027408813425, 212.0688144177, 250
8116, 46.050207444099, 194.5970830472, 250
8117, 52.515272047028, 107.70464135423, 250
8118, 74.455208328245, 193.54746443292, 250
8119, 50.38479126118, 191.14559009747, 250
8120, 68.392949116329, 190.86939299912, 250
8121, 50.771461914248, 131.43995447593, 250
8122, 55.460251443258, 20.907242858691, 250
8123, 40.934971684248, 162.98439102583, 250
8124, 35.282375601462, 129.24985991563, 250
8125, 45.47490919107, 157.41290613381, 250
8126, 63.551663032605, 195.43716121835, 250
8127, 39.183396334567, 124.49135588014, 250
8128, 36.954053491075, 156.0605636288, 250
8129, 30.513001409265, 197.57420782464, 250
8130, 69.188401969294, 186.92204649942, 250
8131, 79.334372641859, 194.50451195408, 250
8132, 45.949024159287, 173.17377572522, 250
8133, 38.947253136346, 0.96337414723378, 250
8134, 41.172687902198, -1.0134812009998, 250
8135, 53.901439512085, 173.53357142285, 250
8136, 43.30037260527, 101.93493792968, 250
8137, 55.202210760418, 41.169647928044, 250
8138, 50.814664597376, 205.9220812813, 250
8139, 52.691282682165, 95.82075751816, 250
8140, 51.433212496881, 116.04358699442, 250
8141, 57.542026042214, 39.028299910938, 250
8142, 55.478994395573, 131.14837173293, 250
8143, 62.475765583217, 193.32684584137, 250
8144, 50.24143836846, 184.8340557198, 250
8145, 47.759967282262, 107.69474156726, 250
8146, 48.875305947595, 31.116990236091, 250
8147, 37.19193216081, 73.183267551905, 250
8148, 43.026570879028, 20.879104945741, 250
8149, 40.433505945587, 109.72628560803, 250
8150, 58.090590566733, 167.54712819144, 250
8151, 51.501044591939, 87.502186956523, 250
8152, 44.208068035428, 187.22907161612, 250
8153, 61.827617089998, 211.73483452959, 250
8154, 49.81719849354, 201.94628490562, 250
8155, 21.787552980951, 208.17981833814, 250
8156, 49.226705821279, 26.245588547459, 250
8157, 34.52993104709, 144.32975807442, 250
8158, 48.572840152668, 20.778318379968, 250
8159, 57.433268830733, 26.942002825331, 250
8160, 52.736043017391, 83.941953899257, 250
8161, 39.891848795816, 112.1855027252, 250
8162, 78.509938053198, 212.39800932401, 250
8163, 48.530898448926, 49.062677010264, 250
8164, 41.529156485214, 69.960975616058, 250
8165, 48.98721731508, 204.31755050461, 250
8166, 70.973394963054, 38.437004180568, 250
8167, 40.869517381866, 86.520542291064, 250
8168, 47.869490382675, 95.849520514567, 250
8169, 64.043454680466, 201.83964940972, 250
8170, 52.113355191358, 133.77009497677, 250
8171, 38.28038413798, 160.09585405845, 250
8172, 32.431738635035, 199.61506146287, 250
8173, 55.490420612761, 143.1280068395, 250
8174, 46.21699322168, 99.441185233724, 250
8175, 51.120809604919, 7.1372995225102, 250
8176, 55.141343041104, 50.313276981489, 250
8177, 34.496224137823, 148.62471285168, 250
8178, 52.062455373145, 145.8475249383, 250
8179, 46.574318385668, 207.72146191654, 250
8180, 38.290955828611, 145.48079187703, 250
8181, 59.369399840506, 185.18695753793, 250
8182, 8.5842776267004, 207.84298533095, 250
8183, 37.821521883346, 48.656675333394, 250
8184, 54.723054413136, 196.07476557391, 250
8185, 35.50032856016, 193.65734626499, 250
8186, 55.676963683402, 7.7498476719561, 250
8187, 32.361735659461, 195.65588277902, 250
8188, 52.779951753631, 72.063906540557, 250
8189, 50.148054773448, 180.50396545788, 250
8190, 57.385153421083, 22.93439211309, 250
8191, 80.754293612351, 210.55548757297, 250
8192, 39.230387908327, 95.878992819446, 250
8193, 47.97454273437, 84.004256385605, 250
8194, 50.60126367667, 118.46161000543, 250
8195, 68.848795313574, 40.531435385771, 250
8196, 44.695222239519, 154.59250281232, 250
8197, 35.355008670596, 117.78481991587, 250
8198, 10.247695825336, 212.06205864197, 250
8199, 57.111501791992, 205.78686089702, 250
8200, 42.647052292688, 196.12084181626, 250
8201, 39.625655203338, 84.02948409739, 250
8202, 46.436236572112, 125.26176749519, 250
8203, 21.117244059087, 203.00224632075, 250
8204, 51.760415464447, 75.565728372907, 250
8205, 55.558578699236, 122.54532348576, 250
8206, 52.031231831325, 169.52030256471, 250
8207, 43.040875771453, 27.330413389021, 250
8208, 45.290961450124, 87.638203354241, 250
8209, 45.156600526023, 103.80965793768, 250
8210, 55.664469311674, 176.74508265465, 250
8211, 71.381981997997, 190.45666047474, 250
8212, 53.540978615546, 188.13077518241, 250
8213, 52.381061079325, 50.988847009, 250
8214, 28.190407721808, 201.45609849192, 250
8215, 35.830076921333, 208.97744952517, 250
8216, 46.163817469416, 56.913756613678, 250
8217, 46.573644822787, 14.603117560623, 250
8218, 48.121658743187, 71.971888270193, 250
8219, 55.423008578476, 2.3179372419498, 250
8220, 43.83217698119, 208.56689198741, 250
8221, 14.183969648114, 201.34856409351, 250
8222, 43.734866095155, 85.53631946613, 250
8223, 41.380804181914, 74.177366229017, 250
8224, 41.199512248054, 50.269614848239, 250
8225, 47.055735238867, 64.101024210034, 250
8226, 36.534351329046, 185.61748363511, 250
8227, 46.912661224296, 16.662672021805, 250
8228, 47.678659208434, 169.23341292862, 250
8229, 45.447010762905, 75.838917947234, 250
8230, 43.581721876734, 97.249651033127, 250
8231, 2.4007905241288, 208.95249609788, 250
8232, 55.718355700885, 104.69915968104, 250
8233, 43.102834832589, 113.45099456819, 250
8234, 53.923703112321, 169.16654879158, 250
8235, 39.108337126896, 107.5859342996, 250
8236, 51.577378664342, 64.097050966079, 250
8237, 61.986896098576, 33.784011765452, 250
8238, 16.296967455422, 208.27959671485, 250
8239, 56.332027269777, 191.78048632039, 250
8240, 55.346896384549, 31.775440894828, 250
8241, 76.671706472794, 194.11159235902, 250
8242, 36.80397857058, 152.13673396938, 250
8243, 2.1988605720927, 198.28178887094, 250
8244, 39.581128788487, 2.8734904868041, 250
8245, 52.909787885075, 17.635421703586, 250
8246, 72.117711256823, 208.18494166305, 250
8247, 16.598917857953, 202.59818822828, 250
8248, 55.507909869837, 92.760400011976, 250
8249, 50.100935464562, 195.11949590906, 250
8250, 43.96204793351, 73.535562513677, 250
8251, 11.494208542817, 207.91684093916, 250
8252, 68.123192695807, 196.27405504153, 250
8253, 48.585958765009, 173.34707189376, 250
8254, 70.226923499651, 33.099986419613, 250
8255, 53.629938264197, 25.82221188334, 250
8256, 45.970411495406, 59.512328281789, 250
8257, 55.75178431848, 110.62099919567, 250
8258, 52.546124296263, 31.125691848838, 250
8259, 49.705839604916, 197.49835616862, 250
8260, 64.694392554958, 179.2694889164, 250
8261, 48.277757599934, 60.47052996113, 250
8262, 45.778565371287, 29.654729055907, 250
8263, 55.531599592356, 80.91754114965, 250
8264, 46.980044615057, 152.07061443752, 250
8265, 22.931940335807, 205.39011956914, 250
8266, 67.385090008833, 24.06327367298, 250
8267, 34.511503675298, 135.80670190707, 250
8268, 50.133243786598, 38.418415172459, 250
8269, 23.997216534937, 201.18885743035, 250
8270, 66.539131755605, 193.77634133668, 250
8271, 35.728683936611, 105.46075527491, 250
8272, 45.484871306847, 92.035383633979, 250
8273, 70.263054436268, 30.114983291752, 250
8274, 55.770467393869, 98.777320166411, 250
8275, 54.657694971886, 208.67339693393, 250
8276, 48.091824107964, 118.67928007029, 250
8277, 37.335567021207, 57.932929027491, 250
8278, 55.619246536946, 69.101475541062, 250
8279, 48.765972279592, 55.594802750153, 250
8280, 59.905366419107, 202.67630823745, 250
8281, 53.025382787443, 138.6209070198, 250
8282, 42.049463066503, 134.86239138547, 250
8283, 63.364765578671, 205.69179841518, 250
8284, 55.789987141865, 86.933641137151, 250
8285, 38.475457872606, 28.281135394803, 250
8286, 46.445202219438, 178.68647190937, 250
8287, 52.669476766134, 45.054871299662, 250
8288, 37.295403623356, 202.39332902229, 250
8289, 33.818159189721, 170.02995692458, 250
8290, 46.908249221862, 31.277159574079, 250
8291, 37.452682514284, 128.55817518374, 250
8292, 63.477269601811, 37.049308553185, 250
8293, 75.023301000321, 204.36987293091, 250
8294, 52.729238331114, 59.561833164295, 250
8295, 72.152942016914, 196.5227861022, 250
8296, 61.779414236695, 208.99602390501, 250
8297, 57.213790634684, 29.062056406435, 250
8298, 51.381465070053, 28.203809676827, 250
8299, 59.855544672525, 170.85782711828, 250
8300, 48.820941821688, 176.43186329127, 250
8301, 55.809164995747, 75.089962107892, 250
8302, 40.221059492029, 122.45650611597, 250
8303, 51.351348471286, 33.541489284217, 250
8304, 73.737818253081, 192.78745675018, 250
8305, 5.1233899491766, 195.10685451195, 250
8306, 57.564017059874, 203.11734699691, 250
8307, 12.365763357598, 198.14621961975, 250
8308, 64.223972765251, 30.553234007561, 250
8309, 43.216112290775, 170.36666600495, 250
8310, 41.016345394983, 189.39643175206, 250
8311, 13.169485096466, 205.63327348555, 250
8312, 40.399824201375, 184.10777674375, 250
8313, 26.038007070639, 207.98436177487, 250
8314, 2.1495710306709, 211.88827649207, 250
8315, 19.746244106374, 201.08816784111, 250
8316, 55.829603024917, 57.324443564004, 250
8317, 28.363744655723, 208.50025191129, 250
8318, 51.002294958576, 187.35723234922, 250
8319, 37.129916129738, 141.37735577847, 250
8320, 55.834450134733, 63.246283078633, 250
8321, 41.303483242755, 19.701676468482, 250
8322, 38.433848958481, 21.90296320009, 250
8323, 45.818591296457, 68.05302155761, 250
8324, 62.686467859249, 183.78873072919, 250
8325, 51.463742067784, 24.072194254886, 250
8326, 46.338127344075, 129.11037692736, 250
8327, 80.50941046936, 208.40656767345, 250
8328, 49.335429732278, 45.608841601952, 250
8329, 42.42742157618, 11.539586400967, 250
8330, 45.686624090318, 80.129262940007, 250
8331, 51.863499345082, 160.99985607482, 250
8332, 48.003953036706, 135.43459769932, 250
8333, 52.489732886189, 156.49188847234, 250
8334, 52.590655216704, 9.7485074932781, 250
8335, 36.404580546756, 170.32321582543, 250
8336, 56.955854161258, 42.946235935231, 250
8337, 52.953269350921, 141.44620987179, 250
8338, 18.759120326394, 205.52764978683, 250
8339, 55.408447980418, 135.34424408422, 250
8340, 46.517950548331, 10.772821516968, 250
8341, 40.815361102106, 38.084538922146, 250
8342, 46.117402415374, 162.24918494178, 250
8343, 80.382365769043, 206.13294010353, 250
8344, 48.126354032666, 34.185390923457, 250
8345, 17.350913994467, 198.31870204691, 250
8346, 44.039747510625, 129.58121972926, 250
8347, 44.274754465831, 66.512306920677, 250
8348, 80.880561335256, 194.52498978249, 250
8349, 37.953607363201, 116.16296902224, 250
8350, 67.986789237522, 184.31091364672, 250
8351, 45.077368970403, 8.534443926394, 250
8352, 27.890644878872, 203.91616837552, 250
8353, 37.757376525435, 52.737944426398, 250
8354, 56.835088104761, 178.32795650146, 250
8355, 73.896202284379, 196.58986604906, 250
8356, 35.939925018403, 93.761809771266, 250
8357, 40.836553736899, 42.724700588006, 250
8358, 37.456323038877, 63.195338464774, 250
8359, 58.434074966462, 20.572849786192, 250
8360, 42.53826650967, 2.4219187247698, 250
8361, 66.729182365909, 29.853801021543, 250
8362, 70.241975904883, 27.195377124963, 250
8363, 42.518712784781, 151.48441095551, 250
8364, 34.035048353129, 192.15118361086, 250
8365, 35.565718052173, 109.5941936272, 250
8366, 33.520505322153, 163.28854165513, 250
8367, 34.001572298787, 212.33659060689, 250
8368, 4.4542653690412, 212.39708017396, 250
8369, 43.81647265535, 29.522624426996, 250
8370, 77.631109838873, 199.52996715437, 250
8371, 42.84932256823, 122.69637315807, 250
8372, 41.081575592473, 24.177032177432, 250
8373, 59.47220456998, 40.6059901367, 250
8374, 22.245681931032, 198.65285999247, 250
8375, 5.0733531176522, 205.43498965828, 250
8376, 55.911423245254, 155.03479555539, 250
8377, 37.039321508716, 69.241478993355, 250
8378, 52.947194058361, 39.844606228058, 250
8379, 64.961121539683, 26.685708568816, 250
8380, 46.039059774419, 149.76182790871, 250
8381, 36.239140758467, 81.874328716792, 250
8382, 17.243936652105, 211.91466919155, 250
8383, 32.026371229867, 189.62058481532, 250
8384, 40.265960181583, 209.75116315172, 250
8385, 32.726102692139, 183.84192497856, 250
8386, 37.921687495481, 40.077766158582, 250
8387, 46.219421821476, 48.261832868295, 250
8388, 38.332174358725, 100.21879926384, 250
8389, 63.845140372728, 212.33641366924, 250
8390, 53.240230208952, 103.11616740516, 250
8391, 74.145116535294, 198.91038912485, 250
8392, 38.723863611359, 9.970825675278, 250
8393, 50.139463995226, 23.444460945658, 250
8394, 37.575959044475, 137.78383525267, 250
8395, 39.719394239587, 129.14858602693, 250
8396, 7.0883611697062, 202.34665864877, 250
8397, 60.159859528868, 21.170431787429, 250
8398, 69.644058989082, 24.911638482898, 250
8399, 42.263864251256, 48.401834254867, 250
8400, 58.455243166261, 41.478472678769, 250
8401, 39.08938160804, 15.115346505693, 250
8402, 52.137219809519, 191.82664567616, 250
8403, 53.348311280781, 91.412983982046, 250
8404, 36.543796525969, 177.71200214977, 250
8405, 15.063271800071, 194.86752568738, 250
8406, 42.8074391537, 9.004442265403, 250
8407, 61.798775465256, 21.920592354954, 250
8408, 41.666411748087, 57.942454452225, 250
8409, 40.271091107434, 75.99880216028, 250
8410, 53.294969246988, 112.15926345337, 250
8411, 55.770329213313, 212.00273791527, 250
8412, 60.84950783048, 40.79866874677, 250
8413, 24.093926447917, 209.3609268974, 250
8414, 74.300695764556, 194.61073154353, 250
8415, 53.388112090519, 79.656098868856, 250
8416, 21.25042334055, 194.52306054978, 250
8417, 1.6930568075373, 194.74241341513, 250
8418, 40.612851540244, 179.34486896889, 250
8419, 76.284278975609, 196.30057318609, 250
8420, 53.436117931266, 100.28676427949, 250
8421, 45.719750686484, 145.03802522265, 250
8422, 50.640374078429, 2.6734052070114, 250
8423, 52.951244602224, 127.97767826831, 250
8424, 37.902196825513, 113.29350873708, 250
8425, 37.449529156623, 125.22509712597, 250
8426, 50.916640113875, 43.699341661701, 250
8427, 38.765133263802, 88.419467614946, 250
8428, 53.456512643465, 67.817692528649, 250
8429, 33.225927224487, 180.02697056539, 250
8430, 50.365044359058, 15.727939142054, 250
8431, 48.522328638308, 6.4707381859437, 250
8432, 46.32133919439, 27.593270114076, 250
8433, 56.898710747885, 19.004661129283, 250
8434, 57.402093089745, 37.565110159851, 250
8435, 59.116859416329, 39.269647347428, 250
8436, 40.100589819804, 72.469434143599, 250
8437, 47.877268511764, 145.17847618454, 250
8438, 53.038057379624, 22.105153055902, 250
8439, 48.013012446714, 180.9857920062, 250
8440, 49.150187805656, 155.4260244698, 250
8441, 76.167677511594, 195.0937459614, 250
8442, 59.850171387207, 31.375895738185, 250
8443, 80.797239715696, 197.73991838366, 250
8444, 41.801001601389, 158.48242477084, 250
8445, 43.998458704319, 38.583775314853, 250
8446, 63.105278658801, 186.33940345433, 250
8447, 53.292187574094, 115.06655595068, 250
8448, 65.549711923975, 203.08484056963, 250
******* E L E M E N T S *************
*ELEMENT, type=T3D2, ELSET=Line1
81, 1, 81
82, 81, 2
*ELEMENT, type=T3D2, ELSET=Line2
83, 2, 82
84, 82, 83
85, 83, 84
86, 84, 85
87, 85, 86
88, 86, 3
*ELEMENT, type=T3D2, ELSET=Line3
89, 3, 87
90, 87, 4
*ELEMENT, type=T3D2, ELSET=Line4
91, 4, 88
92, 88, 89
93, 89, 90
94, 90, 91
95, 91, 92
96, 92, 1
*ELEMENT, type=T3D2, ELSET=Line5
97, 5, 93
98, 93, 94
99, 94, 95
100, 95, 96
101, 96, 97
102, 97, 98
103, 98, 99
104, 99, 100
105, 100, 101
106, 101, 102
107, 102, 103
108, 103, 104
109, 104, 105
110, 105, 106
111, 106, 107
112, 107, 108
113, 108, 109
114, 109, 110
115, 110, 6
*ELEMENT, type=T3D2, ELSET=Line6
116, 5, 111
117, 111, 112
118, 112, 113
119, 113, 114
120, 114, 115
121, 115, 116
122, 116, 7
*ELEMENT, type=T3D2, ELSET=Line7
123, 8, 117
124, 117, 118
125, 118, 119
126, 119, 120
127, 120, 121
128, 121, 122
129, 122, 123
130, 123, 124
131, 124, 125
132, 125, 126
133, 126, 127
134, 127, 128
135, 128, 129
136, 129, 130
137, 130, 131
138, 131, 132
139, 132, 133
140, 133, 134
141, 134, 7
*ELEMENT, type=T3D2, ELSET=Line8
142, 8, 135
143, 135, 136
144, 136, 137
145, 137, 138
146, 138, 139
147, 139, 140
148, 140, 6
*ELEMENT, type=T3D2, ELSET=Line9
149, 9, 141
150, 141, 142
151, 142, 143
152, 143, 144
153, 144, 145
154, 145, 146
155, 146, 147
156, 147, 148
157, 148, 10
*ELEMENT, type=T3D2, ELSET=Line10
158, 11, 149
159, 149, 150
160, 150, 151
161, 151, 152
162, 152, 153
163, 153, 154
164, 154, 155
165, 155, 156
166, 156, 9
*ELEMENT, type=T3D2, ELSET=Line11
167, 11, 157
168, 157, 158
169, 158, 159
170, 159, 160
171, 160, 161
172, 161, 162
173, 162, 163
174, 163, 164
175, 164, 165
176, 165, 166
177, 166, 167
178, 167, 168
179, 168, 169
180, 169, 10
*ELEMENT, type=T3D2, ELSET=Line12
181, 7, 170
182, 170, 12
*ELEMENT, type=T3D2, ELSET=Line13
183, 13, 171
184, 171, 172
185, 172, 173
186, 173, 174
187, 174, 175
188, 175, 176
189, 176, 177
190, 177, 178
191, 178, 179
192, 179, 180
193, 180, 181
194, 181, 182
195, 182, 183
196, 183, 184
197, 184, 185
198, 185, 186
199, 186, 187
200, 187, 188
201, 188, 12
*ELEMENT, type=T3D2, ELSET=Line14
202, 13, 189
203, 189, 8
*ELEMENT, type=T3D2, ELSET=Line15
204, 14, 190
205, 190, 191
206, 191, 192
207, 192, 193
208, 193, 194
209, 194, 15
*ELEMENT, type=T3D2, ELSET=Line16
210, 16, 195
211, 195, 15
*ELEMENT, type=T3D2, ELSET=Line17
212, 16, 196
213, 196, 197
214, 197, 198
215, 198, 199
216, 199, 200
217, 200, 201
218, 201, 17
*ELEMENT, type=T3D2, ELSET=Line18
219, 17, 202
220, 202, 14
*ELEMENT, type=T3D2, ELSET=Line19
221, 2, 203
222, 203, 204
223, 204, 205
224, 205, 18
*ELEMENT, type=T3D2, ELSET=Line20
225, 18, 206
226, 206, 207
227, 207, 208
228, 208, 209
229, 209, 210
230, 210, 19
*ELEMENT, type=T3D2, ELSET=Line21
231, 19, 211
232, 211, 212
233, 212, 213
234, 213, 3
*ELEMENT, type=T3D2, ELSET=Line22
235, 20, 214
236, 214, 215
237, 215, 216
238, 216, 217
239, 217, 218
240, 218, 219
241, 219, 220
242, 220, 221
243, 221, 222
244, 222, 223
245, 223, 224
246, 224, 225
247, 225, 226
248, 226, 227
249, 227, 228
250, 228, 229
251, 229, 21
*ELEMENT, type=T3D2, ELSET=Line23
252, 21, 230
253, 230, 231
254, 231, 10
*ELEMENT, type=T3D2, ELSET=Line24
255, 11, 232
256, 232, 233
257, 233, 20
*ELEMENT, type=T3D2, ELSET=Line25
258, 12, 234
259, 234, 235
260, 235, 236
261, 236, 237
262, 237, 238
263, 238, 239
264, 239, 240
265, 240, 241
266, 241, 242
267, 242, 243
268, 243, 244
269, 244, 245
270, 245, 246
271, 246, 247
272, 247, 248
273, 248, 249
274, 249, 250
275, 250, 251
276, 251, 252
277, 252, 253
278, 253, 254
279, 254, 255
280, 255, 256
281, 256, 257
282, 257, 258
283, 258, 259
284, 259, 22
*ELEMENT, type=T3D2, ELSET=Line26
285, 22, 260
286, 260, 261
287, 261, 262
288, 262, 263
289, 263, 264
290, 264, 265
291, 265, 266
292, 266, 267
293, 267, 268
294, 268, 269
295, 269, 270
296, 270, 271
297, 271, 272
298, 272, 273
299, 273, 274
300, 274, 275
301, 275, 276
302, 276, 277
303, 277, 278
304, 278, 14
*ELEMENT, type=T3D2, ELSET=Line27
305, 15, 279
306, 279, 280
307, 280, 281
308, 281, 282
309, 282, 283
310, 283, 23
*ELEMENT, type=T3D2, ELSET=Line28
311, 23, 284
312, 284, 285
313, 285, 286
314, 286, 287
315, 287, 288
316, 288, 289
317, 289, 290
318, 290, 291
319, 291, 292
320, 292, 293
321, 293, 294
322, 294, 295
323, 295, 296
324, 296, 24
*ELEMENT, type=T3D2, ELSET=Line29
325, 24, 297
326, 297, 25
*ELEMENT, type=T3D2, ELSET=Line30
327, 25, 298
328, 298, 299
329, 299, 300
330, 300, 13
*ELEMENT, type=T3D2, ELSET=Line31
331, 17, 301
332, 301, 302
333, 302, 303
334, 303, 304
335, 304, 305
336, 305, 306
337, 306, 26
*ELEMENT, type=T3D2, ELSET=Line32
338, 27, 307
339, 307, 308
340, 308, 309
341, 309, 310
342, 310, 311
343, 311, 312
344, 312, 26
*ELEMENT, type=T3D2, ELSET=Line33
345, 27, 313
346, 313, 314
347, 314, 315
348, 315, 316
349, 316, 317
350, 317, 318
351, 318, 16
*ELEMENT, type=T3D2, ELSET=Line34
352, 28, 319
353, 319, 320
354, 320, 321
355, 321, 322
356, 322, 323
357, 323, 324
358, 324, 325
359, 325, 326
360, 326, 327
361, 327, 328
362, 328, 329
363, 329, 330
364, 330, 331
365, 331, 332
366, 332, 333
367, 333, 334
368, 334, 335
369, 335, 336
370, 336, 337
371, 337, 29
*ELEMENT, type=T3D2, ELSET=Line35
372, 29, 338
373, 338, 339
374, 339, 340
375, 340, 341
376, 341, 342
377, 342, 343
378, 343, 344
379, 344, 345
380, 345, 346
381, 346, 347
382, 347, 348
383, 348, 349
384, 349, 350
385, 350, 351
386, 351, 352
387, 352, 353
388, 353, 354
389, 354, 355
390, 355, 356
391, 356, 357
392, 357, 358
393, 358, 359
394, 359, 360
395, 360, 361
396, 361, 362
397, 362, 363
398, 363, 364
399, 364, 365
400, 365, 366
401, 366, 367
402, 367, 368
403, 368, 369
404, 369, 370
405, 370, 371
406, 371, 372
407, 372, 373
408, 373, 374
409, 374, 375
410, 375, 376
411, 376, 377
412, 377, 378
413, 378, 379
414, 379, 380
415, 380, 381
416, 381, 382
417, 382, 383
418, 383, 384
419, 384, 385
420, 385, 386
421, 386, 387
422, 387, 388
423, 388, 389
424, 389, 390
425, 390, 391
426, 391, 392
427, 392, 393
428, 393, 394
429, 394, 395
430, 395, 396
431, 396, 397
432, 397, 398
433, 398, 399
434, 399, 20
*ELEMENT, type=T3D2, ELSET=Line36
435, 21, 400
436, 400, 401
437, 401, 402
438, 402, 403
439, 403, 404
440, 404, 405
441, 405, 406
442, 406, 407
443, 407, 408
444, 408, 409
445, 409, 410
446, 410, 411
447, 411, 412
448, 412, 413
449, 413, 414
450, 414, 415
451, 415, 416
452, 416, 417
453, 417, 418
454, 418, 419
455, 419, 420
456, 420, 421
457, 421, 422
458, 422, 423
459, 423, 424
460, 424, 425
461, 425, 426
462, 426, 427
463, 427, 428
464, 428, 429
465, 429, 430
466, 430, 431
467, 431, 432
468, 432, 433
469, 433, 434
470, 434, 435
471, 435, 436
472, 436, 437
473, 437, 438
474, 438, 439
475, 439, 440
476, 440, 441
477, 441, 442
478, 442, 443
479, 443, 444
480, 444, 445
481, 445, 446
482, 446, 447
483, 447, 448
484, 448, 449
485, 449, 450
486, 450, 451
487, 451, 452
488, 452, 453
489, 453, 454
490, 454, 455
491, 455, 456
492, 456, 457
493, 457, 458
494, 458, 459
495, 459, 460
496, 460, 461
497, 461, 28
*ELEMENT, type=T3D2, ELSET=Line37
498, 26, 462
499, 462, 463
500, 463, 464
501, 464, 465
502, 465, 466
503, 466, 467
504, 467, 468
505, 468, 469
506, 469, 470
507, 470, 471
508, 471, 472
509, 472, 473
510, 473, 474
511, 474, 475
512, 475, 476
513, 476, 477
514, 477, 478
515, 478, 479
516, 479, 480
517, 480, 481
518, 481, 482
519, 482, 483
520, 483, 484
521, 484, 485
522, 485, 486
523, 486, 487
524, 487, 488
525, 488, 489
526, 489, 490
527, 490, 491
528, 491, 492
529, 492, 493
530, 493, 494
531, 494, 495
532, 495, 496
533, 496, 497
534, 497, 498
535, 498, 499
536, 499, 500
537, 500, 501
538, 501, 502
539, 502, 503
540, 503, 504
541, 504, 505
542, 505, 506
543, 506, 507
544, 507, 508
545, 508, 509
546, 509, 510
547, 510, 511
548, 511, 512
549, 512, 513
550, 513, 514
551, 514, 515
552, 515, 516
553, 516, 517
554, 517, 518
555, 518, 519
556, 519, 520
557, 520, 521
558, 521, 522
559, 522, 523
560, 523, 524
561, 524, 525
562, 525, 526
563, 526, 30
*ELEMENT, type=T3D2, ELSET=Line38
564, 30, 527
565, 527, 528
566, 528, 529
567, 529, 530
568, 530, 531
569, 531, 532
570, 532, 31
*ELEMENT, type=T3D2, ELSET=Line39
571, 31, 533
572, 533, 534
573, 534, 535
574, 535, 536
575, 536, 537
576, 537, 538
577, 538, 539
578, 539, 540
579, 540, 541
580, 541, 542
581, 542, 543
582, 543, 544
583, 544, 545
584, 545, 546
585, 546, 547
586, 547, 548
587, 548, 549
588, 549, 550
589, 550, 551
590, 551, 552
591, 552, 553
592, 553, 554
593, 554, 555
594, 555, 556
595, 556, 557
596, 557, 558
597, 558, 559
598, 559, 560
599, 560, 561
600, 561, 562
601, 562, 563
602, 563, 564
603, 564, 565
604, 565, 566
605, 566, 567
606, 567, 568
607, 568, 569
608, 569, 570
609, 570, 571
610, 571, 572
611, 572, 573
612, 573, 574
613, 574, 575
614, 575, 576
615, 576, 577
616, 577, 578
617, 578, 579
618, 579, 580
619, 580, 581
620, 581, 582
621, 582, 583
622, 583, 584
623, 584, 585
624, 585, 586
625, 586, 587
626, 587, 588
627, 588, 589
628, 589, 590
629, 590, 591
630, 591, 592
631, 592, 593
632, 593, 594
633, 594, 595
634, 595, 596
635, 596, 597
636, 597, 27
*ELEMENT, type=T3D2, ELSET=Line40
637, 32, 598
638, 598, 599
639, 599, 600
640, 600, 601
641, 601, 602
642, 602, 603
643, 603, 604
644, 604, 605
645, 605, 606
646, 606, 607
647, 607, 608
648, 608, 609
649, 609, 610
650, 610, 611
651, 611, 612
652, 612, 613
653, 613, 614
654, 614, 615
655, 615, 616
656, 616, 617
657, 617, 618
658, 618, 619
659, 619, 620
660, 620, 33
*ELEMENT, type=T3D2, ELSET=Line41
661, 33, 621
662, 621, 622
663, 622, 623
664, 623, 624
665, 624, 625
666, 625, 626
667, 626, 34
*ELEMENT, type=T3D2, ELSET=Line42
668, 34, 627
669, 627, 628
670, 628, 629
671, 629, 630
672, 630, 35
*ELEMENT, type=T3D2, ELSET=Line43
673, 35, 631
674, 631, 632
675, 632, 633
676, 633, 634
677, 634, 635
678, 635, 636
679, 636, 637
680, 637, 638
681, 638, 36
*ELEMENT, type=T3D2, ELSET=Line44
682, 36, 639
683, 639, 640
684, 640, 641
685, 641, 642
686, 642, 37
*ELEMENT, type=T3D2, ELSET=Line45
687, 37, 643
688, 643, 644
689, 644, 645
690, 645, 646
691, 646, 647
692, 647, 648
693, 648, 649
694, 649, 650
695, 650, 651
696, 651, 652
697, 652, 653
698, 653, 654
699, 654, 655
700, 655, 656
701, 656, 657
702, 657, 658
703, 658, 659
704, 659, 660
705, 660, 661
706, 661, 662
707, 662, 663
708, 663, 664
709, 664, 665
710, 665, 666
711, 666, 667
712, 667, 668
713, 668, 669
714, 669, 670
715, 670, 671
716, 671, 672
717, 672, 673
718, 673, 674
719, 674, 675
720, 675, 676
721, 676, 677
722, 677, 678
723, 678, 679
724, 679, 680
725, 680, 681
726, 681, 38
*ELEMENT, type=T3D2, ELSET=Line46
727, 38, 682
728, 682, 39
*ELEMENT, type=T3D2, ELSET=Line47
729, 39, 683
730, 683, 684
731, 684, 40
*ELEMENT, type=T3D2, ELSET=Line48
732, 40, 685
733, 685, 686
734, 686, 687
735, 687, 688
736, 688, 689
737, 689, 690
738, 690, 691
739, 691, 41
*ELEMENT, type=T3D2, ELSET=Line49
740, 41, 692
741, 692, 693
742, 693, 694
743, 694, 695
744, 695, 696
745, 696, 697
746, 697, 698
747, 698, 699
748, 699, 700
749, 700, 701
750, 701, 702
751, 702, 703
752, 703, 704
753, 704, 705
754, 705, 706
755, 706, 707
756, 707, 708
757, 708, 709
758, 709, 710
759, 710, 711
760, 711, 42
*ELEMENT, type=T3D2, ELSET=Line50
761, 42, 712
762, 712, 713
763, 713, 714
764, 714, 715
765, 715, 716
766, 716, 717
767, 717, 718
768, 718, 719
769, 719, 720
770, 720, 721
771, 721, 722
772, 722, 723
773, 723, 724
774, 724, 725
775, 725, 726
776, 726, 727
777, 727, 728
778, 728, 729
779, 729, 730
780, 730, 731
781, 731, 732
782, 732, 733
783, 733, 734
784, 734, 735
785, 735, 736
786, 736, 737
787, 737, 738
788, 738, 739
789, 739, 740
790, 740, 741
791, 741, 742
792, 742, 743
793, 743, 744
794, 744, 745
795, 745, 746
796, 746, 747
797, 747, 748
798, 748, 749
799, 749, 750
800, 750, 751
801, 751, 752
802, 752, 753
803, 753, 754
804, 754, 755
805, 755, 756
806, 756, 757
807, 757, 758
808, 758, 759
809, 759, 760
810, 760, 761
811, 761, 762
812, 762, 763
813, 763, 764
814, 764, 765
815, 765, 766
816, 766, 767
817, 767, 768
818, 768, 769
819, 769, 770
820, 770, 771
821, 771, 772
822, 772, 773
823, 773, 774
824, 774, 775
825, 775, 32
*ELEMENT, type=T3D2, ELSET=Line51
826, 43, 776
827, 776, 777
828, 777, 778
829, 778, 779
830, 779, 780
831, 780, 781
832, 781, 782
833, 782, 783
834, 783, 784
835, 784, 785
836, 785, 786
837, 786, 787
838, 787, 788
839, 788, 789
840, 789, 790
841, 790, 791
842, 791, 792
843, 792, 793
844, 793, 794
845, 794, 795
846, 795, 44
*ELEMENT, type=T3D2, ELSET=Line52
847, 43, 796
848, 796, 29
*ELEMENT, type=T3D2, ELSET=Line53
849, 28, 797
850, 797, 44
*ELEMENT, type=T3D2, ELSET=Line54
851, 44, 798
852, 798, 799
853, 799, 800
854, 800, 801
855, 801, 802
856, 802, 803
857, 803, 30
*ELEMENT, type=T3D2, ELSET=Line55
858, 33, 804
859, 804, 805
860, 805, 806
861, 806, 807
862, 807, 808
863, 808, 43
*ELEMENT, type=T3D2, ELSET=Line56
864, 32, 31
*ELEMENT, type=T3D2, ELSET=Line57
865, 45, 809
866, 809, 810
867, 810, 811
868, 811, 812
869, 812, 813
870, 813, 814
871, 814, 46
*ELEMENT, type=T3D2, ELSET=Line58
872, 6, 815
873, 815, 45
*ELEMENT, type=T3D2, ELSET=Line59
874, 46, 816
875, 816, 8
*ELEMENT, type=T3D2, ELSET=Line60
876, 47, 817
877, 817, 818
878, 818, 819
879, 819, 820
880, 820, 821
881, 821, 822
882, 822, 48
*ELEMENT, type=T3D2, ELSET=Line61
883, 45, 823
884, 823, 824
885, 824, 825
886, 825, 47
*ELEMENT, type=T3D2, ELSET=Line62
887, 48, 826
888, 826, 827
889, 827, 828
890, 828, 46
*ELEMENT, type=T3D2, ELSET=Line63
891, 46, 829
892, 829, 13
*ELEMENT, type=T3D2, ELSET=Line65
893, 15, 830
894, 830, 49
*ELEMENT, type=T3D2, ELSET=Line66
895, 49, 16
*ELEMENT, type=T3D2, ELSET=Line67
896, 50, 831
897, 831, 51
*ELEMENT, type=T3D2, ELSET=Line68
898, 51, 832
899, 832, 52
*ELEMENT, type=T3D2, ELSET=Line69
900, 53, 52
*ELEMENT, type=T3D2, ELSET=Line70
901, 53, 833
902, 833, 50
*ELEMENT, type=T3D2, ELSET=Line71
903, 52, 834
904, 834, 54
*ELEMENT, type=T3D2, ELSET=Line72
905, 55, 835
906, 835, 54
*ELEMENT, type=T3D2, ELSET=Line73
907, 55, 836
908, 836, 837
909, 837, 53
*ELEMENT, type=T3D2, ELSET=Line74
910, 54, 838
911, 838, 839
912, 839, 56
*ELEMENT, type=T3D2, ELSET=Line75
913, 57, 840
914, 840, 56
*ELEMENT, type=T3D2, ELSET=Line76
915, 57, 841
916, 841, 842
917, 842, 55
*ELEMENT, type=T3D2, ELSET=Line77
918, 58, 843
919, 843, 47
*ELEMENT, type=T3D2, ELSET=Line78
920, 57, 844
921, 844, 845
922, 845, 846
923, 846, 847
924, 847, 848
925, 848, 849
926, 849, 850
927, 850, 851
928, 851, 852
929, 852, 853
930, 853, 854
931, 854, 855
932, 855, 856
933, 856, 857
934, 857, 858
935, 858, 58
*ELEMENT, type=T3D2, ELSET=Line79
936, 50, 859
937, 859, 860
938, 860, 5
*ELEMENT, type=T3D2, ELSET=Line80
939, 58, 861
940, 861, 59
*ELEMENT, type=T3D2, ELSET=Line81
941, 60, 862
942, 862, 48
*ELEMENT, type=T3D2, ELSET=Line82
943, 60, 863
944, 863, 864
945, 864, 865
946, 865, 866
947, 866, 867
948, 867, 868
949, 868, 59
*ELEMENT, type=T3D2, ELSET=Line83
950, 61, 869
951, 869, 62
*ELEMENT, type=T3D2, ELSET=Line84
952, 61, 870
953, 870, 871
954, 871, 57
*ELEMENT, type=T3D2, ELSET=Line85
955, 56, 872
956, 872, 873
957, 873, 62
*ELEMENT, type=T3D2, ELSET=Line86
958, 4, 874
959, 874, 63
*ELEMENT, type=T3D2, ELSET=Line87
960, 64, 875
961, 875, 19
*ELEMENT, type=T3D2, ELSET=Line88
962, 63, 876
963, 876, 877
964, 877, 64
*ELEMENT, type=T3D2, ELSET=Line89
965, 18, 878
966, 878, 65
*ELEMENT, type=T3D2, ELSET=Line90
967, 66, 879
968, 879, 1
*ELEMENT, type=T3D2, ELSET=Line91
969, 65, 880
970, 880, 881
971, 881, 66
*ELEMENT, type=T3D2, ELSET=Line92
972, 23, 882
973, 882, 67
*ELEMENT, type=T3D2, ELSET=Line93
974, 67, 883
975, 883, 884
976, 884, 885
977, 885, 886
978, 886, 887
979, 887, 49
*ELEMENT, type=T3D2, ELSET=Line94
980, 67, 888
981, 888, 889
982, 889, 890
983, 890, 891
984, 891, 892
985, 892, 893
986, 893, 894
987, 894, 895
988, 895, 896
989, 896, 897
990, 897, 898
991, 898, 899
992, 899, 60
*ELEMENT, type=T3D2, ELSET=Line95
993, 24, 900
994, 900, 60
*ELEMENT, type=T3D2, ELSET=Line96
995, 25, 901
996, 901, 48
*ELEMENT, type=T3D2, ELSET=Line97
997, 68, 902
998, 902, 27
*ELEMENT, type=T3D2, ELSET=Line98
999, 49, 903
1000, 903, 904
1001, 904, 905
1002, 905, 906
1003, 906, 907
1004, 907, 908
1005, 908, 68
*ELEMENT, type=T3D2, ELSET=Line99
1006, 69, 909
1007, 909, 910
1008, 910, 911
1009, 911, 912
1010, 912, 913
1011, 913, 914
1012, 914, 915
1013, 915, 916
1014, 916, 917
1015, 917, 918
1016, 918, 919
1017, 919, 52
*ELEMENT, type=T3D2, ELSET=Line100
1018, 69, 920
1019, 920, 70
*ELEMENT, type=T3D2, ELSET=Line101
1020, 70, 921
1021, 921, 922
1022, 922, 923
1023, 923, 924
1024, 924, 925
1025, 925, 926
1026, 926, 927
1027, 927, 928
1028, 928, 929
1029, 929, 930
1030, 930, 931
1031, 931, 51
*ELEMENT, type=T3D2, ELSET=Line102
1032, 71, 932
1033, 932, 933
1034, 933, 934
1035, 934, 935
1036, 935, 936
1037, 936, 937
1038, 937, 938
1039, 938, 939
1040, 939, 54
*ELEMENT, type=T3D2, ELSET=Line103
1041, 71, 940
1042, 940, 941
1043, 941, 69
*ELEMENT, type=T3D2, ELSET=Line104
1044, 62, 942
1045, 942, 943
1046, 943, 944
1047, 944, 945
1048, 945, 946
1049, 946, 947
1050, 947, 948
1051, 948, 71
*ELEMENT, type=T3D2, ELSET=Line105
1052, 59, 949
1053, 949, 950
1054, 950, 951
1055, 951, 952
1056, 952, 953
1057, 953, 954
1058, 954, 955
1059, 955, 956
1060, 956, 957
1061, 957, 72
*ELEMENT, type=T3D2, ELSET=Line106
1062, 73, 958
1063, 958, 959
1064, 959, 72
*ELEMENT, type=T3D2, ELSET=Line107
1065, 73, 960
1066, 960, 961
1067, 961, 962
1068, 962, 963
1069, 963, 964
1070, 964, 965
1071, 965, 67
*ELEMENT, type=T3D2, ELSET=Line108
1072, 72, 966
1073, 966, 967
1074, 967, 968
1075, 968, 969
1076, 969, 970
1077, 970, 971
1078, 971, 972
1079, 972, 973
1080, 973, 974
1081, 974, 975
1082, 975, 976
1083, 976, 977
1084, 977, 61
*ELEMENT, type=T3D2, ELSET=Line109
1085, 61, 978
1086, 978, 41
*ELEMENT, type=T3D2, ELSET=Line110
1087, 41, 979
1088, 979, 62
*ELEMENT, type=T3D2, ELSET=Line111
1089, 74, 980
1090, 980, 981
1091, 981, 982
1092, 982, 983
1093, 983, 984
1094, 984, 73
*ELEMENT, type=T3D2, ELSET=Line112
1095, 68, 985
1096, 985, 74
*ELEMENT, type=T3D2, ELSET=Line113
1097, 75, 986
1098, 986, 987
1099, 987, 66
*ELEMENT, type=T3D2, ELSET=Line114
1100, 75, 988
1101, 988, 76
*ELEMENT, type=T3D2, ELSET=Line115
1102, 65, 989
1103, 989, 990
1104, 990, 991
1105, 991, 76
*ELEMENT, type=T3D2, ELSET=Line116
1106, 77, 992
1107, 992, 78
*ELEMENT, type=T3D2, ELSET=Line117
1108, 77, 993
1109, 993, 4
*ELEMENT, type=T3D2, ELSET=Line118
1110, 78, 994
1111, 994, 995
1112, 995, 63
*ELEMENT, type=T3D2, ELSET=Line119
1113, 1, 996
1114, 996, 79
*ELEMENT, type=T3D2, ELSET=Line120
1115, 75, 997
1116, 997, 79
*ELEMENT, type=T3D2, ELSET=Line122
1117, 35, 998
1118, 998, 999
1119, 999, 75
*ELEMENT, type=T3D2, ELSET=Line123
1120, 79, 1000
1121, 1000, 1001
1122, 1001, 35
*ELEMENT, type=T3D2, ELSET=Line124
1123, 80, 1002
1124, 1002, 1003
1125, 1003, 1004
1126, 1004, 64
*ELEMENT, type=T3D2, ELSET=Line125
1127, 80, 1005
1128, 1005, 78
*ELEMENT, type=T3D2, ELSET=Line126
1129, 78, 1006
1130, 1006, 1007
1131, 1007, 36
*ELEMENT, type=T3D2, ELSET=Line128
1132, 36, 1008
1133, 1008, 1009
1134, 1009, 77
*ELEMENT, type=T3D2, ELSET=Line129
1135, 70, 1010
1136, 1010, 38
*ELEMENT, type=T3D2, ELSET=Line130
1137, 69, 39
*ELEMENT, type=T3D2, ELSET=Line131
1138, 71, 1011
1139, 1011, 40
*ELEMENT, type=T3D2, ELSET=Line132
1140, 74, 1012
1141, 1012, 42
*ELEMENT, type=T3D2, ELSET=Line133
1142, 34, 1013
1143, 1013, 76
*ELEMENT, type=T3D2, ELSET=Line134
1144, 80, 1014
1145, 1014, 37
*ELEMENT, type=T3D2, ELSET=Line135
1146, 9, 1015
1147, 1015, 1016
1148, 1016, 1017
1149, 1017, 1018
1150, 1018, 1019
1151, 1019, 1020
1152, 1020, 22
*ELEMENT, type=CPS3, ELSET=Surface1
1153, 1, 81, 92
1154, 81, 2, 82
1155, 87, 86, 3
1156, 88, 87, 4
1157, 92, 81, 82
1158, 91, 82, 83
1159, 92, 82, 91
1160, 90, 83, 84
1161, 90, 91, 83
1162, 90, 84, 85
1163, 89, 85, 86
1164, 89, 90, 85
1165, 88, 86, 87
1166, 89, 86, 88
*ELEMENT, type=CPS3, ELSET=Surface2
1167, 119, 1095, 1050
1168, 1030, 1086, 1048
1169, 1024, 1127, 1053
1170, 124, 1082, 125
1171, 1082, 1109, 125
1172, 1049, 1088, 1031
1173, 1027, 1100, 1056
1174, 1057, 1100, 1027
1175, 1053, 1127, 1078
1176, 1038, 1103, 1055
1177, 1048, 1119, 1030
1178, 1053, 1078, 1027
1179, 1053, 1126, 1115
1180, 1031, 1120, 1049
1181, 1049, 1098, 1037
1182, 1034, 1089, 1050
1183, 1055, 1067, 1038
1184, 1027, 1162, 1053
1185, 1040, 1107, 1057
1186, 1051, 1108, 105
1187, 1056, 1080, 1027
1188, 1056, 1106, 1039
1189, 1124, 1151, 1080
1190, 1037, 1099, 1049
1191, 1026, 1126, 1067
1192, 1067, 1126, 1052
1193, 1047, 1098, 1094
1194, 1054, 1079, 1028
1195, 1050, 1095, 1034
1196, 1059, 1074, 130
1197, 97, 1070, 1060
1198, 1054, 1085, 1023
1199, 1027, 1078, 1057
1200, 1115, 1126, 1026
1201, 1080, 1151, 1052
1202, 1023, 1084, 1054
1203, 1053, 1115, 1096
1204, 1094, 1098, 1025
1205, 1028, 1085, 1054
1206, 1021, 1105, 1087
1207, 1103, 1146, 1055
1208, 1050, 1111, 119
1209, 1039, 1080, 1056
1210, 105, 1101, 1051
1211, 1057, 1078, 1040
1212, 118, 1095, 119
1213, 1084, 1121, 1054
1214, 1028, 1074, 1059
1215, 1029, 1121, 1084
1216, 1060, 1070, 1029
1217, 129, 1059, 130
1218, 1079, 1083, 1021
1219, 106, 1077, 107
1220, 1032, 1138, 1061
1221, 1069, 1138, 1032
1222, 1062, 1140, 1033
1223, 1053, 1096, 1024
1224, 1090, 1105, 1021
1225, 1033, 1140, 1068
1226, 97, 1060, 98
1227, 1072, 1102, 1034
1228, 1021, 1097, 1079
1229, 1107, 1159, 1057
1230, 1082, 1093, 1041
1231, 1034, 1137, 1072
1232, 1036, 1093, 1082
1233, 1046, 1102, 1072
1234, 1065, 1137, 1034
1235, 103, 1064, 104
1236, 130, 1074, 131
1237, 1030, 1101, 1064
1238, 96, 1070, 97
1239, 1119, 1153, 1030
1240, 1071, 1144, 1035
1241, 1035, 1144, 1066
1242, 1067, 1157, 1026
1243, 1031, 1154, 1120
1244, 1045, 1105, 1068
1245, 1056, 1160, 1106
1246, 1068, 1105, 1033
1247, 122, 1073, 123
1248, 1049, 1152, 1088
1249, 1055, 1157, 1067
1250, 1119, 1150, 1025
1251, 1097, 1110, 1079
1252, 1022, 1102, 1091
1253, 1058, 1153, 1119
1254, 1061, 1130, 1032
1255, 1120, 1154, 1058
1256, 1049, 1120, 1098
1257, 1033, 1128, 1062
1258, 106, 1108, 1077
1259, 122, 1129, 1073
1260, 1086, 1132, 1048
1261, 1089, 1102, 1022
1262, 1034, 1095, 1065
1263, 132, 1076, 133
1264, 1077, 1108, 1031
1265, 129, 1103, 1059
1266, 1032, 1130, 1076
1267, 1111, 1133, 1037
1268, 1030, 1153, 1101
1269, 115, 1069, 114
1270, 113, 1068, 112
1271, 94, 1075, 95
1272, 137, 1072, 136
1273, 139, 1071, 138
1274, 1080, 1162, 1027
1275, 1025, 1150, 1094
1276, 108, 1081, 109
1277, 1060, 1106, 98
1278, 1075, 1128, 1033
1279, 105, 1108, 106
1280, 1066, 1131, 1035
1281, 126, 1109, 1063
1282, 1079, 1121, 1083
1283, 1042, 1090, 1083
1284, 1028, 1110, 1074
1285, 1108, 1154, 1031
1286, 1083, 1090, 1021
1287, 1023, 1151, 1124
1288, 1029, 1155, 1060
1289, 1103, 1156, 1059
1290, 1038, 1156, 1103
1291, 1039, 1106, 1060
1292, 1098, 1120, 1025
1293, 1073, 1129, 1047
1294, 1041, 1109, 1082
1295, 108, 1114, 1081
1296, 1074, 1110, 1043
1297, 1036, 1132, 1093
1298, 1032, 1123, 1087
1299, 1047, 1094, 1073
1300, 1052, 1162, 1080
1301, 1092, 1111, 1037
1302, 1036, 1150, 1132
1303, 1035, 1131, 1081
1304, 132, 1113, 1076
1305, 1064, 1107, 1040
1306, 103, 1107, 1064
1307, 1075, 1112, 95
1308, 1087, 1123, 1097
1309, 1081, 1114, 1044
1310, 1061, 1142, 1130
1311, 1064, 1101, 104
1312, 1073, 1094, 1036
1313, 1076, 1113, 1043
1314, 93, 1145, 1062
1315, 1064, 1149, 1030
1316, 1042, 1112, 1075
1317, 1062, 1128, 93
1318, 1137, 1143, 135
1319, 1130, 1142, 134
1320, 1063, 1122, 126
1321, 116, 1142, 1138
1322, 1140, 1145, 111
1323, 140, 1148, 1144
1324, 1024, 1132, 1086
1325, 1059, 1156, 1028
1326, 1036, 1118, 1073
1327, 125, 1109, 126
1328, 1060, 1155, 1039
1329, 1069, 1116, 114
1330, 1050, 1133, 1111
1331, 113, 1116, 1068
1332, 1035, 1139, 1091
1333, 1048, 1150, 1119
1334, 1063, 1109, 1041
1335, 137, 1117, 1072
1336, 1071, 1117, 138
1337, 120, 1092, 121
1338, 1041, 1115, 1063
1339, 1022, 1099, 1089
1340, 110, 1131, 1066
1341, 1066, 1148, 110
1342, 1082, 1118, 1036
1343, 104, 1101, 105
1344, 1065, 1143, 1137
1345, 1045, 1116, 1069
1346, 1068, 1116, 1045
1347, 1040, 1149, 1064
1348, 1138, 1142, 1061
1349, 1070, 1112, 1042
1350, 1092, 1161, 1129
1351, 1072, 1117, 1046
1352, 1046, 1117, 1071
1353, 1144, 1148, 1066
1354, 1087, 1105, 1045
1355, 1101, 1153, 1051
1356, 1062, 1145, 1140
1357, 96, 1112, 1070
1358, 1091, 1139, 1104
1359, 1043, 1113, 1074
1360, 1074, 1113, 131
1361, 1052, 1151, 1067
1362, 1093, 1096, 1041
1363, 1024, 1096, 1093
1364, 1091, 1102, 1046
1365, 1070, 1135, 1029
1366, 1067, 1125, 1038
1367, 1033, 1158, 1075
1368, 1087, 1097, 1021
1369, 119, 1111, 120
1370, 116, 1138, 115
1371, 112, 1140, 111
1372, 124, 1118, 1082
1373, 140, 1144, 139
1374, 1095, 1141, 1065
1375, 136, 1137, 135
1376, 93, 1128, 94
1377, 1129, 1161, 1047
1378, 1032, 1134, 1069
1379, 133, 1130, 134
1380, 1044, 1114, 1077
1381, 1092, 1129, 121
1382, 1042, 1135, 1070
1383, 100, 1100, 101
1384, 1068, 1140, 112
1385, 115, 1138, 1069
1386, 1077, 1114, 107
1387, 1073, 1118, 123
1388, 1051, 1154, 1108
1389, 139, 1144, 1071
1390, 1028, 1156, 1085
1391, 1054, 1121, 1079
1392, 1034, 1102, 1089
1393, 1022, 1104, 1088
1394, 1079, 1110, 1028
1395, 1076, 1123, 1032
1396, 1072, 1137, 136
1397, 1039, 1155, 1084
1398, 1078, 1127, 1040
1399, 109, 1131, 110
1400, 1075, 1158, 1042
1401, 1039, 1124, 1080
1402, 1043, 1123, 1076
1403, 126, 1122, 127
1404, 1076, 1130, 133
1405, 94, 1128, 1075
1406, 123, 1118, 124
1407, 1088, 1104, 1044
1408, 1085, 1125, 1023
1409, 1077, 1147, 1044
1410, 1035, 1136, 1071
1411, 1091, 1104, 1022
1412, 1033, 1105, 1090
1413, 1069, 1134, 1045
1414, 1038, 1125, 1085
1415, 1084, 1124, 1039
1416, 1023, 1124, 1084
1417, 1031, 1147, 1077
1418, 1081, 1139, 1035
1419, 1100, 1159, 101
1420, 1040, 1127, 1086
1421, 1086, 1149, 1040
1422, 1057, 1159, 1100
1423, 128, 1103, 129
1424, 1044, 1139, 1081
1425, 1071, 1136, 1046
1426, 98, 1106, 99
1427, 102, 1107, 103
1428, 110, 1148, 6
1429, 1081, 1131, 109
1430, 1043, 1110, 1097
1431, 1083, 1121, 1029
1432, 5, 1145, 93
1433, 8, 1143, 117
1434, 1100, 1160, 1056
1435, 1025, 1120, 1119
1436, 1029, 1135, 1083
1437, 100, 1160, 1100
1438, 1119, 1120, 1058
1439, 134, 1142, 7
1440, 1083, 1135, 1042
1441, 1085, 1156, 1038
1442, 1084, 1155, 1029
1443, 1099, 1133, 1089
1444, 120, 1111, 1092
1445, 1045, 1134, 1087
1446, 95, 1112, 96
1447, 131, 1113, 132
1448, 107, 1114, 108
1449, 1086, 1127, 1024
1450, 1115, 1157, 1063
1451, 1087, 1134, 1032
1452, 1030, 1149, 1086
1453, 111, 1145, 5
1454, 128, 1146, 1103
1455, 7, 1142, 116
1456, 1106, 1160, 99
1457, 102, 1159, 1107
1458, 1089, 1133, 1050
1459, 1042, 1158, 1090
1460, 6, 1148, 140
1461, 1088, 1147, 1031
1462, 1026, 1157, 1115
1463, 1044, 1147, 1088
1464, 114, 1116, 113
1465, 138, 1117, 137
1466, 1088, 1152, 1022
1467, 135, 1143, 8
1468, 1046, 1136, 1091
1469, 1090, 1158, 1033
1470, 1091, 1136, 1035
1471, 121, 1129, 122
1472, 117, 1141, 118
1473, 127, 1146, 128
1474, 1096, 1115, 1041
1475, 101, 1159, 102
1476, 99, 1160, 100
1477, 1093, 1132, 1024
1478, 1037, 1161, 1092
1479, 1132, 1150, 1048
1480, 1094, 1150, 1036
1481, 1141, 1143, 1065
1482, 117, 1143, 1141
1483, 118, 1141, 1095
1484, 1097, 1123, 1043
1485, 1037, 1133, 1099
1486, 1098, 1161, 1037
1487, 1022, 1152, 1099
1488, 1104, 1139, 1044
1489, 1047, 1161, 1098
1490, 1099, 1152, 1049
1491, 1053, 1162, 1126
1492, 1122, 1146, 127
1493, 1055, 1146, 1122
1494, 1063, 1157, 1122
1495, 1122, 1157, 1055
1496, 1067, 1151, 1125
1497, 1125, 1151, 1023
1498, 1058, 1154, 1153
1499, 1153, 1154, 1051
1500, 1126, 1162, 1052
*ELEMENT, type=CPS3, ELSET=Surface3
1501, 1173, 165, 1216
1502, 165, 1173, 1190
1503, 1173, 1167, 1190
1504, 1167, 1173, 1201
1505, 1169, 1175, 1197
1506, 10, 148, 169
1507, 11, 157, 149
1508, 1175, 1165, 1197
1509, 1178, 1170, 1185
1510, 169, 148, 1199
1511, 149, 157, 1198
1512, 1163, 1178, 1185
1513, 1174, 1168, 1200
1514, 1164, 1174, 1200
1515, 1180, 143, 1194
1516, 154, 1181, 1195
1517, 1168, 1174, 1191
1518, 1175, 1169, 1192
1519, 1166, 1177, 1195
1520, 1177, 1166, 1194
1521, 1170, 1176, 1193
1522, 1174, 1164, 1204
1523, 1165, 1175, 1205
1524, 1181, 1166, 1195
1525, 1166, 1181, 1187
1526, 1181, 1169, 1187
1527, 1168, 1180, 1223
1528, 1180, 1168, 1208
1529, 1169, 1181, 1209
1530, 1184, 1171, 1204
1531, 1176, 1170, 1203
1532, 1205, 1172, 1214
1533, 1172, 1186, 1214
1534, 1184, 1204, 1215
1535, 168, 1199, 1206
1536, 1194, 1166, 1223
1537, 1182, 1168, 1223
1538, 168, 169, 1199
1539, 157, 158, 1198
1540, 1167, 1179, 1218
1541, 1167, 1183, 1212
1542, 1198, 158, 1207
1543, 165, 166, 1216
1544, 1178, 1163, 1196
1545, 1165, 1178, 1197
1546, 1178, 1165, 1203
1547, 1170, 1178, 1203
1548, 1182, 1166, 1187
1549, 1179, 1167, 1201
1550, 1179, 1164, 1200
1551, 1180, 1194, 1223
1552, 155, 154, 1195
1553, 143, 142, 1194
1554, 1190, 1167, 1212
1555, 1164, 1179, 1201
1556, 143, 1180, 1208
1557, 1181, 154, 1209
1558, 1192, 1169, 1209
1559, 1168, 1191, 1208
1560, 1183, 1170, 1224
1561, 1166, 1182, 1223
1562, 151, 150, 1188
1563, 1185, 1167, 1218
1564, 147, 146, 1189
1565, 167, 1184, 1216
1566, 164, 165, 1190
1567, 1170, 1183, 1225
1568, 1184, 167, 1206
1569, 1163, 1202, 1227
1570, 1168, 1182, 1202
1571, 1202, 1182, 1227
1572, 1170, 1193, 1224
1573, 1183, 1167, 1225
1574, 159, 1186, 1207
1575, 1193, 1176, 1217
1576, 153, 152, 1192
1577, 145, 144, 1191
1578, 1175, 1188, 1205
1579, 1189, 1174, 1204
1580, 1187, 1169, 1196
1581, 163, 1183, 1224
1582, 1185, 1170, 1225
1583, 166, 167, 1216
1584, 1183, 163, 1212
1585, 1167, 1185, 1225
1586, 1171, 1184, 1206
1587, 1199, 1171, 1206
1588, 158, 159, 1207
1589, 150, 149, 1211
1590, 148, 147, 1210
1591, 1202, 1163, 1218
1592, 1204, 1164, 1215
1593, 1192, 152, 1221
1594, 145, 1191, 1222
1595, 149, 1198, 1211
1596, 1199, 148, 1210
1597, 1163, 1185, 1218
1598, 1196, 1169, 1197
1599, 1188, 150, 1211
1600, 147, 1189, 1210
1601, 1178, 1196, 1197
1602, 1175, 1192, 1221
1603, 1191, 1174, 1222
1604, 161, 162, 1193
1605, 167, 168, 1206
1606, 1179, 1202, 1218
1607, 1186, 159, 1226
1608, 144, 143, 1208
1609, 154, 153, 1209
1610, 1200, 1168, 1202
1611, 1179, 1200, 1202
1612, 1186, 1172, 1207
1613, 9, 156, 1213
1614, 141, 9, 1213
1615, 1189, 146, 1222
1616, 151, 1188, 1221
1617, 1174, 1189, 1222
1618, 1188, 1175, 1221
1619, 1172, 1198, 1207
1620, 1182, 1187, 1227
1621, 1171, 1189, 1204
1622, 1188, 1172, 1205
1623, 1176, 1214, 1226
1624, 1214, 1186, 1226
1625, 159, 160, 1226
1626, 162, 163, 1224
1627, 1172, 1188, 1211
1628, 1189, 1171, 1210
1629, 163, 164, 1212
1630, 1203, 1165, 1214
1631, 1176, 1203, 1214
1632, 161, 1193, 1217
1633, 1191, 144, 1208
1634, 153, 1192, 1209
1635, 164, 1190, 1212
1636, 1165, 1205, 1214
1637, 1164, 1201, 1215
1638, 1201, 1173, 1215
1639, 1187, 1196, 1227
1640, 1184, 1215, 1216
1641, 1215, 1173, 1216
1642, 160, 161, 1217
1643, 156, 155, 1220
1644, 142, 141, 1219
1645, 152, 151, 1221
1646, 146, 145, 1222
1647, 1198, 1172, 1211
1648, 1171, 1199, 1210
1649, 1196, 1163, 1227
1650, 1194, 142, 1219
1651, 155, 1195, 1220
1652, 1177, 1194, 1219
1653, 1195, 1177, 1220
1654, 1193, 162, 1224
1655, 141, 1213, 1219
1656, 1213, 156, 1220
1657, 1177, 1213, 1220
1658, 1213, 1177, 1219
1659, 1217, 1176, 1226
1660, 160, 1217, 1226
*ELEMENT, type=CPS3, ELSET=Surface4
1661, 8, 1229, 189
1662, 189, 1229, 13
1663, 170, 1228, 7
1664, 12, 1228, 170
1665, 7, 1228, 134
1666, 188, 1228, 12
1667, 13, 1229, 171
1668, 117, 1229, 8
1669, 1240, 1241, 172
1670, 118, 1241, 1240
1671, 180, 1239, 1232
1672, 121, 1244, 1243
1673, 1234, 1235, 183
1674, 1232, 1239, 126
1675, 118, 1240, 117
1676, 1242, 1243, 174
1677, 177, 1230, 178
1678, 1230, 1245, 123
1679, 1243, 1244, 175
1680, 129, 1235, 1234
1681, 177, 1245, 1230
1682, 134, 1231, 133
1683, 120, 1243, 1242
1684, 128, 1234, 1233
1685, 128, 1233, 127
1686, 129, 1234, 128
1687, 180, 1232, 181
1688, 183, 1235, 184
1689, 1231, 1238, 133
1690, 131, 1236, 130
1691, 132, 1237, 131
1692, 133, 1238, 132
1693, 184, 1236, 185
1694, 185, 1237, 186
1695, 1236, 1237, 185
1696, 186, 1238, 187
1697, 130, 1235, 129
1698, 179, 1239, 180
1699, 181, 1233, 182
1700, 182, 1234, 183
1701, 127, 1232, 126
1702, 187, 1231, 188
1703, 1233, 1234, 182
1704, 1239, 1246, 125
1705, 1244, 1245, 176
1706, 1230, 1246, 178
1707, 126, 1239, 125
1708, 119, 1241, 118
1709, 120, 1242, 119
1710, 121, 1243, 120
1711, 122, 1244, 121
1712, 123, 1245, 122
1713, 125, 1246, 124
1714, 178, 1246, 179
1715, 172, 1241, 173
1716, 173, 1242, 174
1717, 174, 1243, 175
1718, 175, 1244, 176
1719, 176, 1245, 177
1720, 124, 1230, 123
1721, 171, 1240, 172
1722, 132, 1238, 1237
1723, 131, 1237, 1236
1724, 187, 1238, 1231
1725, 130, 1236, 1235
1726, 122, 1245, 1244
1727, 124, 1246, 1230
1728, 179, 1246, 1239
1729, 1232, 1233, 181
1730, 1235, 1236, 184
1731, 1237, 1238, 186
1732, 1241, 1242, 173
1733, 127, 1233, 1232
1734, 119, 1242, 1241
1735, 1228, 1231, 134
1736, 188, 1231, 1228
1737, 1229, 1240, 171
1738, 117, 1240, 1229
*ELEMENT, type=CPS3, ELSET=Surface5
1739, 196, 194, 197
1740, 194, 193, 197
1741, 196, 16, 1247
1742, 190, 14, 1248
1743, 197, 193, 198
1744, 201, 200, 190
1745, 193, 192, 198
1746, 200, 191, 190
1747, 14, 202, 1248
1748, 17, 201, 1248
1749, 192, 191, 199
1750, 200, 199, 191
1751, 192, 199, 198
1752, 201, 190, 1248
1753, 194, 196, 1247
1754, 16, 195, 1247
1755, 15, 194, 195
1756, 202, 17, 1248
1757, 195, 194, 1247
*ELEMENT, type=CPS3, ELSET=Surface6
1758, 84, 1259, 1251
1759, 1251, 1258, 84
1760, 1250, 1258, 1256
1761, 1257, 1259, 1249
1762, 1256, 1258, 1251
1763, 1251, 1259, 1257
1764, 1256, 1257, 208
1765, 204, 1254, 203
1766, 213, 1255, 212
1767, 1253, 1254, 204
1768, 212, 1255, 1252
1769, 1251, 1257, 1256
1770, 212, 1252, 211
1771, 205, 1253, 204
1772, 83, 1259, 84
1773, 84, 1258, 85
1774, 208, 1257, 207
1775, 209, 1256, 208
1776, 1249, 1254, 1253
1777, 1252, 1255, 1250
1778, 86, 1267, 3
1779, 2, 1266, 82
1780, 206, 1264, 18
1781, 19, 1265, 210
1782, 1255, 1267, 1262
1783, 1263, 1266, 1254
1784, 1249, 1260, 1257
1785, 1256, 1261, 1250
1786, 1255, 1262, 1250
1787, 1249, 1263, 1254
1788, 1257, 1260, 207
1789, 209, 1261, 1256
1790, 210, 1261, 209
1791, 207, 1260, 206
1792, 1253, 1260, 1249
1793, 1250, 1261, 1252
1794, 213, 1267, 1255
1795, 1254, 1266, 203
1796, 18, 1264, 205
1797, 211, 1265, 19
1798, 1261, 1265, 1252
1799, 1253, 1264, 1260
1800, 1250, 1262, 1258
1801, 1259, 1263, 1249
1802, 1262, 1267, 86
1803, 82, 1266, 1263
1804, 1252, 1265, 211
1805, 205, 1264, 1253
1806, 210, 1265, 1261
1807, 1260, 1264, 206
1808, 85, 1262, 86
1809, 82, 1263, 83
1810, 203, 1266, 2
1811, 3, 1267, 213
1812, 1258, 1262, 85
1813, 83, 1263, 1259
*ELEMENT, type=CPS3, ELSET=Surface7
1814, 231, 1291, 230
1815, 233, 1290, 232
1816, 1276, 1294, 161
1817, 231, 1293, 1291
1818, 1290, 1292, 232
1819, 161, 1280, 1276
1820, 1274, 1281, 165
1821, 165, 1299, 1274
1822, 1269, 1282, 216
1823, 227, 1283, 1272
1824, 216, 1285, 1269
1825, 1272, 1286, 227
1826, 163, 1275, 164
1827, 160, 1296, 1270
1828, 1273, 1295, 166
1829, 1270, 1280, 160
1830, 166, 1281, 1273
1831, 1288, 1293, 169
1832, 157, 1292, 1289
1833, 1277, 1297, 221
1834, 161, 1294, 162
1835, 1275, 1299, 164
1836, 20, 1290, 233
1837, 230, 1291, 21
1838, 163, 1298, 1275
1839, 1271, 1293, 1288
1840, 1289, 1292, 1268
1841, 221, 1287, 1277
1842, 159, 1296, 160
1843, 1276, 1280, 1278
1844, 166, 1295, 167
1845, 1279, 1281, 1274
1846, 214, 1290, 20
1847, 21, 1291, 229
1848, 1291, 1293, 1271
1849, 1268, 1292, 1290
1850, 168, 1288, 169
1851, 157, 1289, 158
1852, 219, 1278, 218
1853, 225, 1279, 224
1854, 232, 1292, 11
1855, 10, 1293, 231
1856, 1273, 1281, 1279
1857, 1278, 1280, 1270
1858, 221, 1297, 220
1859, 1287, 1298, 1277
1860, 1275, 1298, 1287
1861, 1294, 1298, 162
1862, 164, 1299, 165
1863, 162, 1298, 163
1864, 227, 1286, 226
1865, 217, 1285, 216
1866, 1284, 1287, 222
1867, 11, 1292, 157
1868, 169, 1293, 10
1869, 228, 1283, 227
1870, 216, 1282, 215
1871, 1274, 1304, 1279
1872, 223, 1284, 222
1873, 1279, 1304, 224
1874, 1274, 1299, 1284
1875, 1284, 1299, 1275
1876, 1275, 1287, 1284
1877, 1294, 1297, 1277
1878, 1276, 1297, 1294
1879, 1270, 1300, 1278
1880, 1279, 1301, 1273
1881, 222, 1287, 221
1882, 1269, 1289, 1282
1883, 1283, 1288, 1272
1884, 1278, 1307, 1276
1885, 160, 1280, 161
1886, 165, 1281, 166
1887, 1270, 1296, 1285
1888, 1286, 1295, 1273
1889, 1285, 1296, 1269
1890, 1272, 1295, 1286
1891, 1282, 1289, 1268
1892, 1271, 1288, 1283
1893, 1278, 1300, 218
1894, 225, 1301, 1279
1895, 219, 1307, 1278
1896, 1277, 1298, 1294
1897, 226, 1301, 225
1898, 218, 1300, 217
1899, 215, 1302, 214
1900, 229, 1303, 228
1901, 220, 1307, 219
1902, 158, 1305, 159
1903, 167, 1306, 168
1904, 224, 1304, 223
1905, 1284, 1304, 1274
1906, 1285, 1300, 1270
1907, 1273, 1301, 1286
1908, 1268, 1302, 1282
1909, 1283, 1303, 1271
1910, 223, 1304, 1284
1911, 217, 1300, 1285
1912, 1286, 1301, 226
1913, 1288, 1306, 1272
1914, 1269, 1305, 1289
1915, 1271, 1303, 1291
1916, 1290, 1302, 1268
1917, 1282, 1302, 215
1918, 228, 1303, 1283
1919, 214, 1302, 1290
1920, 1291, 1303, 229
1921, 1297, 1307, 220
1922, 1272, 1306, 1295
1923, 1296, 1305, 1269
1924, 1276, 1307, 1297
1925, 159, 1305, 1296
1926, 1295, 1306, 167
1927, 1289, 1305, 158
1928, 168, 1306, 1288
*ELEMENT, type=CPS3, ELSET=Surface8
1929, 290, 1623, 1452
1930, 1515, 1722, 1457
1931, 1657, 1690, 1507
1932, 1338, 1722, 1515
1933, 1445, 1619, 287
1934, 1533, 1788, 1441
1935, 1366, 1500, 1488
1936, 184, 1466, 183
1937, 1361, 1515, 1457
1938, 1315, 1757, 1458
1939, 1403, 1562, 1486
1940, 1401, 1493, 1487
1941, 268, 1520, 267
1942, 1465, 1552, 1323
1943, 1356, 1657, 1507
1944, 1370, 1552, 1465
1945, 1649, 1654, 1530
1946, 1331, 1649, 1530
1947, 245, 1469, 244
1948, 1460, 1540, 1310
1949, 1440, 1646, 1543
1950, 287, 1596, 1445
1951, 1543, 1646, 1314
1952, 1344, 1835, 1462
1953, 1350, 1539, 1453
1954, 1367, 1588, 1471
1955, 1311, 1831, 1448
1956, 1451, 1582, 1365
1957, 1364, 1668, 1602
1958, 1602, 1609, 1354
1959, 1444, 1800, 1374
1960, 1374, 1572, 1444
1961, 1520, 1682, 267
1962, 1362, 1540, 1460
1963, 1338, 1515, 1494
1964, 268, 1559, 1520
1965, 285, 1472, 284
1966, 273, 1854, 1544
1967, 1494, 1515, 1383
1968, 1636, 1652, 239
1969, 1458, 1757, 1589
1970, 1452, 1660, 290
1971, 1453, 1667, 1350
1972, 1487, 1493, 1347
1973, 1394, 1689, 1451
1974, 1376, 1563, 1525
1975, 1337, 1714, 1469
1976, 1659, 1718, 1511
1977, 1469, 1714, 1407
1978, 1448, 1580, 1311
1979, 1341, 1536, 1460
1980, 1460, 1536, 1362
1981, 1521, 1693, 1439
1982, 1339, 1693, 1521
1983, 1458, 1579, 1315
1984, 1441, 1652, 1636
1985, 1365, 1561, 1451
1986, 1600, 1657, 1356
1987, 1474, 1576, 1355
1988, 255, 1484, 254
1989, 1441, 1612, 1533
1990, 1451, 1641, 1394
1991, 1356, 1569, 1492
1992, 1424, 1666, 1553
1993, 1462, 1835, 1512
1994, 1573, 1574, 246
1995, 1359, 1509, 1489
1996, 1447, 1777, 1611
1997, 1626, 1762, 1425
1998, 1531, 1668, 1364
1999, 1740, 1777, 1447
2000, 1489, 1509, 1385
2001, 1463, 1824, 1719
2002, 1544, 1854, 1473
2003, 1479, 1638, 1345
2004, 1581, 1627, 1433
2005, 1488, 1500, 1364
2006, 176, 1593, 1490
2007, 1544, 1865, 1350
2008, 1403, 1538, 1516
2009, 1309, 1807, 1459
2010, 269, 1559, 268
2011, 258, 1495, 257
2012, 1457, 1554, 1361
2013, 249, 1501, 248
2014, 1464, 1567, 1319
2015, 1478, 1847, 1364
2016, 1360, 1655, 1516
2017, 1397, 1659, 1511
2018, 1478, 1602, 1354
2019, 1501, 1715, 248
2020, 193, 1482, 192
2021, 1655, 1805, 1516
2022, 1403, 1736, 1562
2023, 1379, 1503, 1502
2024, 1719, 1842, 1463
2025, 186, 1633, 1468
2026, 1644, 1761, 25
2027, 1333, 1627, 1581
2028, 1475, 1753, 1404
2029, 1502, 1503, 1358
2030, 1359, 1639, 1509
2031, 1473, 1621, 1381
2032, 1619, 1650, 1377
2033, 1510, 1552, 1370
2034, 1388, 1552, 1510
2035, 1343, 1528, 1476
2036, 1541, 1635, 1345
2037, 1364, 1847, 1488
2038, 1425, 1635, 1541
2039, 1357, 1788, 1533
2040, 1421, 1818, 1725
2041, 1465, 1841, 1370
2042, 1504, 1818, 1421
2043, 1677, 1691, 1476
2044, 1373, 1604, 1455
2045, 1733, 1758, 1486
2046, 258, 1728, 1495
2047, 1445, 1650, 1619
2048, 1518, 1863, 1375
2049, 1310, 1607, 1503
2050, 1350, 1775, 1544
2051, 1518, 1870, 1863
2052, 1473, 1865, 1544
2053, 1535, 1588, 1367
2054, 1331, 1683, 1649
2055, 1352, 1665, 1534
2056, 1497, 1795, 1452
2057, 273, 1544, 272
2058, 1323, 1856, 1465
2059, 1351, 1795, 1497
2060, 1384, 1797, 1596
2061, 1553, 1666, 1330
2062, 1348, 1733, 1486
2063, 1319, 1810, 1464
2064, 1310, 1648, 1460
2065, 1528, 1823, 1476
2066, 1310, 1540, 1507
2067, 1432, 1657, 1600
2068, 1382, 1823, 1528
2069, 1355, 1837, 1474
2070, 1459, 1575, 1309
2071, 1412, 1638, 1624
2072, 299, 1505, 298
2073, 1479, 1543, 1314
2074, 1363, 1567, 1464
2075, 184, 1583, 1466
2076, 1391, 1543, 1479
2077, 1408, 1609, 1602
2078, 1489, 1546, 1359
2079, 1525, 1563, 1321
2080, 1472, 1669, 284
2081, 1509, 1639, 1603
2082, 1439, 1710, 1549
2083, 1492, 1600, 1356
2084, 1455, 1610, 1373
2085, 1464, 1695, 1363
2086, 1479, 1858, 1638
2087, 1365, 1582, 1477
2088, 1491, 1598, 1384
2089, 1462, 1656, 1344
2090, 1428, 1712, 1591
2091, 1351, 1598, 1491
2092, 1553, 1814, 1424
2093, 1549, 1710, 1357
2094, 1460, 1594, 1341
2095, 1500, 1626, 1364
2096, 1604, 1697, 1455
2097, 1534, 1642, 1316
2098, 1312, 1677, 1476
2099, 1378, 1699, 1468
2100, 1469, 1676, 244
2101, 1366, 1721, 1500
2102, 1321, 1852, 1525
2103, 1419, 1642, 1534
2104, 1852, 1859, 1525
2105, 1534, 1665, 1419
2106, 1340, 1697, 1604
2107, 1468, 1711, 1378
2108, 238, 1517, 237
2109, 1317, 1727, 1549
2110, 1596, 1797, 1445
2111, 1413, 1549, 1533
2112, 1407, 1676, 1469
2113, 1471, 1562, 1367
2114, 177, 1593, 176
2115, 1717, 1743, 1578
2116, 1488, 1702, 1366
2117, 1474, 1837, 1621
2118, 1418, 1670, 1635
2119, 1533, 1549, 1357
2120, 1320, 1597, 1570
2121, 260, 1622, 22
2122, 1697, 1811, 1614
2123, 1381, 1865, 1473
2124, 1475, 1720, 1342
2125, 1318, 1805, 1492
2126, 245, 1574, 1469
2127, 1432, 1600, 1592
2128, 1570, 1597, 1418
2129, 1404, 1720, 1475
2130, 1492, 1805, 1446
2131, 1592, 1600, 1337
2132, 1412, 1624, 1537
2133, 1564, 1800, 1779
2134, 291, 1623, 290
2135, 285, 1568, 1472
2136, 1537, 1624, 1327
2137, 1484, 1701, 254
2138, 1364, 1626, 1531
2139, 1535, 1692, 1420
2140, 1422, 1697, 1614
2141, 1562, 1781, 1348
2142, 1390, 1691, 1677
2143, 1498, 1837, 1355
2144, 1466, 1617, 183
2145, 1601, 1831, 1311
2146, 1471, 1781, 1562
2147, 1564, 1753, 1475
2148, 22, 1622, 259
2149, 1472, 1720, 1669
2150, 1365, 1760, 1698
2151, 1368, 1729, 1480
2152, 1387, 1574, 1573
2153, 25, 1761, 297
2154, 1320, 1800, 1564
2155, 1517, 1731, 237
2156, 1583, 1625, 1466
2157, 1334, 1762, 1626
2158, 1320, 1564, 1475
2159, 1527, 1536, 1396
2160, 1549, 1727, 1439
2161, 1468, 1699, 186
2162, 1569, 1686, 1492
2163, 1459, 1807, 1613
2164, 1486, 1562, 1348
2165, 1313, 1673, 1487
2166, 1409, 1715, 1501
2167, 1348, 1662, 1480
2168, 1469, 1685, 1337
2169, 1321, 1863, 1470
2170, 1487, 1673, 1401
2171, 1331, 1692, 1535
2172, 1673, 1822, 1449
2173, 1507, 1540, 1392
2174, 1310, 1690, 1607
2175, 1578, 1743, 1415
2176, 1522, 1579, 1383
2177, 1354, 1820, 1478
2178, 1315, 1579, 1522
2179, 242, 1508, 241
2180, 13, 1634, 300
2181, 1369, 1680, 1483
2182, 1598, 1618, 1384
2183, 1500, 1721, 1334
2184, 236, 1504, 235
2185, 1470, 1632, 1321
2186, 1479, 1670, 1391
2187, 1378, 1625, 1583
2188, 1400, 1551, 1505
2189, 1324, 1651, 1496
2190, 1442, 1618, 1598
2191, 1689, 1700, 1493
2192, 1345, 1670, 1479
2193, 171, 1634, 13
2194, 1516, 1538, 1360
2195, 1577, 1610, 181
2196, 181, 1610, 180
2197, 1383, 1579, 1477
2198, 1547, 1563, 1376
2199, 1496, 1704, 1324
2200, 1362, 1536, 1527
2201, 1429, 1630, 1483
2202, 1323, 1599, 1555
2203, 1567, 1702, 1319
2204, 1494, 1672, 1338
2205, 1505, 1551, 1336
2206, 1482, 1586, 192
2207, 1477, 1582, 1326
2208, 1541, 1638, 1412
2209, 1591, 1695, 1464
2210, 1389, 1695, 1591
2211, 1326, 1689, 1493
2212, 1401, 1672, 1494
2213, 1573, 1587, 1387
2214, 1366, 1763, 1580
2215, 1370, 1841, 1551
2216, 1409, 1587, 1573
2217, 1413, 1758, 1733
2218, 1355, 1834, 1482
2219, 1370, 1796, 1510
2220, 1641, 1838, 252
2221, 1483, 1783, 1369
2222, 1621, 1837, 1381
2223, 253, 1641, 252
2224, 1580, 1763, 1461
2225, 1401, 1723, 1493
2226, 1347, 1824, 1487
2227, 1325, 1718, 1659
2228, 1419, 1692, 1530
2229, 1719, 1824, 1347
2230, 1352, 1777, 1740
2231, 1477, 1760, 1365
2232, 1481, 1675, 1349
2233, 1649, 1683, 1434
2234, 1437, 1694, 1680
2235, 255, 1584, 1484
2236, 1512, 1859, 1462
2237, 1323, 1766, 1599
2238, 1702, 1763, 1366
2239, 1368, 1859, 1512
2240, 1403, 1752, 1538
2241, 1530, 1692, 1331
2242, 299, 1734, 1505
2243, 24, 1708, 296
2244, 1576, 1834, 1355
2245, 1388, 1802, 1490
2246, 1417, 1688, 1545
2247, 1662, 1681, 1368
2248, 1524, 1796, 1370
2249, 23, 1542, 283
2250, 1483, 1872, 1429
2251, 1535, 1683, 1331
2252, 1415, 1646, 1526
2253, 1503, 1607, 1358
2254, 247, 1573, 246
2255, 1342, 1679, 1475
2256, 1589, 1698, 1458
2257, 1512, 1729, 1368
2258, 1353, 1698, 1589
2259, 1520, 1559, 1363
2260, 1358, 1607, 1511
2261, 1364, 1602, 1478
2262, 1591, 1810, 1428
2263, 295, 1532, 294
2264, 1557, 1815, 1380
2265, 1414, 1731, 1517
2266, 1591, 1712, 1335
2267, 1698, 1760, 1458
2268, 1539, 1865, 1381
2269, 1554, 1830, 1308
2270, 1513, 1836, 1598
2271, 1475, 1771, 1320
2272, 1523, 1666, 1411
2273, 1330, 1666, 1523
2274, 1815, 1855, 1380
2275, 1537, 1554, 1412
2276, 1357, 1710, 1517
2277, 1555, 1856, 1323
2278, 173, 1524, 172
2279, 1526, 1792, 1415
2280, 1517, 1710, 1414
2281, 1392, 1649, 1569
2282, 1476, 1691, 1343
2283, 1590, 1706, 1436
2284, 1361, 1554, 1537
2285, 287, 1619, 286
2286, 1569, 1649, 1434
2287, 1721, 1873, 1334
2288, 1608, 1844, 1776
2289, 1490, 1808, 1349
2290, 1621, 1853, 1474
2291, 1480, 1733, 1348
2292, 242, 1566, 1508
2293, 1430, 1702, 1567
2294, 1545, 1790, 1417
2295, 1482, 1616, 1385
2296, 1347, 1700, 1484
2297, 23, 1669, 1542
2298, 1576, 1853, 276
2299, 1473, 1854, 1621
2300, 1513, 1598, 1351
2301, 1484, 1700, 1394
2302, 1477, 1658, 1383
2303, 1418, 1606, 1570
2304, 1580, 1721, 1366
2305, 1558, 1686, 1434
2306, 1476, 1823, 1312
2307, 1375, 1861, 1485
2308, 1326, 1658, 1477
2309, 1598, 1836, 1442
2310, 193, 1616, 1482
2311, 1436, 1866, 1590
2312, 1318, 1686, 1558
2313, 1608, 1720, 1472
2314, 1484, 1719, 1347
2315, 1608, 1776, 1342
2316, 1343, 1817, 1528
2317, 1342, 1720, 1608
2318, 1372, 1663, 1532
2319, 1482, 1664, 1355
2320, 1313, 1822, 1673
2321, 187, 1633, 186
2322, 1355, 1664, 1498
2323, 1309, 1849, 1588
2324, 1372, 1817, 1663
2325, 1385, 1664, 1482
2326, 1385, 1765, 1489
2327, 1314, 1858, 1479
2328, 1669, 1720, 1404
2329, 1622, 1728, 259
2330, 1343, 1825, 1817
2331, 1480, 1662, 1368
2332, 1487, 1620, 1313
2333, 1448, 1721, 1580
2334, 1336, 1550, 1450
2335, 1349, 1640, 1481
2336, 262, 1744, 1571
2337, 1624, 1638, 1393
2338, 1325, 1587, 1519
2339, 1391, 1679, 1543
2340, 1336, 1806, 1505
2341, 1529, 1624, 1393
2342, 1519, 1587, 1409
2343, 1327, 1624, 1529
2344, 1371, 1585, 1542
2345, 1485, 1643, 1375
2346, 1451, 1689, 1582
2347, 1493, 1723, 1326
2348, 1384, 1756, 1491
2349, 1588, 1849, 1471
2350, 286, 1568, 285
2351, 1450, 1761, 1644
2352, 1519, 1718, 1325
2353, 1528, 1599, 1382
2354, 1505, 1644, 298
2355, 1457, 1830, 1554
2356, 1397, 1690, 1657
2357, 1635, 1670, 1345
2358, 1681, 1759, 1376
2359, 262, 1571, 261
2360, 1394, 1701, 1484
2361, 277, 1576, 276
2362, 1418, 1762, 1606
2363, 1372, 1599, 1528
2364, 1350, 1667, 1523
2365, 1609, 1653, 1354
2366, 1312, 1643, 1485
2367, 1542, 1585, 283
2368, 1698, 1864, 1365
2369, 1449, 1653, 1609
2370, 1485, 1677, 1312
2371, 1389, 1682, 1520
2372, 1486, 1752, 1403
2373, 1496, 1651, 1386
2374, 1368, 1681, 1525
2375, 1474, 1853, 1576
2376, 1420, 1588, 1535
2377, 1392, 1869, 1507
2378, 1427, 1640, 1614
2379, 1597, 1670, 1418
2380, 1542, 1669, 1404
2381, 174, 1645, 1510
2382, 1612, 1636, 1405
2383, 1441, 1636, 1612
2384, 1638, 1858, 1393
2385, 236, 1731, 1504
2386, 259, 1728, 258
2387, 1526, 1646, 1440
2388, 289, 1660, 1491
2389, 1322, 1628, 1509
2390, 1394, 1700, 1689
2391, 1533, 1612, 1328
2392, 1553, 1567, 1363
2393, 1504, 1731, 1414
2394, 1430, 1567, 1553
2395, 240, 1636, 239
2396, 1375, 1563, 1547
2397, 1529, 1615, 1431
2398, 1548, 1694, 1437
2399, 1663, 1784, 293
2400, 1509, 1628, 1385
2401, 1393, 1615, 1529
2402, 1531, 1626, 1425
2403, 1379, 1782, 1594
2404, 1379, 1789, 1782
2405, 1645, 1802, 1388
2406, 298, 1644, 25
2407, 1386, 1767, 1514
2408, 1491, 1795, 1351
2409, 1680, 1694, 1335
2410, 1711, 1725, 1339
2411, 1390, 1704, 1496
2412, 1521, 1727, 1456
2413, 1549, 1738, 1317
2414, 1374, 1800, 1570
2415, 1435, 1681, 1662
2416, 1492, 1686, 1318
2417, 1491, 1756, 289
2418, 1349, 1675, 1490
2419, 1490, 1675, 1388
2420, 1509, 1603, 1322
2421, 1322, 1855, 1839
2422, 12, 1703, 188
2423, 1406, 1671, 1495
2424, 1362, 1654, 1540
2425, 1468, 1725, 1711
2426, 1625, 1716, 1466
2427, 295, 1684, 1532
2428, 264, 1556, 263
2429, 1603, 1855, 1322
2430, 1376, 1759, 1575
2431, 1614, 1640, 1349
2432, 1343, 1691, 1496
2433, 234, 1703, 12
2434, 1495, 1671, 257
2435, 288, 1596, 287
2436, 1344, 1716, 1625
2437, 1778, 1786, 1537
2438, 1496, 1691, 1390
2439, 1446, 1805, 1655
2440, 1602, 1668, 1408
2441, 1490, 1802, 176
2442, 1348, 1781, 1662
2443, 1632, 1852, 1321
2444, 1446, 1801, 1492
2445, 1511, 1607, 1397
2446, 1571, 1744, 1433
2447, 1327, 1778, 1537
2448, 1383, 1658, 1494
2449, 1634, 1734, 300
2450, 1530, 1642, 1419
2451, 1523, 1667, 1395
2452, 1361, 1786, 1522
2453, 1494, 1723, 1401
2454, 1449, 1822, 1653
2455, 1786, 1790, 1522
2456, 1498, 1628, 1322
2457, 1499, 1852, 1632
2458, 283, 1585, 282
2459, 1679, 1776, 1543
2460, 1493, 1700, 1347
2461, 1458, 1760, 1579
2462, 1510, 1796, 174
2463, 1563, 1863, 1321
2464, 1863, 1870, 1470
2465, 300, 1734, 299
2466, 1550, 1709, 1402
2467, 1373, 1798, 1632
2468, 1632, 1798, 1499
2469, 1495, 1696, 1406
2470, 266, 1682, 1548
2471, 1532, 1684, 1402
2472, 1332, 1706, 1590
2473, 1482, 1834, 1586
2474, 1379, 1648, 1503
2475, 1334, 1626, 1500
2476, 1523, 1775, 1350
2477, 254, 1701, 253
2478, 1583, 1699, 1378
2479, 1327, 1730, 1502
2480, 1308, 1755, 1554
2481, 1432, 1726, 1659
2482, 1386, 1678, 1496
2483, 1462, 1852, 1656
2484, 1553, 1750, 1430
2485, 1330, 1750, 1553
2486, 1496, 1678, 1343
2487, 1545, 1688, 1358
2488, 1547, 1861, 1375
2489, 243, 1566, 242
2490, 1534, 1777, 1352
2491, 1442, 1674, 1661
2492, 1360, 1747, 1508
2493, 1421, 1770, 1504
2494, 1497, 1651, 1324
2495, 1508, 1747, 1405
2496, 286, 1619, 1568
2497, 1459, 1785, 1735
2498, 1601, 1732, 1438
2499, 1452, 1819, 1497
2500, 1593, 1808, 1490
2501, 1369, 1827, 1680
2502, 1497, 1751, 1351
2503, 1489, 1848, 1546
2504, 1351, 1751, 1513
2505, 253, 1701, 1641
2506, 1504, 1770, 235
2507, 1456, 1871, 1521
2508, 1375, 1643, 1518
2509, 1506, 1639, 1359
2510, 1460, 1648, 1594
2511, 1527, 1674, 1316
2512, 1396, 1674, 1527
2513, 1540, 1654, 1392
2514, 1405, 1724, 1508
2515, 1377, 1650, 1526
2516, 1427, 1811, 1518
2517, 1324, 1791, 1497
2518, 246, 1574, 245
2519, 1503, 1648, 1310
2520, 1322, 1737, 1498
2521, 1376, 1735, 1547
2522, 1508, 1724, 241
2523, 1513, 1874, 1316
2524, 1508, 1857, 1360
2525, 1502, 1778, 1327
2526, 1663, 1817, 1467
2527, 14, 1754, 278
2528, 1501, 1773, 1409
2529, 1550, 1708, 1450
2530, 1510, 1645, 1388
2531, 1461, 1705, 1637
2532, 1361, 1843, 1515
2533, 1637, 1705, 1395
2534, 1413, 1738, 1549
2535, 1629, 1766, 1323
2536, 1402, 1684, 1550
2537, 1316, 1836, 1513
2538, 1481, 1766, 1629
2539, 190, 1754, 14
2540, 1353, 1829, 1519
2541, 294, 1663, 293
2542, 1519, 1829, 1718
2543, 1572, 1601, 1438
2544, 1811, 1870, 1518
2545, 1414, 1818, 1504
2546, 1502, 1730, 1379
2547, 1546, 1764, 1359
2548, 256, 1584, 255
2549, 1423, 1764, 1546
2550, 1358, 1688, 1502
2551, 183, 1617, 182
2552, 1467, 1784, 1663
2553, 1367, 1683, 1535
2554, 271, 1595, 270
2555, 1521, 1711, 1339
2556, 249, 1749, 1501
2557, 1507, 1690, 1310
2558, 1828, 1861, 1346
2559, 1526, 1844, 1377
2560, 1515, 1843, 1383
2561, 1511, 1780, 1358
2562, 1340, 1870, 1811
2563, 1359, 1764, 1506
2564, 1533, 1758, 1413
2565, 1440, 1844, 1526
2566, 1505, 1734, 1400
2567, 1507, 1869, 1356
2568, 1328, 1758, 1533
2569, 292, 1784, 1514
2570, 267, 1682, 266
2571, 1536, 1717, 1396
2572, 185, 1583, 184
2573, 1751, 1874, 1513
2574, 1565, 1785, 1447
2575, 1311, 1732, 1601
2576, 1346, 1785, 1565
2577, 1555, 1599, 1372
2578, 175, 1645, 174
2579, 1516, 1746, 1403
2580, 1318, 1746, 1516
2581, 1529, 1730, 1327
2582, 1425, 1799, 1531
2583, 1531, 1799, 1308
2584, 1426, 1630, 1620
2585, 1620, 1630, 1313
2586, 1315, 1790, 1545
2587, 192, 1586, 191
2588, 1568, 1619, 1377
2589, 1498, 1664, 1628
2590, 1316, 1874, 1534
2591, 1459, 1735, 1575
2592, 1464, 1810, 1591
2593, 1399, 1780, 1511
2594, 1511, 1718, 1399
2595, 1443, 1834, 1576
2596, 238, 1652, 1517
2597, 1779, 1800, 1444
2598, 1363, 1695, 1520
2599, 1383, 1843, 1522
2600, 1520, 1695, 1389
2601, 1514, 1678, 1386
2602, 1314, 1647, 1615
2603, 1661, 1674, 1396
2604, 1516, 1805, 1318
2605, 281, 1631, 280
2606, 1615, 1647, 1431
2607, 179, 1605, 178
2608, 1499, 1798, 1656
2609, 1565, 1828, 1346
2610, 1340, 1811, 1697
2611, 1316, 1642, 1527
2612, 1656, 1798, 1416
2613, 1522, 1843, 1361
2614, 1456, 1835, 1625
2615, 1380, 1732, 1557
2616, 1548, 1793, 266
2617, 1410, 1874, 1751
2618, 1557, 1637, 1395
2619, 1341, 1743, 1717
2620, 1595, 1666, 1424
2621, 1514, 1767, 292
2622, 1523, 1705, 1330
2623, 1311, 1637, 1557
2624, 1411, 1666, 1595
2625, 1425, 1762, 1635
2626, 243, 1676, 1566
2627, 1462, 1859, 1852
2628, 1395, 1705, 1523
2629, 1392, 1654, 1649
2630, 1538, 1752, 1328
2631, 1575, 1735, 1376
2632, 1568, 1608, 1472
2633, 1411, 1775, 1523
2634, 1552, 1629, 1323
2635, 1377, 1608, 1568
2636, 1525, 1859, 1368
2637, 1517, 1788, 1357
2638, 1388, 1629, 1552
2639, 1519, 1773, 1353
2640, 1556, 1744, 263
2641, 1566, 1676, 1407
2642, 1526, 1650, 1329
2643, 1518, 1774, 1427
2644, 1623, 1767, 1386
2645, 1409, 1773, 1519
2646, 181, 1787, 1577
2647, 1629, 1675, 1481
2648, 182, 1787, 181
2649, 1562, 1736, 1367
2650, 1530, 1654, 1362
2651, 1345, 1638, 1541
2652, 1505, 1806, 1644
2653, 1616, 1765, 1385
2654, 1374, 1601, 1572
2655, 1558, 1683, 1367
2656, 1596, 1756, 1384
2657, 1532, 1663, 294
2658, 1727, 1867, 1456
2659, 1524, 1742, 172
2660, 179, 1812, 1605
2661, 1525, 1681, 1376
2662, 1389, 1694, 1548
2663, 1439, 1727, 1521
2664, 1308, 1668, 1531
2665, 1560, 1640, 1427
2666, 1381, 1737, 1539
2667, 1417, 1790, 1786
2668, 1362, 1840, 1530
2669, 1400, 1742, 1524
2670, 1524, 1804, 1400
2671, 1656, 1852, 1499
2672, 1451, 1838, 1641
2673, 1408, 1722, 1609
2674, 1341, 1717, 1536
2675, 1768, 1842, 1333
2676, 1528, 1817, 1372
2677, 1554, 1755, 1412
2678, 1570, 1606, 1374
2679, 1522, 1790, 1315
2680, 1370, 1804, 1524
2681, 1546, 1848, 279
2682, 1350, 1865, 1539
2683, 1625, 1871, 1456
2684, 279, 1741, 1546
2685, 1845, 1868, 1572
2686, 174, 1796, 173
2687, 173, 1796, 1524
2688, 251, 1838, 1561
2689, 1584, 1719, 1484
2690, 1404, 1753, 1542
2691, 1527, 1840, 1362
2692, 1659, 1726, 1325
2693, 1532, 1833, 1372
2694, 1373, 1610, 1577
2695, 265, 1707, 264
2696, 1329, 1792, 1526
2697, 1380, 1772, 1732
2698, 1438, 1845, 1572
2699, 1431, 1789, 1529
2700, 1429, 1822, 1630
2701, 1417, 1786, 1778
2702, 1560, 1774, 1312
2703, 1620, 1768, 1426
2704, 1592, 1726, 1432
2705, 1427, 1774, 1560
2706, 1618, 1797, 1384
2707, 1595, 1745, 270
2708, 1312, 1823, 1560
2709, 1544, 1687, 272
2710, 1463, 1768, 1620
2711, 186, 1699, 185
2712, 1722, 1862, 1609
2713, 1337, 1685, 1592
2714, 1542, 1753, 1371
2715, 1433, 1816, 1581
2716, 1631, 1741, 280
2717, 1605, 1812, 1455
2718, 1433, 1627, 1571
2719, 194, 1616, 193
2720, 1381, 1837, 1737
2721, 266, 1793, 265
2722, 1817, 1825, 1467
2723, 1402, 1833, 1532
2724, 1411, 1687, 1544
2725, 1539, 1839, 1453
2726, 1400, 1804, 1551
2727, 290, 1660, 289
2728, 1534, 1874, 1777
2729, 1408, 1830, 1722
2730, 1328, 1813, 1538
2731, 1548, 1682, 1389
2732, 1559, 1814, 1363
2733, 1556, 1816, 1744
2734, 1630, 1783, 1483
2735, 252, 1838, 251
2736, 1584, 1671, 1406
2737, 1430, 1763, 1702
2738, 1735, 1785, 1346
2739, 1426, 1783, 1630
2740, 1371, 1866, 1585
2741, 1777, 1874, 1410
2742, 1587, 1726, 1387
2743, 1739, 1749, 250
2744, 256, 1671, 1584
2745, 1538, 1747, 1360
2746, 1406, 1842, 1719
2747, 1537, 1786, 1361
2748, 275, 1621, 274
2749, 1336, 1709, 1550
2750, 1571, 1627, 1398
2751, 1579, 1760, 1477
2752, 1387, 1726, 1592
2753, 1725, 1818, 1339
2754, 172, 1742, 171
2755, 1412, 1755, 1541
2756, 1541, 1799, 1425
2757, 1543, 1776, 1440
2758, 1607, 1690, 1397
2759, 1606, 1762, 1334
2760, 1436, 1706, 1631
2761, 1631, 1706, 1423
2762, 1589, 1829, 1353
2763, 1545, 1780, 1399
2764, 1613, 1665, 1352
2765, 1399, 1757, 1545
2766, 1776, 1844, 1440
2767, 1546, 1741, 1423
2768, 239, 1652, 238
2769, 1566, 1857, 1508
2770, 1420, 1665, 1613
2771, 1550, 1684, 296
2772, 1545, 1757, 1315
2773, 1737, 1837, 1498
2774, 296, 1684, 295
2775, 1358, 1780, 1545
2776, 1544, 1775, 1411
2777, 1461, 1637, 1580
2778, 1580, 1637, 1311
2779, 289, 1756, 288
2780, 1442, 1661, 1618
2781, 296, 1708, 1550
2782, 1604, 1632, 1470
2783, 1373, 1632, 1604
2784, 1437, 1793, 1548
2785, 1625, 1835, 1344
2786, 1426, 1768, 1581
2787, 1424, 1745, 1595
2788, 264, 1707, 1556
2789, 1487, 1824, 1620
2790, 1594, 1648, 1379
2791, 1561, 1739, 251
2792, 1581, 1768, 1333
2793, 15, 1848, 1765
2794, 279, 1848, 15
2795, 1606, 1831, 1374
2796, 1647, 1743, 1431
2797, 1434, 1683, 1558
2798, 1435, 1759, 1681
2799, 269, 1745, 1559
2800, 1485, 1861, 1828
2801, 1551, 1804, 1370
2802, 1606, 1873, 1831
2803, 1450, 1806, 1336
2804, 1729, 1738, 1480
2805, 1591, 1694, 1389
2806, 15, 1765, 194
2807, 1551, 1841, 1336
2808, 1317, 1738, 1729
2809, 280, 1741, 279
2810, 250, 1749, 249
2811, 1617, 1787, 182
2812, 293, 1784, 292
2813, 1420, 1807, 1588
2814, 1346, 1861, 1735
2815, 1407, 1857, 1566
2816, 1735, 1861, 1547
2817, 1398, 1728, 1622
2818, 1424, 1814, 1559
2819, 1329, 1661, 1578
2820, 1555, 1833, 1402
2821, 1655, 1714, 1446
2822, 1603, 1639, 1380
2823, 1743, 1782, 1431
2824, 1407, 1714, 1655
2825, 1454, 1864, 1698
2826, 1662, 1781, 1435
2827, 1581, 1816, 1369
2828, 1363, 1814, 1553
2829, 1766, 1846, 1382
2830, 1578, 1661, 1396
2831, 265, 1793, 1707
2832, 1320, 1771, 1597
2833, 1565, 1704, 1390
2834, 1434, 1686, 1569
2835, 1454, 1749, 1739
2836, 1615, 1858, 1314
2837, 1556, 1827, 1369
2838, 241, 1724, 240
2839, 284, 1669, 23
2840, 271, 1687, 1595
2841, 1402, 1856, 1555
2842, 1558, 1746, 1318
2843, 1595, 1687, 1411
2844, 1372, 1833, 1555
2845, 1557, 1732, 1311
2846, 1621, 1854, 274
2847, 1356, 1869, 1569
2848, 1604, 1870, 1340
2849, 251, 1739, 250
2850, 257, 1671, 256
2851, 1470, 1870, 1604
2852, 275, 1853, 1621
2853, 1387, 1685, 1574
2854, 272, 1687, 271
2855, 171, 1742, 1634
2856, 261, 1794, 260
2857, 1367, 1736, 1558
2858, 1599, 1766, 1382
2859, 1369, 1783, 1581
2860, 1658, 1723, 1494
2861, 244, 1676, 243
2862, 1574, 1685, 1469
2863, 1581, 1783, 1426
2864, 1728, 1809, 1495
2865, 1326, 1723, 1658
2866, 270, 1745, 269
2867, 1559, 1745, 1424
2868, 1398, 1809, 1728
2869, 1486, 1758, 1752
2870, 1752, 1758, 1328
2871, 1620, 1824, 1463
2872, 1582, 1689, 1326
2873, 1369, 1816, 1556
2874, 1530, 1840, 1642
2875, 1492, 1801, 1600
2876, 1398, 1794, 1571
2877, 1436, 1803, 1585
2878, 178, 1769, 177
2879, 1395, 1815, 1557
2880, 1423, 1741, 1631
2881, 1447, 1860, 1565
2882, 1333, 1842, 1696
2883, 1585, 1803, 282
2884, 1657, 1659, 1397
2885, 1573, 1715, 1409
2886, 247, 1715, 1573
2887, 185, 1699, 1583
2888, 1432, 1659, 1657
2889, 1333, 1809, 1627
2890, 1765, 1848, 1489
2891, 248, 1715, 247
2892, 1463, 1842, 1768
2893, 1378, 1871, 1625
2894, 1391, 1670, 1597
2895, 1722, 1830, 1457
2896, 1396, 1717, 1578
2897, 1390, 1828, 1565
2898, 235, 1770, 234
2899, 1365, 1864, 1561
2900, 1415, 1647, 1646
2901, 1646, 1647, 1314
2902, 1592, 1685, 1387
2903, 1371, 1753, 1564
2904, 1561, 1838, 1451
2905, 1382, 1846, 1823
2906, 1335, 1694, 1591
2907, 1823, 1846, 1560
2908, 277, 1821, 1576
2909, 292, 1767, 291
2910, 1406, 1719, 1584
2911, 1618, 1661, 1329
2912, 1705, 1750, 1330
2913, 1461, 1750, 1705
2914, 177, 1769, 1593
2915, 237, 1731, 236
2916, 176, 1802, 175
2917, 1400, 1734, 1634
2918, 1576, 1821, 1443
2919, 1564, 1779, 1371
2920, 1375, 1863, 1563
2921, 1443, 1851, 1586
2922, 263, 1744, 262
2923, 1455, 1697, 1605
2924, 1575, 1759, 1309
2925, 1332, 1868, 1845
2926, 1641, 1701, 1394
2927, 1325, 1726, 1587
2928, 1696, 1809, 1333
2929, 1744, 1816, 1433
2930, 1586, 1851, 191
2931, 1605, 1697, 1422
2932, 1571, 1794, 261
2933, 1570, 1800, 1320
2934, 1585, 1866, 1436
2935, 1577, 1798, 1373
2936, 1416, 1798, 1577
2937, 297, 1761, 24
2938, 260, 1794, 1622
2939, 1835, 1867, 1512
2940, 1628, 1664, 1385
2941, 1718, 1829, 1399
2942, 1569, 1869, 1392
2943, 1578, 1792, 1329
2944, 1702, 1847, 1319
2945, 1352, 1740, 1613
2946, 1488, 1847, 1702
2947, 1466, 1716, 1617
2948, 1415, 1792, 1578
2949, 1589, 1757, 1399
2950, 1732, 1772, 1438
2951, 1613, 1740, 1459
2952, 278, 1821, 277
2953, 1577, 1787, 1416
2954, 240, 1724, 1636
2955, 1453, 1855, 1815
2956, 1388, 1675, 1629
2957, 1481, 1846, 1766
2958, 1572, 1868, 1444
2959, 1653, 1713, 1354
2960, 1429, 1713, 1653
2961, 1588, 1807, 1309
2962, 1668, 1830, 1408
2963, 1617, 1716, 1416
2964, 191, 1851, 190
2965, 1444, 1868, 1590
2966, 1623, 1819, 1452
2967, 180, 1812, 179
2968, 1386, 1819, 1623
2969, 282, 1803, 281
2970, 1422, 1769, 1605
2971, 1590, 1868, 1332
2972, 1605, 1769, 178
2973, 1342, 1776, 1679
2974, 1420, 1692, 1665
2975, 1655, 1857, 1407
2976, 1633, 1725, 1468
2977, 188, 1826, 187
2978, 1590, 1779, 1444
2979, 288, 1756, 1596
2980, 1371, 1779, 1590
2981, 1688, 1778, 1502
2982, 1672, 1673, 1449
2983, 274, 1854, 273
2984, 1401, 1673, 1672
2985, 24, 1761, 1708
2986, 276, 1853, 275
2987, 1612, 1813, 1328
2988, 1680, 1827, 1437
2989, 1784, 1825, 1514
2990, 1467, 1825, 1784
2991, 1622, 1794, 1398
2992, 1593, 1769, 1422
2993, 1317, 1867, 1727
2994, 1611, 1791, 1324
2995, 1338, 1862, 1722
2996, 1597, 1771, 1391
2997, 1456, 1867, 1835
2998, 1586, 1834, 1443
2999, 1594, 1782, 1341
3000, 1693, 1818, 1414
3001, 291, 1767, 1623
3002, 1335, 1872, 1680
3003, 1448, 1873, 1721
3004, 1680, 1872, 1483
3005, 1422, 1808, 1593
3006, 1665, 1692, 1419
3007, 1416, 1787, 1617
3008, 1506, 1845, 1772
3009, 1772, 1845, 1438
3010, 1693, 1710, 1439
3011, 1839, 1855, 1453
3012, 1399, 1829, 1589
3013, 1416, 1716, 1656
3014, 1782, 1789, 1431
3015, 1631, 1803, 1436
3016, 1630, 1822, 1313
3017, 281, 1803, 1631
3018, 1636, 1724, 1405
3019, 1329, 1797, 1618
3020, 1421, 1725, 1633
3021, 1711, 1871, 1378
3022, 1600, 1801, 1337
3023, 1521, 1871, 1711
3024, 194, 1765, 1616
3025, 1656, 1716, 1344
3026, 1707, 1793, 1437
3027, 1324, 1860, 1611
3028, 1590, 1866, 1371
3029, 1643, 1774, 1518
3030, 1611, 1777, 1410
3031, 1611, 1860, 1447
3032, 1634, 1742, 1400
3033, 1633, 1826, 1421
3034, 1773, 1850, 1353
3035, 1501, 1850, 1773
3036, 1414, 1710, 1693
3037, 1374, 1831, 1601
3038, 1410, 1791, 1611
3039, 1610, 1812, 180
3040, 1497, 1819, 1651
3041, 1614, 1808, 1422
3042, 1428, 1713, 1712
3043, 1635, 1762, 1418
3044, 1415, 1743, 1647
3045, 1380, 1855, 1603
3046, 234, 1770, 1703
3047, 1712, 1713, 1429
3048, 1831, 1873, 1448
3049, 1455, 1812, 1610
3050, 1405, 1813, 1612
3051, 1613, 1807, 1420
3052, 1349, 1808, 1614
3053, 1614, 1811, 1427
3054, 1748, 1810, 1319
3055, 1506, 1772, 1639
3056, 1639, 1772, 1380
3057, 1377, 1844, 1608
3058, 1565, 1860, 1704
3059, 1650, 1797, 1329
3060, 1334, 1873, 1606
3061, 1706, 1832, 1423
3062, 1312, 1774, 1643
3063, 1609, 1862, 1449
3064, 1677, 1828, 1390
3065, 1421, 1826, 1703
3066, 1679, 1771, 1475
3067, 1391, 1771, 1679
3068, 1652, 1788, 1517
3069, 1393, 1858, 1615
3070, 1447, 1785, 1740
3071, 1627, 1809, 1398
3072, 1736, 1746, 1558
3073, 1707, 1827, 1556
3074, 1740, 1785, 1459
3075, 1341, 1782, 1743
3076, 1660, 1795, 1491
3077, 1480, 1738, 1733
3078, 1319, 1847, 1748
3079, 1428, 1820, 1713
3080, 1748, 1847, 1478
3081, 1441, 1788, 1652
3082, 187, 1826, 1633
3083, 1667, 1815, 1395
3084, 1733, 1738, 1413
3085, 1642, 1840, 1527
3086, 175, 1802, 1645
3087, 1423, 1832, 1764
3088, 1445, 1797, 1650
3089, 1703, 1770, 1421
3090, 1403, 1746, 1736
3091, 1452, 1795, 1660
3092, 1454, 1850, 1749
3093, 1749, 1850, 1501
3094, 1429, 1872, 1712
3095, 1461, 1763, 1750
3096, 1512, 1867, 1729
3097, 1709, 1856, 1402
3098, 1417, 1778, 1688
3099, 1514, 1825, 1678
3100, 1465, 1856, 1709
3101, 1759, 1849, 1309
3102, 1678, 1825, 1343
3103, 1560, 1846, 1640
3104, 1714, 1801, 1446
3105, 1337, 1801, 1714
3106, 1748, 1820, 1428
3107, 1640, 1846, 1481
3108, 1651, 1819, 1386
3109, 1353, 1850, 1698
3110, 1698, 1850, 1454
3111, 1495, 1809, 1696
3112, 1653, 1822, 1429
3113, 1755, 1799, 1541
3114, 1332, 1845, 1832
3115, 1832, 1845, 1506
3116, 1750, 1763, 1430
3117, 1497, 1791, 1751
3118, 1453, 1815, 1667
3119, 1751, 1791, 1410
3120, 1336, 1841, 1709
3121, 1708, 1761, 1450
3122, 1754, 1821, 278
3123, 1449, 1862, 1672
3124, 1672, 1862, 1338
3125, 1529, 1789, 1730
3126, 1308, 1830, 1668
3127, 1730, 1789, 1379
3128, 1703, 1826, 188
3129, 1478, 1820, 1748
3130, 1339, 1818, 1693
3131, 1360, 1857, 1655
3132, 1442, 1836, 1674
3133, 1674, 1836, 1316
3134, 1485, 1828, 1677
3135, 1737, 1839, 1539
3136, 1322, 1839, 1737
3137, 1644, 1806, 1450
3138, 1713, 1820, 1354
3139, 1437, 1827, 1707
3140, 1332, 1832, 1706
3141, 1696, 1842, 1406
3142, 1308, 1799, 1755
3143, 190, 1851, 1754
3144, 1739, 1864, 1454
3145, 1561, 1864, 1739
3146, 1747, 1813, 1405
3147, 1709, 1841, 1465
3148, 1428, 1810, 1748
3149, 1538, 1813, 1747
3150, 1704, 1860, 1324
3151, 1443, 1821, 1754
3152, 1712, 1872, 1335
3153, 1435, 1849, 1759
3154, 1764, 1832, 1506
3155, 1729, 1867, 1317
3156, 1754, 1851, 1443
3157, 1781, 1849, 1435
3158, 1471, 1849, 1781
*ELEMENT, type=CPS3, ELSET=Surface9
3159, 1889, 1903, 1878
3160, 1880, 1903, 1889
3161, 1893, 1902, 1879
3162, 1882, 1902, 1893
3163, 1875, 1900, 1897
3164, 1875, 1901, 1898
3165, 1896, 1900, 1875
3166, 1897, 1901, 1875
3167, 1876, 1917, 1884
3168, 1884, 1915, 1876
3169, 1877, 1914, 1885
3170, 1885, 1916, 1877
3171, 1887, 1918, 1879
3172, 1878, 1919, 1886
3173, 1879, 1912, 1887
3174, 1886, 1913, 1878
3175, 1876, 1915, 1888
3176, 1894, 1917, 1876
3177, 1890, 1914, 1877
3178, 1881, 1900, 1888
3179, 1888, 1900, 1876
3180, 1879, 1918, 1893
3181, 1891, 1919, 1878
3182, 1877, 1916, 1895
3183, 1895, 1901, 1877
3184, 1883, 1901, 1895
3185, 1892, 1912, 1879
3186, 1878, 1913, 1889
3187, 1875, 1902, 1896
3188, 1899, 1902, 1875
3189, 1898, 1903, 1875
3190, 1875, 1903, 1899
3191, 200, 1890, 199
3192, 198, 1888, 197
3193, 303, 1895, 302
3194, 315, 1893, 314
3195, 317, 1894, 316
3196, 305, 1891, 304
3197, 308, 1892, 309
3198, 310, 1889, 311
3199, 1890, 1904, 199
3200, 303, 1906, 1895
3201, 1894, 1907, 316
3202, 315, 1907, 1893
3203, 198, 1904, 1888
3204, 1892, 1905, 309
3205, 1891, 1906, 304
3206, 310, 1905, 1889
3207, 1881, 1904, 1890
3208, 1895, 1906, 1883
3209, 1882, 1907, 1894
3210, 1888, 1904, 1881
3211, 1880, 1905, 1892
3212, 1893, 1907, 1882
3213, 1889, 1905, 1880
3214, 1883, 1906, 1891
3215, 1878, 1903, 1898
3216, 1897, 1900, 1881
3217, 1898, 1901, 1883
3218, 1879, 1902, 1899
3219, 1913, 1923, 312
3220, 306, 1923, 1919
3221, 1915, 1920, 196
3222, 307, 1922, 1912
3223, 1918, 1922, 313
3224, 201, 1921, 1914
3225, 1876, 1900, 1896
3226, 318, 1920, 1917
3227, 1916, 1921, 301
3228, 1896, 1902, 1882
3229, 1877, 1901, 1897
3230, 1899, 1903, 1880
3231, 1888, 1915, 197
3232, 305, 1919, 1891
3233, 200, 1914, 1890
3234, 1886, 1923, 1913
3235, 1893, 1918, 314
3236, 1912, 1922, 1887
3237, 1889, 1913, 311
3238, 317, 1917, 1894
3239, 308, 1912, 1892
3240, 1895, 1916, 302
3241, 1919, 1923, 1886
3242, 1887, 1922, 1918
3243, 1884, 1920, 1915
3244, 1914, 1921, 1885
3245, 1885, 1921, 1916
3246, 1891, 1911, 1883
3247, 1879, 1908, 1892
3248, 1878, 1911, 1891
3249, 1877, 1909, 1890
3250, 1890, 1909, 1881
3251, 1917, 1920, 1884
3252, 1894, 1910, 1882
3253, 1892, 1908, 1880
3254, 1876, 1910, 1894
3255, 197, 1915, 196
3256, 311, 1913, 312
3257, 306, 1919, 305
3258, 307, 1912, 308
3259, 314, 1918, 313
3260, 201, 1914, 200
3261, 318, 1917, 317
3262, 302, 1916, 301
3263, 1896, 1910, 1876
3264, 1882, 1910, 1896
3265, 1881, 1909, 1897
3266, 1898, 1911, 1878
3267, 1883, 1911, 1898
3268, 1897, 1909, 1877
3269, 1899, 1908, 1879
3270, 1880, 1908, 1899
3271, 16, 1920, 318
3272, 312, 1923, 26
3273, 196, 1920, 16
3274, 27, 1922, 307
3275, 26, 1923, 306
3276, 301, 1921, 17
3277, 17, 1921, 201
3278, 313, 1922, 27
3279, 199, 1904, 198
3280, 309, 1905, 310
3281, 304, 1906, 303
3282, 316, 1907, 315
*ELEMENT, type=CPS3, ELSET=Surface10
3283, 448, 2539, 2543
3284, 2267, 2075, 2792
3285, 1935, 2437, 2553
3286, 2437, 2149, 2553
3287, 2326, 452, 2820
3288, 2298, 2037, 2712
3289, 2074, 2318, 2849
3290, 2318, 2186, 2849
3291, 1988, 2287, 2591
3292, 2260, 2759, 2870
3293, 2427, 2826, 3122
3294, 2271, 1956, 3085
3295, 2397, 420, 3020
3296, 2287, 2085, 2591
3297, 2075, 2267, 2921
3298, 2596, 1957, 2849
3299, 2809, 2476, 3068
3300, 2251, 2744, 2972
3301, 2464, 2076, 2555
3302, 2225, 2476, 2809
3303, 2429, 1963, 2778
3304, 2010, 2275, 2733
3305, 1956, 2271, 2768
3306, 2160, 2464, 2555
3307, 2274, 2710, 2975
3308, 2429, 2778, 2823
3309, 2299, 2122, 2801
3310, 2710, 1941, 2975
3311, 2078, 2321, 2970
3312, 2471, 1971, 2601
3313, 2179, 2471, 2601
3314, 2437, 2598, 2888
3315, 2767, 2233, 2802
3316, 2417, 1962, 2663
3317, 2441, 2124, 2459
3318, 425, 2322, 3246
3319, 2390, 1976, 2500
3320, 2049, 2441, 2459
3321, 2118, 2390, 2500
3322, 2301, 1952, 2705
3323, 2094, 2277, 2689
3324, 2275, 2010, 2957
3325, 2826, 2236, 3122
3326, 2305, 1974, 2633
3327, 438, 2316, 2605
3328, 2149, 2437, 2888
3329, 2759, 1967, 2870
3330, 2176, 2584, 2645
3331, 2114, 2294, 2935
3332, 357, 356, 2352
3333, 2168, 2314, 3044
3334, 458, 457, 2360
3335, 2439, 2057, 2641
3336, 2719, 2113, 3175
3337, 2034, 2360, 2599
3338, 2037, 2317, 2712
3339, 1925, 2312, 2664
3340, 2399, 1960, 2450
3341, 2140, 2399, 2450
3342, 2641, 2057, 2791
3343, 2314, 2677, 3044
3344, 2167, 2413, 2653
3345, 2413, 1939, 2653
3346, 458, 2360, 2825
3347, 2804, 2453, 2853
3348, 1974, 2305, 3029
3349, 2365, 2142, 2710
3350, 2025, 2331, 2787
3351, 448, 447, 2539
3352, 421, 420, 2397
3353, 2374, 2170, 2572
3354, 357, 2352, 2889
3355, 2317, 2037, 2561
3356, 2075, 2396, 2484
3357, 2583, 2269, 2881
3358, 1946, 2280, 2775
3359, 2280, 2127, 2775
3360, 2233, 2472, 2828
3361, 2150, 2360, 2565
3362, 2099, 2343, 2695
3363, 2360, 2034, 2565
3364, 1965, 2453, 2804
3365, 2473, 2060, 2477
3366, 2295, 1955, 2757
3367, 2283, 2015, 2763
3368, 452, 451, 2820
3369, 2326, 2026, 2421
3370, 1955, 2295, 2737
3371, 2329, 2033, 2422
3372, 2078, 2970, 3085
3373, 2322, 425, 2869
3374, 2618, 2212, 2661
3375, 2231, 2496, 2774
3376, 346, 2334, 3296
3377, 2289, 2001, 2784
3378, 2146, 2324, 2557
3379, 2151, 2411, 2604
3380, 2411, 1969, 2604
3381, 2302, 1945, 2790
3382, 2146, 2302, 2790
3383, 2324, 1983, 2557
3384, 2293, 2021, 2781
3385, 2417, 2663, 2812
3386, 2407, 1987, 2648
3387, 2129, 2473, 2477
3388, 2173, 2499, 2583
3389, 2499, 1956, 2583
3390, 2165, 2407, 2648
3391, 2126, 2381, 2837
3392, 2187, 2446, 2725
3393, 2339, 2044, 2867
3394, 2362, 2064, 2580
3395, 2455, 2854, 3197
3396, 2647, 2126, 2837
3397, 2487, 2139, 2494
3398, 334, 2395, 2803
3399, 426, 425, 3246
3400, 2322, 2035, 2423
3401, 2277, 2094, 2633
3402, 2135, 2449, 2505
3403, 2198, 2483, 2661
3404, 2483, 1998, 2661
3405, 2612, 2101, 2839
3406, 2449, 2062, 2505
3407, 334, 333, 2395
3408, 2292, 1965, 3232
3409, 379, 378, 2367
3410, 2427, 1934, 2826
3411, 2744, 2182, 2972
3412, 2652, 2285, 3206
3413, 2285, 2993, 3206
3414, 2052, 2364, 2954
3415, 2301, 2066, 2550
3416, 2001, 2289, 2729
3417, 2289, 2112, 2729
3418, 2305, 2633, 2961
3419, 2058, 2445, 2508
3420, 2020, 2301, 2550
3421, 2365, 2710, 3074
3422, 2489, 219, 3123
3423, 2037, 2298, 2942
3424, 2289, 2047, 2533
3425, 2101, 2397, 2816
3426, 2100, 2370, 2525
3427, 2347, 2045, 2962
3428, 2370, 1961, 2525
3429, 2068, 2314, 2605
3430, 2042, 2395, 2690
3431, 2127, 2280, 2911
3432, 1954, 2487, 2494
3433, 2446, 1981, 2725
3434, 2306, 2087, 2606
3435, 2510, 2165, 2786
3436, 2391, 2052, 2954
3437, 2323, 2000, 2740
3438, 2072, 2583, 2881
3439, 1993, 2642, 2874
3440, 386, 2493, 2617
3441, 2538, 2286, 3075
3442, 2472, 2172, 2828
3443, 2280, 1946, 2610
3444, 2668, 2347, 2962
3445, 2026, 2326, 2584
3446, 2030, 2310, 2822
3447, 323, 322, 2393
3448, 347, 346, 3296
3449, 2083, 2467, 2570
3450, 2082, 2297, 2609
3451, 2326, 2095, 2584
3452, 2455, 2184, 2854
3453, 2314, 2068, 2677
3454, 2731, 2598, 3210
3455, 2259, 2719, 3175
3456, 1998, 2618, 2661
3457, 1979, 2382, 2676
3458, 2467, 2150, 2570
3459, 2296, 1964, 2513
3460, 2320, 2036, 2462
3461, 2486, 2267, 2792
3462, 2340, 2233, 2767
3463, 2304, 1959, 3280
3464, 2162, 2337, 2786
3465, 2337, 2008, 2786
3466, 2393, 322, 2805
3467, 2432, 404, 2511
3468, 2037, 2358, 2561
3469, 452, 2326, 3159
3470, 2035, 2322, 2582
3471, 2344, 2126, 2647
3472, 2496, 2231, 3065
3473, 2358, 1966, 2561
3474, 2322, 2090, 2582
3475, 2104, 2750, 2932
3476, 2385, 2919, 3054
3477, 379, 2367, 2967
3478, 2294, 2070, 2512
3479, 2919, 2211, 3054
3480, 2015, 2283, 2772
3481, 2584, 2095, 2645
3482, 2294, 2114, 3016
3483, 2100, 2369, 2682
3484, 1931, 2415, 2666
3485, 2244, 2612, 2839
3486, 2651, 2101, 2816
3487, 2867, 2044, 3162
3488, 2085, 2287, 2817
3489, 323, 2393, 2529
3490, 1952, 2301, 2931
3491, 2499, 2173, 2614
3492, 2372, 2052, 2638
3493, 2676, 2382, 2960
3494, 2446, 2187, 2864
3495, 2398, 2045, 2547
3496, 2334, 2039, 2452
3497, 2297, 444, 3214
3498, 2108, 2357, 2573
3499, 2379, 2193, 2607
3500, 2521, 2194, 2639
3501, 2450, 2892, 3061
3502, 2301, 2020, 2934
3503, 1968, 2505, 2818
3504, 2536, 2270, 3142
3505, 2287, 1988, 2592
3506, 2689, 2277, 2872
3507, 2450, 1960, 2892
3508, 2363, 2057, 2497
3509, 2106, 2521, 2639
3510, 2350, 2055, 2574
3511, 2331, 2060, 2473
3512, 2368, 2123, 2830
3513, 2334, 346, 2693
3514, 2333, 2064, 2597
3515, 2267, 2486, 3111
3516, 2010, 2369, 2554
3517, 2369, 2100, 2554
3518, 2751, 2264, 2999
3519, 2242, 2397, 3020
3520, 3051, 2441, 3312
3521, 2695, 2343, 2838
3522, 2104, 2288, 2750
3523, 2818, 2505, 2891
3524, 2361, 2143, 2762
3525, 2393, 2043, 2529
3526, 2288, 2104, 2588
3527, 2065, 2298, 2665
3528, 2291, 3051, 3312
3529, 2331, 2595, 2787
3530, 2052, 2407, 2638
3531, 2728, 2265, 3118
3532, 2034, 2292, 2565
3533, 2374, 2572, 2845
3534, 2261, 2446, 2864
3535, 1961, 2331, 2473
3536, 1997, 2598, 2731
3537, 2330, 2030, 2822
3538, 2591, 2186, 2615
3539, 2034, 2599, 3037
3540, 2000, 2323, 3098
3541, 2642, 2248, 2874
3542, 2054, 2538, 3075
3543, 2066, 2301, 2705
3544, 2085, 2320, 2596
3545, 2077, 2307, 2806
3546, 2324, 2054, 2672
3547, 2186, 2596, 2849
3548, 1978, 2430, 2667
3549, 2722, 2325, 3147
3550, 381, 380, 2391
3551, 2072, 2418, 2551
3552, 2103, 2286, 2701
3553, 2695, 2006, 3069
3554, 2061, 2367, 3227
3555, 2089, 2451, 2526
3556, 2089, 2526, 3112
3557, 1959, 2304, 3060
3558, 2321, 2078, 2644
3559, 2286, 2103, 2835
3560, 2265, 2728, 3161
3561, 2120, 2722, 3147
3562, 2357, 2108, 2691
3563, 2242, 2594, 2816
3564, 1984, 2388, 2800
3565, 2298, 2065, 2942
3566, 2047, 2289, 2784
3567, 2388, 2188, 2800
3568, 2297, 2082, 2771
3569, 2292, 2034, 2859
3570, 2194, 2425, 2639
3571, 2425, 1962, 2639
3572, 2042, 2690, 3194
3573, 2750, 2268, 2932
3574, 2331, 2025, 2537
3575, 2472, 2127, 2674
3576, 2552, 2061, 3227
3577, 2155, 2767, 2802
3578, 2463, 2125, 2716
3579, 342, 341, 2398
3580, 2172, 2472, 2674
3581, 2362, 2134, 2650
3582, 1938, 2362, 2650
3583, 220, 219, 2489
3584, 1999, 2735, 3018
3585, 2021, 2293, 2827
3586, 2256, 2880, 3015
3587, 2294, 2512, 2935
3588, 2723, 2009, 2796
3589, 2342, 2122, 2736
3590, 1973, 2368, 3255
3591, 2519, 2097, 2659
3592, 2018, 2441, 3051
3593, 2112, 2289, 2720
3594, 2070, 2294, 2600
3595, 2190, 2519, 2659
3596, 345, 344, 2416
3597, 2614, 2173, 2925
3598, 1949, 2689, 2872
3599, 2151, 2604, 2797
3600, 2604, 2281, 2797
3601, 2270, 2536, 3201
3602, 368, 2345, 2673
3603, 2115, 2295, 3293
3604, 2527, 2211, 2776
3605, 396, 395, 2387
3606, 2087, 2306, 2715
3607, 2057, 2415, 2497
3608, 407, 406, 2410
3609, 2529, 2043, 2846
3610, 2633, 2094, 2961
3611, 429, 2315, 2848
3612, 1964, 2296, 2844
3613, 2788, 1973, 2979
3614, 2313, 2074, 2732
3615, 2367, 2061, 2546
3616, 2894, 2564, 3262
3617, 2642, 2966, 3204
3618, 2118, 2756, 2871
3619, 1965, 2292, 2716
3620, 2093, 2299, 2586
3621, 2141, 2355, 2780
3622, 2781, 2021, 3124
3623, 2344, 2647, 3099
3624, 2586, 2299, 2801
3625, 2362, 2580, 2717
3626, 2061, 2374, 2546
3627, 2368, 2515, 3255
3628, 1988, 2591, 2615
3629, 2338, 1958, 2916
3630, 2360, 2150, 2825
3631, 364, 2311, 3242
3632, 2198, 2338, 2916
3633, 2463, 2716, 3233
3634, 336, 335, 2457
3635, 2283, 2489, 3123
3636, 2059, 2365, 2885
3637, 2139, 2358, 2494
3638, 2183, 2359, 3010
3639, 1931, 2666, 2798
3640, 2565, 2292, 3232
3641, 2320, 2085, 3014
3642, 2213, 2751, 2851
3643, 2055, 2430, 2574
3644, 2516, 2368, 2830
3645, 2009, 2447, 2587
3646, 2012, 2401, 3146
3647, 2447, 2153, 2587
3648, 2341, 1964, 2535
3649, 361, 360, 2400
3650, 2176, 2385, 2584
3651, 2080, 2341, 2535
3652, 444, 2297, 2771
3653, 2295, 2115, 2737
3654, 2345, 2169, 2655
3655, 2385, 1946, 2919
3656, 2682, 2369, 2898
3657, 434, 2306, 3209
3658, 2186, 2318, 2615
3659, 2416, 344, 2901
3660, 2122, 2299, 2741
3661, 2054, 2324, 2534
3662, 418, 417, 2373
3663, 2088, 2311, 2640
3664, 2946, 2569, 3131
3665, 2299, 2093, 2658
3666, 2854, 2272, 3197
3667, 2667, 2430, 2917
3668, 2508, 2445, 2920
3669, 2161, 2317, 2561
3670, 2302, 2146, 2667
3671, 2406, 2653, 3107
3672, 342, 2398, 2547
3673, 2420, 2173, 2551
3674, 1977, 2527, 2776
3675, 2286, 2538, 2701
3676, 2262, 2723, 2796
3677, 2091, 2329, 2686
3678, 2305, 2961, 3244
3679, 2993, 2249, 3206
3680, 446, 445, 2528
3681, 2134, 2305, 2650
3682, 2770, 2107, 2994
3683, 2008, 2510, 2786
3684, 2398, 341, 2847
3685, 2391, 380, 2967
3686, 2075, 2484, 2697
3687, 439, 438, 2605
3688, 2067, 2384, 2603
3689, 2348, 2131, 2683
3690, 2038, 2348, 2683
3691, 2376, 436, 3209
3692, 1959, 2491, 3280
3693, 2448, 2239, 2754
3694, 2214, 2564, 2894
3695, 2087, 2495, 2613
3696, 2356, 2046, 2486
3697, 2315, 2079, 2848
3698, 2495, 2196, 2613
3699, 2401, 2508, 3146
3700, 2084, 2336, 2673
3701, 2048, 2355, 2492
3702, 1945, 2302, 2745
3703, 2839, 1979, 3040
3704, 2074, 2313, 2895
3705, 2594, 2007, 2816
3706, 1942, 2477, 2832
3707, 321, 320, 2469
3708, 2177, 2312, 3152
3709, 2060, 2331, 2537
3710, 2103, 2458, 2485
3711, 2332, 2212, 2618
3712, 2264, 2751, 3147
3713, 2317, 410, 2712
3714, 2551, 2173, 3256
3715, 2041, 2380, 2481
3716, 2084, 2345, 2655
3717, 2406, 2111, 2653
3718, 2311, 364, 2640
3719, 2343, 2099, 3195
3720, 2360, 457, 2599
3721, 2307, 355, 2806
3722, 449, 448, 2543
3723, 2171, 2370, 2714
3724, 416, 415, 2381
3725, 2226, 2424, 2739
3726, 418, 2373, 2522
3727, 2410, 406, 3076
3728, 2306, 434, 2715
3729, 2403, 2059, 3179
3730, 324, 323, 2529
3731, 2590, 2223, 2662
3732, 2065, 2541, 2779
3733, 1925, 2590, 2662
3734, 2305, 2134, 3029
3735, 2652, 1966, 2814
3736, 2285, 2652, 2814
3737, 1967, 2363, 2497
3738, 2141, 2780, 2890
3739, 2447, 2115, 2749
3740, 2361, 2227, 2535
3741, 2199, 2427, 2498
3742, 2351, 1981, 3141
3743, 2008, 2337, 2566
3744, 404, 403, 2511
3745, 2415, 2124, 2497
3746, 222, 221, 2404
3747, 2079, 2315, 3036
3748, 2366, 2046, 2496
3749, 2395, 2156, 2803
3750, 2348, 2038, 3223
3751, 436, 435, 3209
3752, 2705, 1952, 3087
3753, 405, 404, 2432
3754, 2311, 2088, 2687
3755, 2550, 2066, 2553
3756, 2071, 2569, 2946
3757, 2367, 2206, 2967
3758, 2713, 2438, 3037
3759, 2390, 2071, 2480
3760, 1976, 2390, 2480
3761, 2149, 2550, 2553
3762, 2310, 2030, 2815
3763, 2307, 2077, 2758
3764, 355, 2307, 3021
3765, 2325, 2722, 3004
3766, 2315, 429, 2841
3767, 2318, 2172, 2615
3768, 2642, 2268, 2966
3769, 450, 2579, 2820
3770, 1979, 2619, 3040
3771, 2188, 2388, 2856
3772, 2370, 2207, 2714
3773, 2703, 2204, 2724
3774, 1977, 2438, 2713
3775, 2387, 395, 2558
3776, 2318, 2074, 2895
3777, 2183, 2480, 2581
3778, 2313, 2631, 2895
3779, 2631, 1924, 2895
3780, 1980, 2540, 2732
3781, 2065, 2327, 2942
3782, 396, 2387, 2861
3783, 451, 450, 2820
3784, 2739, 2424, 3003
3785, 2316, 2158, 2636
3786, 446, 2528, 2950
3787, 2312, 1925, 3251
3788, 2886, 2256, 3034
3789, 2342, 2209, 2585
3790, 2059, 2885, 3179
3791, 2576, 2403, 3179
3792, 1991, 2498, 2882
3793, 460, 459, 2467
3794, 2368, 2056, 2515
3795, 2056, 2368, 2516
3796, 2314, 2168, 2907
3797, 326, 2379, 2686
3798, 2096, 2334, 2693
3799, 2338, 2212, 2996
3800, 2396, 2074, 2484
3801, 413, 412, 2403
3802, 2312, 2177, 2909
3803, 2779, 2541, 2988
3804, 228, 227, 2658
3805, 431, 430, 2518
3806, 2338, 2996, 3112
3807, 2157, 2393, 2805
3808, 336, 2457, 2990
3809, 2240, 2355, 3061
3810, 2355, 2048, 3061
3811, 2353, 2202, 3079
3812, 2607, 2193, 3055
3813, 2832, 2477, 3261
3814, 2269, 2583, 3099
3815, 1944, 2581, 2748
3816, 2068, 2458, 2677
3817, 2581, 2235, 2748
3818, 2447, 2749, 3001
3819, 363, 362, 2426
3820, 340, 339, 2464
3821, 2590, 2032, 2938
3822, 2664, 2312, 2909
3823, 2317, 2161, 3164
3824, 2361, 2762, 3258
3825, 2062, 2432, 2511
3826, 2359, 2606, 3010
3827, 1993, 2520, 2623
3828, 2775, 2263, 2919
3829, 1991, 2882, 3052
3830, 2520, 2159, 2623
3831, 2158, 2316, 3046
3832, 2493, 2105, 2617
3833, 2551, 2418, 2956
3834, 1973, 2645, 2979
3835, 2334, 2096, 2680
3836, 1934, 2509, 2568
3837, 2276, 2624, 3229
3838, 2308, 2781, 3124
3839, 1964, 2361, 2535
3840, 2373, 2063, 2522
3841, 2331, 1961, 2595
3842, 2961, 2219, 3244
3843, 2658, 227, 3315
3844, 2039, 2334, 2680
3845, 1948, 2428, 2896
3846, 2416, 2191, 2589
3847, 2212, 2332, 3041
3848, 2509, 2145, 2568
3849, 449, 2543, 3019
3850, 2344, 1956, 2768
3851, 2428, 2229, 2896
3852, 2399, 2112, 2602
3853, 2148, 2530, 2651
3854, 2405, 1958, 2698
3855, 2400, 2051, 2709
3856, 1940, 2644, 2711
3857, 1960, 2399, 2602
3858, 2407, 2165, 2638
3859, 2644, 2247, 2711
3860, 2471, 2179, 2965
3861, 2410, 2245, 2541
3862, 2547, 2045, 2948
3863, 2073, 2437, 2622
3864, 2189, 2400, 2709
3865, 2362, 1938, 2794
3866, 423, 422, 2612
3867, 2593, 2256, 3015
3868, 2378, 2116, 2654
3869, 2023, 2378, 2654
3870, 2996, 2089, 3112
3871, 2401, 2058, 2508
3872, 2036, 2320, 2700
3873, 2324, 2146, 2790
3874, 361, 2400, 2923
3875, 2486, 2046, 3111
3876, 2585, 2209, 2761
3877, 2624, 2276, 3058
3878, 2754, 2239, 3069
3879, 2374, 1987, 2546
3880, 1933, 2486, 2792
3881, 2278, 2875, 2894
3882, 2732, 2540, 3113
3883, 2316, 438, 3046
3884, 2213, 2577, 2751
3885, 2427, 2053, 2498
3886, 2739, 2197, 2742
3887, 2229, 2428, 2683
3888, 2206, 2367, 2546
3889, 2172, 2318, 3300
3890, 2323, 2740, 2981
3891, 2465, 2073, 2622
3892, 1983, 2324, 2672
3893, 2329, 2091, 2684
3894, 2033, 2329, 2684
3895, 2573, 2357, 2999
3896, 2239, 2695, 3069
3897, 2408, 2214, 2894
3898, 2678, 2251, 2972
3899, 1950, 2408, 2894
3900, 410, 2317, 3164
3901, 1957, 2484, 2849
3902, 2653, 1939, 3107
3903, 2780, 2355, 2980
3904, 2090, 2322, 2869
3905, 2672, 2054, 3075
3906, 2719, 2980, 3129
3907, 2430, 2163, 2574
3908, 2414, 2080, 2721
3909, 2458, 2068, 2485
3910, 2152, 2502, 2540
3911, 1954, 2494, 3235
3912, 2494, 2327, 3235
3913, 2389, 366, 3242
3914, 2203, 2571, 2694
3915, 2571, 1936, 2694
3916, 2722, 2120, 2896
3917, 2248, 2590, 2664
3918, 2590, 1925, 2664
3919, 2073, 2465, 2776
3920, 433, 432, 2495
3921, 444, 443, 3214
3922, 1968, 2342, 2585
3923, 1970, 2485, 2636
3924, 2144, 2465, 2622
3925, 405, 2432, 3076
3926, 2164, 2387, 2812
3927, 2966, 2032, 3204
3928, 2719, 1996, 2980
3929, 398, 397, 2454
3930, 1930, 2350, 2574
3931, 2387, 2040, 2812
3932, 2440, 1978, 2679
3933, 2147, 2440, 2679
3934, 2496, 2046, 2774
3935, 2503, 2134, 2549
3936, 2709, 2351, 3141
3937, 2212, 2338, 2661
3938, 2765, 2315, 2841
3939, 2192, 2765, 2841
3940, 2050, 2412, 2524
3941, 2561, 1966, 2918
3942, 387, 386, 2617
3943, 2060, 2566, 3261
3944, 2206, 2391, 2967
3945, 2500, 2079, 2501
3946, 2118, 2500, 2501
3947, 2160, 2398, 2847
3948, 2436, 2277, 2633
3949, 2113, 2694, 3175
3950, 2191, 2416, 2901
3951, 2735, 2246, 3018
3952, 2233, 2340, 3105
3953, 2449, 2004, 3212
3954, 2179, 2745, 2965
3955, 2784, 2001, 3215
3956, 3299, 2502, 3308
3957, 2145, 2564, 2625
3958, 2154, 2333, 2860
3959, 2563, 2109, 2723
3960, 2367, 378, 3227
3961, 2262, 2563, 2723
3962, 2630, 2348, 3223
3963, 1956, 2499, 3085
3964, 2263, 2731, 3210
3965, 2069, 2502, 3299
3966, 1974, 2436, 2633
3967, 2095, 2326, 2820
3968, 2489, 2283, 2763
3969, 2193, 2529, 2846
3970, 2245, 2410, 3076
3971, 2341, 2080, 2878
3972, 1984, 2501, 3036
3973, 2295, 2757, 3133
3974, 1971, 2471, 2616
3975, 2256, 2602, 3034
3976, 2387, 2164, 2861
3977, 2336, 2084, 3178
3978, 1993, 2451, 2520
3979, 1958, 2338, 3112
3980, 2030, 2330, 3125
3981, 2451, 2089, 2520
3982, 2107, 2669, 2994
3983, 2065, 2410, 2541
3984, 2469, 320, 2997
3985, 2357, 2691, 3092
3986, 2495, 432, 2893
3987, 2560, 2260, 2870
3988, 2756, 2224, 2871
3989, 2066, 2536, 3142
3990, 442, 2383, 3214
3991, 2067, 2402, 2545
3992, 1956, 2344, 3099
3993, 2204, 2382, 2649
3994, 2328, 1995, 2742
3995, 2347, 1963, 2626
3996, 2070, 2394, 3035
3997, 2074, 2396, 2732
3998, 2306, 2606, 3240
3999, 2028, 2349, 2609
4000, 343, 342, 2547
4001, 2402, 2103, 3028
4002, 1987, 2407, 3072
4003, 423, 2612, 3130
4004, 2409, 337, 2990
4005, 2350, 2123, 2616
4006, 2439, 1959, 3060
4007, 2392, 1940, 2711
4008, 2346, 3166, 3194
4009, 1955, 2737, 3224
4010, 2243, 2478, 2730
4011, 1941, 2418, 2975
4012, 2338, 2198, 2661
4013, 3055, 2354, 3201
4014, 2356, 1992, 3163
4015, 2527, 1977, 2713
4016, 2204, 2392, 2724
4017, 2135, 2585, 2761
4018, 2175, 2527, 2713
4019, 2426, 2189, 2567
4020, 2327, 2065, 2779
4021, 2359, 2024, 2606
4022, 2410, 2065, 2665
4023, 2088, 2426, 2567
4024, 2698, 1958, 3254
4025, 2566, 2337, 3261
4026, 2013, 2751, 2999
4027, 2488, 2163, 2700
4028, 2692, 2449, 3212
4029, 369, 368, 2673
4030, 2005, 2703, 2724
4031, 2228, 2433, 2582
4032, 2102, 2514, 3064
4033, 2539, 2081, 2543
4034, 1995, 2328, 3096
4035, 2451, 2086, 2526
4036, 2114, 2671, 3016
4037, 2977, 2319, 3047
4038, 2075, 2424, 2792
4039, 2396, 2075, 2921
4040, 2024, 2359, 2789
4041, 2765, 1984, 3036
4042, 2333, 2154, 2905
4043, 2862, 1975, 3102
4044, 2780, 2253, 2890
4045, 2121, 2676, 2960
4046, 2455, 2077, 2795
4047, 2525, 2129, 2554
4048, 2342, 2736, 3080
4049, 2201, 2369, 2629
4050, 2473, 2129, 2525
4051, 2097, 2353, 2718
4052, 2017, 2420, 2551
4053, 2040, 2335, 3090
4054, 2385, 2026, 2584
4055, 2647, 2269, 3099
4056, 2503, 2084, 2655
4057, 1992, 2356, 3137
4058, 2131, 2348, 2811
4059, 2131, 2562, 2735
4060, 2562, 2246, 2735
4061, 2258, 2513, 3017
4062, 2358, 2037, 3271
4063, 413, 2403, 2576
4064, 1963, 2347, 2668
4065, 2395, 333, 2690
4066, 1986, 3055, 3201
4067, 2439, 2136, 2666
4068, 2124, 2441, 2560
4069, 2142, 2365, 3186
4070, 2512, 2070, 3059
4071, 2345, 2084, 2673
4072, 2353, 2097, 2868
4073, 2064, 2333, 2813
4074, 2460, 2130, 2625
4075, 354, 353, 2482
4076, 2650, 2305, 3244
4077, 1969, 2475, 2604
4078, 2380, 2041, 2754
4079, 2441, 2018, 2560
4080, 2100, 2525, 2554
4081, 2482, 2077, 2806
4082, 1982, 2346, 2678
4083, 2431, 2159, 2575
4084, 2266, 2406, 2834
4085, 1989, 2460, 2625
4086, 2138, 2380, 2754
4087, 2057, 2439, 2666
4088, 2380, 2138, 2810
4089, 2144, 2622, 3307
4090, 2235, 2456, 2748
4091, 2137, 2431, 2575
4092, 1961, 2473, 2525
4093, 1946, 2775, 2919
4094, 366, 365, 3242
4095, 2750, 2288, 2987
4096, 2856, 2388, 3211
4097, 2626, 2102, 3064
4098, 350, 2353, 2868
4099, 2400, 2189, 2923
4100, 393, 392, 2769
4101, 2341, 2022, 2691
4102, 2153, 2819, 3004
4103, 2216, 2336, 2783
4104, 2228, 2676, 2728
4105, 2409, 2076, 3013
4106, 2091, 2379, 2607
4107, 2454, 2070, 3035
4108, 1981, 2446, 2567
4109, 386, 385, 2493
4110, 2076, 2409, 2990
4111, 2044, 2339, 2752
4112, 2819, 2325, 3004
4113, 1928, 2977, 3047
4114, 2335, 2040, 2785
4115, 2369, 2010, 2629
4116, 2207, 2370, 3193
4117, 2148, 2651, 2913
4118, 2395, 2042, 2823
4119, 3166, 2042, 3194
4120, 2060, 2537, 2566
4121, 2156, 2395, 2823
4122, 2032, 2590, 3204
4123, 2472, 2233, 3105
4124, 2336, 2216, 2857
4125, 319, 2435, 2997
4126, 2394, 2070, 2600
4127, 2506, 2998, 3049
4128, 2337, 2162, 2832
4129, 2081, 2434, 2788
4130, 2368, 1973, 3169
4131, 2426, 362, 2923
4132, 2346, 1982, 3027
4133, 2505, 1968, 2585
4134, 2346, 2102, 3166
4135, 2397, 2101, 2939
4136, 2748, 2456, 3097
4137, 2197, 2462, 2742
4138, 2214, 2408, 3071
4139, 416, 2381, 2738
4140, 2596, 2320, 3298
4141, 2628, 2073, 2776
4142, 2432, 2245, 3076
4143, 2518, 430, 2848
4144, 2386, 2024, 2789
4145, 1970, 2386, 2902
4146, 2381, 2126, 2738
4147, 2676, 2121, 2728
4148, 2373, 417, 2738
4149, 2569, 2071, 2571
4150, 2126, 2373, 2738
4151, 2386, 2178, 2902
4152, 1994, 2559, 2783
4153, 2203, 2569, 2571
4154, 2382, 1979, 3217
4155, 2135, 2505, 2585
4156, 2559, 2216, 2783
4157, 2364, 2109, 2945
4158, 1950, 2496, 3065
4159, 2718, 2353, 3079
4160, 2080, 2556, 2721
4161, 2028, 2470, 2971
4162, 2402, 2067, 3266
4163, 2663, 2512, 3059
4164, 2020, 2340, 2767
4165, 2051, 2351, 2709
4166, 395, 394, 2558
4167, 2180, 2377, 3053
4168, 222, 2404, 2624
4169, 2278, 2894, 3262
4170, 1962, 2417, 2639
4171, 338, 2409, 3013
4172, 2564, 1989, 2625
4173, 1969, 2411, 2588
4174, 352, 351, 2519
4175, 2116, 2445, 2833
4176, 2605, 2314, 3043
4177, 2096, 2589, 2924
4178, 2514, 1934, 2568
4179, 358, 357, 2889
4180, 2382, 2148, 2649
4181, 2122, 2342, 2801
4182, 2534, 2969, 3086
4183, 2130, 2514, 2568
4184, 382, 2364, 2945
4185, 407, 2410, 2665
4186, 2096, 2924, 3071
4187, 2417, 2106, 2639
4188, 365, 364, 3242
4189, 2524, 2253, 3104
4190, 2710, 2274, 3074
4191, 2618, 1998, 3011
4192, 457, 456, 2599
4193, 2308, 2618, 3011
4194, 402, 401, 2531
4195, 2446, 2088, 2567
4196, 2169, 2345, 3135
4197, 2875, 1950, 2894
4198, 2096, 2416, 2589
4199, 2429, 2102, 2626
4200, 2435, 461, 2992
4201, 1963, 2429, 2626
4202, 2055, 2350, 3038
4203, 2502, 2069, 2540
4204, 2538, 1972, 2701
4205, 2102, 2346, 3073
4206, 2434, 2081, 2578
4207, 2412, 2207, 2978
4208, 2433, 2035, 2582
4209, 2537, 2025, 2843
4210, 2581, 2480, 2946
4211, 2076, 2464, 3013
4212, 460, 2467, 2992
4213, 2516, 1930, 2817
4214, 329, 2422, 2922
4215, 2457, 2076, 2990
4216, 2142, 2504, 2652
4217, 1952, 2506, 3049
4218, 2504, 1966, 2652
4219, 2513, 2108, 3017
4220, 2455, 1975, 2862
4221, 2184, 2455, 2862
4222, 2257, 2727, 2769
4223, 327, 326, 2686
4224, 2488, 2085, 2817
4225, 1946, 2385, 3205
4226, 419, 418, 2522
4227, 2340, 2020, 3009
4228, 2134, 2362, 2717
4229, 2496, 1950, 2875
4230, 2342, 1968, 2801
4231, 2352, 356, 3021
4232, 2880, 2203, 3015
4233, 2126, 2344, 2983
4234, 2345, 368, 3135
4235, 2004, 2449, 2755
4236, 2595, 1961, 3039
4237, 2404, 2092, 2624
4238, 2390, 2118, 2646
4239, 2375, 2033, 2684
4240, 2045, 2347, 3144
4241, 2222, 2713, 3037
4242, 2056, 2592, 3101
4243, 2143, 2361, 2844
4244, 2722, 1999, 3004
4245, 2080, 2414, 2878
4246, 2545, 2402, 3028
4247, 2426, 2088, 2640
4248, 2222, 2660, 2713
4249, 2022, 2341, 2878
4250, 1964, 2341, 2897
4251, 2046, 2366, 3111
4252, 2660, 2175, 2713
4253, 2795, 2077, 3218
4254, 2361, 1964, 2844
4255, 2797, 358, 2889
4256, 2209, 2342, 3080
4257, 2769, 392, 3234
4258, 2549, 1994, 2783
4259, 1995, 2739, 2742
4260, 2304, 2763, 3284
4261, 2763, 2304, 3280
4262, 2084, 2503, 2549
4263, 2401, 2012, 3288
4264, 2855, 2595, 3039
4265, 2478, 375, 2810
4266, 2372, 2638, 3224
4267, 2638, 1955, 3224
4268, 2391, 2206, 2681
4269, 2363, 1967, 2933
4270, 2238, 2381, 2995
4271, 2381, 415, 2995
4272, 2703, 2005, 3022
4273, 2043, 2393, 2853
4274, 2049, 2517, 2688
4275, 2354, 2043, 3088
4276, 2517, 2218, 2688
4277, 2393, 2157, 2853
4278, 2167, 2363, 2933
4279, 2349, 2028, 2971
4280, 2229, 2683, 3182
4281, 2052, 2391, 2681
4282, 2176, 2515, 2610
4283, 2703, 3022, 3161
4284, 2727, 2174, 2769
4285, 2350, 1930, 2830
4286, 3023, 2349, 3316
4287, 2437, 2073, 2598
4288, 2879, 2148, 2913
4289, 1947, 2750, 2987
4290, 2379, 2091, 2686
4291, 2196, 2495, 2893
4292, 2353, 350, 3030
4293, 2513, 2258, 2940
4294, 2583, 1956, 3099
4295, 2464, 339, 3013
4296, 2435, 2083, 2997
4297, 1966, 2358, 2814
4298, 2046, 2356, 2774
4299, 2468, 2122, 3220
4300, 3034, 2720, 3093
4301, 2370, 2171, 3039
4302, 402, 2531, 2899
4303, 2146, 2557, 2608
4304, 2557, 2132, 2608
4305, 2394, 399, 3035
4306, 2358, 2139, 2814
4307, 430, 429, 2848
4308, 2768, 2063, 2983
4309, 2344, 2768, 2983
4310, 363, 2426, 2640
4311, 443, 442, 3214
4312, 2189, 2426, 2923
4313, 2351, 2051, 3148
4314, 2132, 2621, 2679
4315, 2355, 2240, 2980
4316, 2487, 3253, 3311
4317, 2123, 2350, 2830
4318, 2451, 1993, 2874
4319, 345, 2416, 2693
4320, 2376, 2158, 2808
4321, 2158, 2376, 2903
4322, 2364, 2052, 2964
4323, 436, 2376, 2808
4324, 2495, 2087, 2715
4325, 2731, 2263, 2775
4326, 2127, 2731, 2775
4327, 2536, 1986, 3201
4328, 2356, 2133, 3137
4329, 2407, 2681, 3072
4330, 2359, 2183, 3095
4331, 2437, 1935, 2622
4332, 2083, 2435, 2992
4333, 2112, 2720, 3034
4334, 2533, 1926, 2720
4335, 2289, 2533, 2720
4336, 337, 336, 2990
4337, 2631, 2069, 3299
4338, 2279, 2672, 3075
4339, 2751, 2013, 2851
4340, 2536, 2066, 2705
4341, 2969, 2200, 3086
4342, 2057, 2363, 2791
4343, 2105, 2587, 2611
4344, 2587, 2153, 2611
4345, 2043, 2354, 2846
4346, 2716, 2292, 3233
4347, 2202, 2353, 3030
4348, 2059, 2403, 2863
4349, 2655, 2169, 3119
4350, 2374, 2061, 3103
4351, 2606, 2024, 3240
4352, 1981, 2351, 2873
4353, 2123, 2368, 3169
4354, 2403, 2161, 2863
4355, 2549, 2134, 2717
4356, 2355, 2141, 3110
4357, 2371, 2631, 3299
4358, 2114, 2425, 2772
4359, 2229, 2722, 2896
4360, 2133, 2356, 3091
4361, 2064, 2362, 2794
4362, 2321, 2879, 2913
4363, 2404, 221, 2773
4364, 2333, 2597, 2860
4365, 2479, 2093, 3150
4366, 2052, 2372, 2964
4367, 3133, 2016, 3293
4368, 2253, 2524, 2890
4369, 2083, 2469, 2997
4370, 2403, 412, 2850
4371, 2186, 2591, 2596
4372, 2161, 2403, 2850
4373, 2484, 1957, 2697
4374, 2377, 2180, 2977
4375, 2282, 3042, 3106
4376, 2364, 382, 2954
4377, 331, 330, 2744
4378, 2591, 2085, 2596
4379, 2199, 2498, 2951
4380, 2019, 2502, 2747
4381, 2670, 2016, 3133
4382, 2329, 2422, 3050
4383, 2423, 2035, 2947
4384, 2093, 2479, 2658
4385, 1928, 2377, 2977
4386, 2415, 2057, 2666
4387, 2069, 2631, 3113
4388, 2234, 2517, 3057
4389, 2502, 2152, 2747
4390, 2407, 2052, 2681
4391, 2970, 2271, 3085
4392, 2079, 2518, 2848
4393, 2487, 1954, 3253
4394, 2378, 1967, 2759
4395, 2116, 2378, 2759
4396, 2611, 1999, 3018
4397, 2415, 1931, 3297
4398, 425, 424, 2869
4399, 2408, 2039, 2680
4400, 1959, 2439, 2641
4401, 2467, 2083, 2992
4402, 2614, 3098, 3145
4403, 2634, 2115, 3293
4404, 2615, 2172, 2674
4405, 2071, 2390, 3196
4406, 389, 388, 2562
4407, 2609, 2297, 3273
4408, 2201, 2629, 2766
4409, 2517, 2234, 3063
4410, 424, 2627, 2869
4411, 1988, 2615, 2674
4412, 2092, 2491, 2764
4413, 2040, 2387, 3328
4414, 2406, 2266, 3241
4415, 1937, 2620, 3041
4416, 2321, 2644, 2879
4417, 2111, 2406, 3241
4418, 2370, 2100, 3193
4419, 2227, 2361, 3258
4420, 337, 2409, 3237
4421, 2603, 2384, 2831
4422, 1957, 2596, 3298
4423, 2363, 2167, 2900
4424, 2109, 2364, 2964
4425, 2486, 1933, 3091
4426, 1961, 2370, 3039
4427, 2568, 2145, 2625
4428, 2461, 2097, 2718
4429, 2468, 2276, 3320
4430, 2392, 2171, 2724
4431, 2490, 2255, 2685
4432, 2373, 2126, 2983
4433, 2170, 2838, 2989
4434, 2527, 3007, 3054
4435, 2192, 2423, 2947
4436, 2365, 2059, 3186
4437, 320, 319, 2997
4438, 399, 2394, 3230
4439, 2631, 2313, 3113
4440, 384, 383, 2563
4441, 2494, 2358, 3271
4442, 2838, 2343, 2989
4443, 2906, 2402, 3266
4444, 2537, 2180, 2566
4445, 2620, 2996, 3041
4446, 2445, 1929, 2920
4447, 1958, 2526, 3254
4448, 2153, 2447, 3001
4449, 2549, 2783, 3178
4450, 1987, 2374, 2845
4451, 2432, 2062, 2692
4452, 2636, 2485, 3180
4453, 2516, 2817, 3236
4454, 2168, 2383, 2799
4455, 2383, 442, 2799
4456, 2019, 2747, 2842
4457, 2223, 2590, 2938
4458, 2003, 2492, 3110
4459, 2396, 1980, 2732
4460, 2854, 2184, 3222
4461, 2747, 2278, 2842
4462, 2588, 2104, 3168
4463, 2082, 2528, 2771
4464, 2416, 2096, 2693
4465, 3138, 2641, 3241
4466, 2112, 2399, 2729
4467, 2592, 2280, 3101
4468, 2103, 2402, 2835
4469, 2023, 2413, 2914
4470, 2476, 2225, 2974
4471, 2389, 2169, 2840
4472, 366, 2389, 2840
4473, 2678, 2346, 3194
4474, 2193, 2379, 3239
4475, 2629, 2154, 2766
4476, 2079, 2500, 3203
4477, 2063, 2373, 2983
4478, 1953, 2443, 2777
4479, 2641, 2111, 3241
4480, 1929, 2476, 2974
4481, 2044, 2405, 3263
4482, 2409, 338, 3237
4483, 2428, 2038, 2683
4484, 1951, 2728, 3118
4485, 2493, 385, 3149
4486, 2180, 2537, 2843
4487, 2470, 2200, 2971
4488, 453, 2421, 2876
4489, 2197, 2739, 3003
4490, 2107, 2444, 2669
4491, 2412, 2050, 3319
4492, 435, 434, 3209
4493, 2033, 2375, 2984
4494, 455, 454, 2660
4495, 2524, 2412, 2978
4496, 2171, 2392, 3160
4497, 2379, 326, 3239
4498, 2136, 3060, 3284
4499, 2093, 2531, 3150
4500, 2423, 427, 3246
4501, 2369, 2201, 2898
4502, 2078, 2499, 2614
4503, 2170, 2374, 3103
4504, 2062, 2449, 2692
4505, 2470, 2028, 2953
4506, 2635, 2181, 2762
4507, 2413, 2023, 2928
4508, 2006, 2730, 3069
4509, 2458, 2103, 2701
4510, 2259, 2637, 3125
4511, 2623, 2104, 2932
4512, 2012, 2414, 2721
4513, 2609, 2349, 3023
4514, 2245, 2432, 2692
4515, 2296, 2513, 2940
4516, 2145, 2509, 2842
4517, 2178, 2386, 2789
4518, 2531, 2208, 2899
4519, 2026, 2385, 3054
4520, 2377, 1928, 2986
4521, 2102, 2429, 3166
4522, 3125, 2637, 3281
4523, 2381, 2238, 2837
4524, 2400, 360, 2760
4525, 2104, 2829, 3168
4526, 2384, 2205, 2831
4527, 2277, 2436, 3290
4528, 1967, 2378, 2933
4529, 2092, 2404, 3322
4530, 2159, 2520, 3303
4531, 2184, 2793, 3222
4532, 2017, 2551, 2956
4533, 2417, 2040, 3090
4534, 2458, 1972, 2677
4535, 2384, 2067, 3006
4536, 2675, 2001, 2743
4537, 2733, 2275, 3195
4538, 2205, 2384, 3260
4539, 2698, 2117, 3263
4540, 2405, 2698, 3263
4541, 2110, 2444, 2706
4542, 2124, 2415, 3297
4543, 2421, 2026, 3007
4544, 2219, 2675, 2743
4545, 2378, 2023, 2914
4546, 2103, 2485, 3028
4547, 2237, 2414, 3146
4548, 2511, 2208, 2891
4549, 2414, 2012, 3146
4550, 2542, 2236, 3027
4551, 2062, 2511, 2891
4552, 2122, 2741, 3220
4553, 2205, 2748, 3097
4554, 2235, 2946, 3131
4555, 2165, 2648, 2786
4556, 2243, 2730, 3184
4557, 2148, 2382, 3217
4558, 461, 460, 2992
4559, 375, 374, 2810
4560, 220, 2489, 2773
4561, 2101, 2530, 2839
4562, 2382, 2204, 2960
4563, 2257, 2466, 2727
4564, 2488, 2700, 3014
4565, 2526, 2821, 3254
4566, 2266, 2834, 3324
4567, 2852, 2384, 3006
4568, 2178, 2852, 3006
4569, 2444, 2107, 3174
4570, 2125, 2453, 2716
4571, 2592, 2056, 3236
4572, 2634, 2258, 3282
4573, 2593, 2113, 2892
4574, 2453, 1965, 2716
4575, 2383, 2168, 2953
4576, 2260, 2476, 3267
4577, 2572, 2162, 2845
4578, 2444, 1990, 2706
4579, 1998, 2483, 2770
4580, 2520, 2089, 2620
4581, 2528, 2195, 2950
4582, 2447, 2009, 2726
4583, 2521, 2106, 2824
4584, 2050, 2524, 3104
4585, 2081, 2788, 3305
4586, 2496, 2875, 3158
4587, 2892, 2240, 3061
4588, 2385, 2176, 3205
4589, 1936, 2571, 2646
4590, 2846, 2354, 3055
4591, 2456, 2002, 2753
4592, 2526, 1958, 3112
4593, 2614, 2000, 3098
4594, 2749, 2634, 3282
4595, 1975, 2702, 3102
4596, 2058, 2401, 3272
4597, 2392, 2204, 3084
4598, 2388, 1984, 3114
4599, 2386, 1970, 3134
4600, 2452, 348, 3296
4601, 2562, 388, 3000
4602, 2707, 2136, 3284
4603, 2067, 2545, 3006
4604, 1972, 2458, 2701
4605, 2408, 2680, 3071
4606, 2497, 2124, 2870
4607, 2654, 2116, 2833
4608, 1941, 2556, 3157
4609, 1997, 2472, 3105
4610, 2151, 2889, 2930
4611, 2498, 2053, 2882
4612, 2322, 2423, 3246
4613, 2507, 1982, 2972
4614, 2262, 2493, 3149
4615, 2528, 445, 2771
4616, 1940, 2392, 3084
4617, 2312, 2704, 3152
4618, 2889, 2352, 2930
4619, 2514, 2102, 2826
4620, 2397, 2242, 2816
4621, 2621, 2147, 2679
4622, 339, 338, 3013
4623, 2442, 2044, 3263
4624, 2461, 2133, 2702
4625, 333, 332, 2690
4626, 2522, 2242, 3020
4627, 2157, 2804, 2853
4628, 410, 409, 2712
4629, 2097, 2519, 2868
4630, 2774, 2356, 3163
4631, 2242, 2522, 3213
4632, 2053, 2506, 2882
4633, 1974, 2503, 2655
4634, 2101, 2612, 2939
4635, 2007, 2594, 2970
4636, 2024, 2386, 2903
4637, 2068, 2605, 3180
4638, 2140, 2474, 2746
4639, 2594, 2271, 2970
4640, 2605, 2316, 3180
4641, 1929, 2445, 2782
4642, 1939, 2413, 3183
4643, 2115, 2447, 2726
4644, 1992, 2461, 2718
4645, 2413, 2167, 2914
4646, 2474, 1938, 2746
4647, 2018, 2809, 3068
4648, 2099, 2443, 2733
4649, 398, 2454, 3035
4650, 3007, 2026, 3054
4651, 2608, 2132, 2679
4652, 1982, 2507, 3128
4653, 2164, 2454, 2861
4654, 330, 329, 2922
4655, 2646, 2118, 2871
4656, 414, 413, 2576
4657, 2169, 2389, 2968
4658, 2402, 1932, 2835
4659, 2434, 2123, 3169
4660, 2574, 2163, 3283
4661, 2237, 2656, 3100
4662, 1962, 2425, 2935
4663, 2271, 2594, 2768
4664, 2278, 2747, 2875
4665, 2594, 2063, 2768
4666, 433, 2495, 2715
4667, 2051, 2400, 3265
4668, 2573, 1943, 3282
4669, 2520, 2620, 3303
4670, 3190, 2492, 3228
4671, 2699, 2141, 2890
4672, 2498, 1991, 2951
4673, 2435, 319, 3250
4674, 2857, 370, 3132
4675, 2406, 2209, 2834
4676, 1932, 2442, 2877
4677, 2119, 2807, 3274
4678, 2459, 2124, 3297
4679, 2578, 1971, 3264
4680, 2441, 2049, 3312
4681, 2108, 2513, 2897
4682, 2299, 2658, 3315
4683, 2041, 2448, 2754
4684, 2728, 2121, 3161
4685, 2794, 1938, 3189
4686, 1933, 2490, 2685
4687, 2125, 2463, 2734
4688, 2744, 330, 2922
4689, 381, 2391, 2954
4690, 2466, 1985, 2727
4691, 2217, 2788, 2979
4692, 2517, 2049, 3057
4693, 2118, 2501, 2756
4694, 2166, 2413, 2928
4695, 2533, 2047, 2958
4696, 2454, 397, 2861
4697, 1962, 2512, 2663
4698, 2252, 2597, 2794
4699, 2140, 2450, 3318
4700, 2463, 1935, 2734
4701, 2597, 2064, 2794
4702, 3017, 2573, 3282
4703, 2535, 2227, 3024
4704, 2431, 2137, 3304
4705, 2264, 2573, 2999
4706, 2041, 2559, 3116
4707, 2087, 2613, 3010
4708, 2110, 2456, 2753
4709, 1933, 2685, 3091
4710, 2530, 2101, 2651
4711, 2580, 1994, 2717
4712, 2534, 1945, 2969
4713, 1927, 2682, 2898
4714, 1980, 2396, 2921
4715, 2398, 2160, 2962
4716, 1971, 2616, 3264
4717, 2632, 2092, 2764
4718, 2399, 2140, 3231
4719, 2532, 2020, 2767
4720, 2221, 2770, 2994
4721, 2120, 2577, 2896
4722, 2555, 2076, 3094
4723, 2424, 1933, 2792
4724, 2188, 2856, 3221
4725, 2543, 2217, 3019
4726, 1985, 2517, 3063
4727, 421, 2397, 2939
4728, 2155, 2532, 2767
4729, 2723, 3172, 3279
4730, 2477, 1942, 2884
4731, 2043, 2453, 3088
4732, 2506, 1952, 2931
4733, 2040, 2417, 2812
4734, 2045, 2398, 2962
4735, 2472, 1997, 2731
4736, 2009, 2587, 2796
4737, 2599, 2222, 3037
4738, 2127, 2472, 2731
4739, 2534, 2324, 2790
4740, 2434, 1973, 2788
4741, 2122, 2468, 2736
4742, 461, 2435, 3250
4743, 2210, 2506, 2931
4744, 2408, 1950, 3065
4745, 2130, 2568, 2625
4746, 2589, 2191, 3008
4747, 2500, 2866, 3203
4748, 2638, 2165, 3005
4749, 2575, 1937, 2657
4750, 1932, 2402, 2906
4751, 2334, 2452, 3296
4752, 1926, 2669, 2708
4753, 2736, 2468, 3320
4754, 3253, 2284, 3311
4755, 2152, 2540, 3032
4756, 3100, 2656, 3275
4757, 2423, 2192, 2910
4758, 2179, 3023, 3316
4759, 2594, 2242, 3213
4760, 1958, 2405, 2916
4761, 2696, 2003, 3110
4762, 2039, 2408, 3077
4763, 2445, 2116, 2782
4764, 2443, 2099, 2777
4765, 2288, 2588, 3248
4766, 2476, 1929, 2782
4767, 2418, 1941, 3157
4768, 2787, 2323, 2981
4769, 2025, 2787, 2981
4770, 2319, 2740, 3047
4771, 2740, 2181, 3047
4772, 2105, 2493, 2796
4773, 408, 407, 2665
4774, 2588, 2411, 3248
4775, 2119, 2510, 2807
4776, 2421, 453, 3159
4777, 2836, 2282, 3106
4778, 2478, 2138, 2730
4779, 2456, 2235, 3131
4780, 2002, 2456, 3131
4781, 2405, 2044, 3192
4782, 3174, 2107, 3247
4783, 2643, 1983, 2915
4784, 1975, 2659, 2702
4785, 2042, 2429, 2823
4786, 3063, 2335, 3302
4787, 2485, 1970, 3028
4788, 2159, 2431, 2829
4789, 2460, 2045, 3144
4790, 223, 222, 2624
4791, 2093, 2586, 3191
4792, 2326, 2421, 3159
4793, 2807, 2377, 3274
4794, 1966, 2504, 2918
4795, 2450, 2048, 3318
4796, 2209, 2406, 3107
4797, 2464, 2160, 2847
4798, 2035, 2433, 3211
4799, 2246, 2562, 3000
4800, 2011, 2647, 2837
4801, 2466, 2257, 3223
4802, 1982, 2542, 3027
4803, 2132, 2557, 2704
4804, 2907, 440, 3043
4805, 2190, 2482, 2927
4806, 2006, 2695, 2838
4807, 340, 2464, 2847
4808, 2482, 353, 2927
4809, 2556, 3024, 3157
4810, 2555, 1963, 2668
4811, 2207, 2412, 3321
4812, 2191, 2547, 2948
4813, 2490, 2226, 3106
4814, 2028, 2609, 3273
4815, 2480, 2183, 2929
4816, 2662, 2223, 3096
4817, 1983, 2672, 2915
4818, 2411, 2151, 2930
4819, 429, 428, 2841
4820, 2751, 2120, 3147
4821, 392, 391, 3234
4822, 2109, 2563, 2945
4823, 2663, 2164, 2812
4824, 2160, 2555, 2668
4825, 2165, 2510, 3005
4826, 2465, 1977, 2776
4827, 2150, 2467, 2825
4828, 2221, 2533, 2958
4829, 1976, 2480, 2929
4830, 2413, 2166, 3183
4831, 2429, 2042, 3166
4832, 391, 2630, 3234
4833, 364, 363, 2640
4834, 2616, 2471, 3038
4835, 445, 444, 2771
4836, 2106, 2417, 3090
4837, 354, 2482, 2806
4838, 1975, 2455, 2795
4839, 2624, 2092, 3229
4840, 2446, 2261, 3249
4841, 2457, 335, 2803
4842, 2467, 459, 2825
4843, 2424, 2226, 3154
4844, 2048, 2492, 3190
4845, 1933, 2424, 3154
4846, 2414, 2237, 3100
4847, 1992, 2548, 3163
4848, 2133, 2461, 3137
4849, 2088, 2446, 3249
4850, 399, 398, 3035
4851, 2762, 2181, 3173
4852, 1994, 2549, 2717
4853, 2336, 2857, 3132
4854, 2263, 2628, 2919
4855, 2422, 329, 3050
4856, 2163, 2430, 2912
4857, 2449, 2135, 3245
4858, 2421, 2175, 2876
4859, 2480, 2071, 2946
4860, 2827, 2187, 2858
4861, 2708, 2110, 2753
4862, 2430, 1978, 2912
4863, 2686, 2329, 3155
4864, 2483, 2198, 2752
4865, 2559, 2041, 3117
4866, 2175, 2421, 3007
4867, 2815, 2188, 3221
4868, 2491, 2092, 3322
4869, 2230, 2708, 2753
4870, 2562, 2131, 2811
4871, 1973, 2434, 3169
4872, 2657, 2185, 3156
4873, 2444, 2110, 3238
4874, 2778, 2156, 2823
4875, 2053, 2427, 3122
4876, 2137, 2475, 3304
4877, 2723, 2109, 3172
4878, 2123, 2434, 3264
4879, 2236, 2542, 3122
4880, 2468, 225, 3313
4881, 2038, 2466, 3223
4882, 2548, 1992, 3079
4883, 2418, 2072, 2975
4884, 2445, 2058, 2833
4885, 2252, 3190, 3228
4886, 2173, 2420, 2925
4887, 321, 2469, 2805
4888, 2556, 2249, 2721
4889, 2156, 2457, 2803
4890, 2034, 2438, 2859
4891, 2248, 2664, 2874
4892, 2664, 2086, 2874
4893, 2440, 2036, 3185
4894, 2660, 454, 2876
4895, 2255, 2862, 3102
4896, 2673, 2336, 3132
4897, 2438, 1977, 3225
4898, 2048, 2474, 3318
4899, 2892, 2113, 3129
4900, 2137, 2575, 2657
4901, 427, 2423, 2910
4902, 2420, 2017, 3173
4903, 346, 345, 2693
4904, 2219, 2743, 2746
4905, 2743, 2140, 2746
4906, 2425, 2114, 2935
4907, 2507, 2033, 2984
4908, 2469, 2157, 2805
4909, 1939, 2523, 2761
4910, 2524, 1927, 2890
4911, 2613, 2929, 3010
4912, 221, 220, 2773
4913, 2287, 2592, 3236
4914, 2428, 1948, 3078
4915, 2422, 2033, 3070
4916, 2215, 2536, 2705
4917, 2220, 2507, 2984
4918, 2491, 1959, 2764
4919, 2230, 2886, 3034
4920, 2128, 2489, 2763
4921, 2545, 2902, 3006
4922, 2501, 1984, 2756
4923, 2083, 2570, 3151
4924, 2147, 2621, 2662
4925, 2051, 2475, 3148
4926, 2228, 2619, 2676
4927, 2544, 2006, 2838
4928, 2433, 2228, 3295
4929, 2621, 1925, 2662
4930, 2634, 2016, 2940
4931, 351, 350, 2868
4932, 2170, 2544, 2838
4933, 2424, 2075, 3003
4934, 2556, 1941, 3033
4935, 2258, 2634, 2940
4936, 2453, 2043, 2853
4937, 2038, 2428, 3082
4938, 2425, 2194, 2985
4939, 2249, 2556, 3033
4940, 1934, 2427, 3081
4941, 2560, 2018, 3068
4942, 2260, 2560, 3068
4943, 2427, 2199, 3081
4944, 355, 354, 2806
4945, 2483, 2107, 2770
4946, 2097, 2461, 3257
4947, 2532, 2210, 2934
4948, 1935, 2463, 3307
4949, 2332, 3124, 3219
4950, 2080, 2535, 3024
4951, 2218, 2466, 3082
4952, 2430, 2055, 2917
4953, 2020, 2532, 2934
4954, 2239, 2448, 3198
4955, 2662, 3096, 3285
4956, 2466, 2038, 3082
4957, 2510, 2119, 2757
4958, 348, 2452, 2865
4959, 2474, 2140, 3318
4960, 1925, 2621, 3251
4961, 2452, 2202, 2865
4962, 1990, 2444, 3174
4963, 2452, 2039, 3121
4964, 2440, 2147, 2926
4965, 2320, 2462, 3298
4966, 1970, 2545, 3028
4967, 2489, 2128, 2773
4968, 2487, 2058, 3272
4969, 2211, 2527, 3054
4970, 2010, 2554, 2957
4971, 2387, 2558, 3328
4972, 2185, 2873, 3156
4973, 2086, 2451, 2874
4974, 2044, 2442, 3162
4975, 2293, 2781, 2941
4976, 2781, 2047, 2941
4977, 1977, 2465, 3225
4978, 2695, 2239, 2777
4979, 2557, 1983, 2704
4980, 1971, 2578, 3067
4981, 2099, 2695, 2777
4982, 2586, 2818, 3191
4983, 2598, 1997, 2888
4984, 2608, 1978, 2667
4985, 2138, 2478, 2810
4986, 2000, 2614, 2925
4987, 2146, 2608, 2667
4988, 2436, 1974, 3119
4989, 3124, 2021, 3219
4990, 383, 382, 2945
4991, 2443, 1953, 2905
4992, 2154, 2443, 2905
4993, 2161, 2850, 3164
4994, 427, 426, 3246
4995, 2512, 1962, 2935
4996, 2523, 2166, 2755
4997, 2134, 2503, 3029
4998, 2475, 1969, 3304
4999, 2443, 2154, 2949
5000, 2036, 2440, 2926
5001, 2922, 2422, 3070
5002, 2003, 2696, 2766
5003, 1924, 2631, 3066
5004, 1978, 2440, 2912
5005, 2969, 1945, 3316
5006, 2442, 1932, 3326
5007, 2438, 2034, 3037
5008, 2182, 2922, 3070
5009, 2493, 2262, 2796
5010, 2696, 2201, 2766
5011, 2519, 351, 2868
5012, 2465, 2144, 3225
5013, 2710, 2142, 3033
5014, 2002, 2569, 2880
5015, 2763, 2015, 3284
5016, 2187, 2725, 2858
5017, 218, 217, 2671
5018, 2476, 2782, 3267
5019, 2077, 2455, 3197
5020, 2128, 2763, 3280
5021, 2569, 2203, 2880
5022, 352, 2519, 2927
5023, 2448, 2041, 3116
5024, 2519, 2190, 2927
5025, 225, 2468, 3220
5026, 2136, 2439, 3060
5027, 2778, 2555, 3094
5028, 2968, 2436, 3119
5029, 2523, 2135, 2761
5030, 2169, 2968, 3119
5031, 434, 433, 2715
5032, 2290, 2670, 2986
5033, 2509, 2199, 3314
5034, 2377, 2807, 3053
5035, 348, 347, 3296
5036, 2454, 2164, 3059
5037, 1978, 2608, 2679
5038, 2490, 3106, 3276
5039, 2070, 2454, 3059
5040, 2619, 1979, 2676
5041, 400, 2479, 3150
5042, 2460, 1989, 3008
5043, 1996, 2780, 2980
5044, 419, 2522, 3020
5045, 2485, 2068, 3180
5046, 2202, 2452, 3121
5047, 2404, 2773, 3322
5048, 2182, 2507, 2972
5049, 2048, 2450, 3061
5050, 2533, 2221, 2994
5051, 1930, 2488, 2817
5052, 1926, 2533, 2994
5053, 2200, 2470, 3216
5054, 2457, 2156, 3094
5055, 2144, 2859, 3225
5056, 2168, 2470, 2953
5057, 2691, 2108, 2897
5058, 2356, 2486, 3091
5059, 2859, 2438, 3225
5060, 2453, 2125, 3088
5061, 2461, 1992, 3137
5062, 2492, 2355, 3110
5063, 1930, 2516, 2830
5064, 454, 453, 2876
5065, 2130, 2460, 3144
5066, 2773, 2128, 3322
5067, 2532, 2155, 2904
5068, 2587, 2105, 2796
5069, 2579, 2095, 2820
5070, 2627, 2090, 2869
5071, 2539, 447, 2950
5072, 2456, 2110, 3097
5073, 2612, 2244, 3130
5074, 2045, 2460, 2948
5075, 2314, 2907, 3043
5076, 2484, 2074, 2849
5077, 414, 2576, 2995
5078, 2124, 2560, 2870
5079, 2510, 2008, 2807
5080, 2462, 2036, 3287
5081, 2157, 2469, 3151
5082, 2392, 2711, 3160
5083, 2592, 1988, 2911
5084, 2466, 2218, 3126
5085, 1985, 2466, 3126
5086, 2211, 2628, 2776
5087, 2819, 2153, 3001
5088, 2696, 2141, 2699
5089, 2736, 2014, 3080
5090, 2843, 2025, 2981
5091, 2462, 2197, 3031
5092, 2319, 2843, 2981
5093, 2201, 2696, 2699
5094, 2076, 2457, 3094
5095, 2632, 2014, 3320
5096, 2576, 2238, 2995
5097, 2477, 2060, 3261
5098, 2049, 2459, 3057
5099, 2604, 2475, 2959
5100, 2059, 2504, 3186
5101, 2864, 2187, 3136
5102, 2216, 2481, 3025
5103, 2129, 2477, 2884
5104, 2659, 1975, 2795
5105, 2190, 2659, 2795
5106, 2580, 2064, 2813
5107, 2177, 2643, 2698
5108, 2143, 3089, 3140
5109, 2521, 1931, 2798
5110, 2643, 2117, 2698
5111, 2232, 2580, 2813
5112, 1972, 2470, 3044
5113, 2541, 2245, 3212
5114, 2055, 2471, 2965
5115, 1989, 2564, 2924
5116, 2276, 2468, 3313
5117, 2001, 2729, 3231
5118, 1938, 2474, 3189
5119, 2228, 2582, 3323
5120, 371, 370, 2857
5121, 2564, 2214, 2924
5122, 2469, 2083, 3151
5123, 2474, 2048, 3190
5124, 1945, 2534, 2790
5125, 2371, 2904, 3066
5126, 1934, 2514, 2826
5127, 2743, 2001, 3231
5128, 2478, 2243, 3269
5129, 2470, 1972, 3216
5130, 2138, 2754, 3069
5131, 2670, 2290, 3127
5132, 2470, 2168, 3044
5133, 2016, 2670, 3127
5134, 2644, 1940, 2879
5135, 2904, 2155, 3066
5136, 2471, 2055, 3038
5137, 2309, 2974, 3165
5138, 2808, 2158, 3046
5139, 2577, 2120, 2751
5140, 360, 359, 2760
5141, 3033, 2142, 3206
5142, 2254, 2603, 2867
5143, 2755, 2449, 3245
5144, 2998, 2220, 3049
5145, 372, 2481, 3243
5146, 377, 2552, 3227
5147, 2758, 2029, 3270
5148, 375, 2478, 3269
5149, 2603, 1990, 2867
5150, 2481, 372, 3025
5151, 2058, 2487, 3311
5152, 1963, 2555, 2778
5153, 1985, 3063, 3302
5154, 2475, 2051, 2959
5155, 2479, 400, 3277
5156, 1932, 2877, 3002
5157, 2690, 2251, 3194
5158, 1931, 2521, 2824
5159, 2872, 2277, 3199
5160, 2542, 2053, 3122
5161, 2500, 1976, 2866
5162, 3199, 2277, 3290
5163, 2595, 2098, 2787
5164, 215, 2600, 3330
5165, 2475, 2137, 3148
5166, 2570, 2804, 3151
5167, 2481, 2380, 3243
5168, 1967, 2497, 2870
5169, 2802, 1924, 3066
5170, 3147, 2325, 3171
5171, 2526, 2086, 2821
5172, 2610, 2515, 3101
5173, 1976, 2613, 2866
5174, 2613, 2196, 2866
5175, 390, 2811, 3252
5176, 2041, 2481, 3117
5177, 2081, 2539, 2944
5178, 216, 215, 3330
5179, 2504, 2059, 2863
5180, 2349, 2969, 3316
5181, 3229, 2632, 3320
5182, 2539, 2195, 2944
5183, 2132, 2704, 3251
5184, 417, 416, 2738
5185, 2843, 2319, 2977
5186, 2766, 2154, 2860
5187, 2824, 2106, 3056
5188, 2187, 2827, 3136
5189, 2007, 2651, 2816
5190, 2139, 2487, 3272
5191, 2656, 2237, 2920
5192, 441, 440, 2907
5193, 1929, 2656, 2920
5194, 2476, 2260, 3068
5195, 2163, 2488, 3283
5196, 2762, 2017, 3258
5197, 2303, 3299, 3308
5198, 2714, 2005, 2724
5199, 2011, 2885, 3074
5200, 2885, 2365, 3074
5201, 2171, 2714, 2724
5202, 2226, 2739, 2836
5203, 2685, 2255, 3102
5204, 2739, 1995, 2836
5205, 2488, 1930, 3283
5206, 2684, 2091, 3181
5207, 2077, 2482, 3218
5208, 2530, 1979, 2839
5209, 1988, 2674, 2911
5210, 2490, 1933, 3154
5211, 2107, 2483, 3247
5212, 2772, 2425, 2985
5213, 2226, 2490, 3154
5214, 2380, 2810, 3278
5215, 2559, 2232, 3116
5216, 2903, 2376, 3240
5217, 2635, 2143, 3140
5218, 2208, 2511, 2899
5219, 2986, 2670, 3274
5220, 2327, 2494, 3271
5221, 2913, 2007, 2970
5222, 2518, 2196, 2893
5223, 2515, 2056, 3101
5224, 2691, 2022, 3092
5225, 431, 2518, 2893
5226, 217, 216, 3016
5227, 2309, 2656, 2974
5228, 2579, 450, 3019
5229, 2502, 2019, 3308
5230, 2086, 2664, 2909
5231, 2195, 2528, 2976
5232, 384, 2563, 3149
5233, 2506, 2210, 2882
5234, 2563, 2262, 3149
5235, 390, 389, 2811
5236, 2482, 2190, 3218
5237, 2481, 2216, 3117
5238, 2528, 2082, 2976
5239, 2842, 2509, 3314
5240, 2115, 2634, 2749
5241, 2958, 2308, 3011
5242, 2505, 2062, 2891
5243, 438, 437, 3046
5244, 2511, 403, 2899
5245, 2548, 2039, 3077
5246, 2510, 2757, 3005
5247, 2231, 2548, 3077
5248, 3098, 2247, 3145
5249, 223, 2624, 3058
5250, 447, 446, 2950
5251, 2811, 2348, 3252
5252, 2737, 2273, 3224
5253, 2492, 2003, 3228
5254, 3042, 2027, 3106
5255, 2572, 1942, 2832
5256, 350, 349, 3030
5257, 2753, 2002, 2886
5258, 2162, 2572, 2832
5259, 2337, 2832, 3261
5260, 2530, 2148, 3217
5261, 2232, 2813, 3115
5262, 2302, 2917, 2965
5263, 2085, 2488, 3014
5264, 2244, 2839, 3040
5265, 2787, 2098, 3048
5266, 324, 2529, 2883
5267, 2255, 2490, 3276
5268, 2321, 2913, 2970
5269, 389, 2562, 2811
5270, 2607, 1986, 3200
5271, 2143, 2635, 2762
5272, 2578, 2944, 3067
5273, 368, 367, 3135
5274, 2237, 2508, 2920
5275, 2513, 1964, 2897
5276, 1951, 2856, 3295
5277, 2856, 2433, 3295
5278, 2266, 2632, 2764
5279, 2284, 2654, 2833
5280, 2029, 2758, 3143
5281, 424, 423, 3130
5282, 2570, 1965, 2804
5283, 2339, 3174, 3247
5284, 411, 410, 3164
5285, 2649, 2148, 2879
5286, 378, 377, 3227
5287, 2330, 3104, 3120
5288, 2822, 2310, 3026
5289, 2050, 2822, 3026
5290, 1943, 2573, 3171
5291, 2573, 2264, 3171
5292, 2111, 2641, 2791
5293, 2627, 424, 3130
5294, 450, 449, 3019
5295, 2563, 383, 2945
5296, 225, 224, 3313
5297, 2704, 2312, 3251
5298, 3074, 2274, 3176
5299, 2826, 2102, 3073
5300, 2205, 2706, 2831
5301, 2547, 2191, 2901
5302, 3049, 2375, 3087
5303, 2617, 2105, 3018
5304, 2194, 2521, 3167
5305, 343, 2547, 2901
5306, 2706, 1990, 2831
5307, 2817, 2287, 3236
5308, 382, 381, 2954
5309, 2793, 2027, 3042
5310, 2877, 2117, 2915
5311, 2246, 2617, 3018
5312, 2300, 2793, 3042
5313, 2366, 2496, 3158
5314, 2117, 2877, 3263
5315, 2877, 2442, 3263
5316, 1968, 2586, 2801
5317, 2501, 2079, 3036
5318, 2254, 2867, 3162
5319, 2499, 2078, 3085
5320, 2721, 2249, 2993
5321, 2529, 2193, 2883
5322, 3115, 2813, 3327
5323, 2020, 2550, 3009
5324, 2506, 2053, 2998
5325, 2688, 2218, 3078
5326, 2515, 2176, 3255
5327, 2503, 1974, 3029
5328, 2708, 2669, 3238
5329, 218, 2671, 3123
5330, 2726, 2273, 2737
5331, 2552, 377, 3012
5332, 2115, 2726, 2737
5333, 2008, 2566, 3053
5334, 2697, 1957, 3031
5335, 2509, 1934, 3081
5336, 2590, 2248, 3204
5337, 2558, 2174, 3328
5338, 356, 355, 3021
5339, 3108, 2250, 3259
5340, 2347, 3064, 3144
5341, 335, 334, 2803
5342, 2504, 2142, 3186
5343, 2166, 2523, 3183
5344, 2033, 2507, 3070
5345, 2199, 2509, 3081
5346, 2095, 2579, 2979
5347, 2504, 2863, 2918
5348, 2099, 2733, 3195
5349, 2586, 1968, 2818
5350, 2579, 2217, 2979
5351, 2168, 2799, 2907
5352, 1948, 2577, 2973
5353, 2674, 2127, 2911
5354, 2507, 2182, 3070
5355, 2548, 2231, 3163
5356, 2956, 2418, 3157
5357, 2227, 2956, 3157
5358, 442, 441, 2799
5359, 2577, 2213, 2973
5360, 2648, 2162, 2786
5361, 401, 400, 3150
5362, 2175, 2660, 2876
5363, 2508, 2237, 3146
5364, 2542, 2220, 2998
5365, 322, 321, 2805
5366, 2434, 2578, 3264
5367, 2091, 2963, 3181
5368, 2666, 2136, 2798
5369, 326, 325, 3239
5370, 2532, 2904, 3052
5371, 1952, 3049, 3087
5372, 2540, 1980, 3032
5373, 437, 436, 2808
5374, 2323, 2787, 3048
5375, 2053, 2542, 2998
5376, 2204, 2649, 3084
5377, 2056, 2516, 3236
5378, 2917, 2055, 2965
5379, 2150, 2565, 3232
5380, 2507, 2220, 3128
5381, 2757, 2119, 3133
5382, 2622, 1935, 3307
5383, 2980, 2240, 3129
5384, 453, 452, 3159
5385, 2836, 1995, 2937
5386, 2282, 2836, 2937
5387, 2230, 2753, 2886
5388, 2090, 2627, 3040
5389, 1927, 2524, 2978
5390, 2623, 2159, 2829
5391, 2514, 2130, 3064
5392, 2570, 2150, 3232
5393, 2218, 2517, 3126
5394, 2627, 2244, 3040
5395, 2545, 1970, 2902
5396, 2601, 1971, 3067
5397, 2779, 2250, 3235
5398, 2307, 2758, 3270
5399, 2517, 1985, 3126
5400, 2196, 2518, 3203
5401, 459, 458, 2825
5402, 1990, 2603, 2831
5403, 2546, 1987, 3072
5404, 2648, 1987, 2845
5405, 2518, 2079, 3203
5406, 2702, 2659, 3257
5407, 2104, 2623, 2829
5408, 2802, 2233, 2828
5409, 2884, 1942, 3139
5410, 1924, 2802, 2828
5411, 2221, 2958, 3011
5412, 2611, 2153, 3004
5413, 2195, 2539, 2950
5414, 367, 366, 2840
5415, 2279, 2877, 2915
5416, 2202, 2548, 3079
5417, 2527, 2175, 3007
5418, 2419, 3108, 3259
5419, 2840, 2169, 3135
5420, 2098, 2595, 2855
5421, 2855, 2171, 3160
5422, 394, 393, 2982
5423, 1998, 2770, 3011
5424, 2004, 2541, 3212
5425, 2135, 2523, 3245
5426, 2629, 2010, 2949
5427, 2340, 2888, 3105
5428, 3032, 1980, 3208
5429, 341, 340, 2847
5430, 2522, 2063, 3213
5431, 2274, 2881, 3176
5432, 2888, 1997, 3105
5433, 2012, 2721, 2993
5434, 2544, 2170, 3103
5435, 412, 411, 2850
5436, 2523, 1939, 3183
5437, 2597, 2003, 2860
5438, 2877, 2279, 3002
5439, 2541, 2004, 2988
5440, 2657, 1937, 2908
5441, 2552, 2243, 3188
5442, 2637, 1936, 2871
5443, 1981, 2567, 3141
5444, 3123, 2671, 3329
5445, 2161, 2561, 2918
5446, 2061, 2552, 3188
5447, 2004, 2755, 2955
5448, 2210, 2532, 3052
5449, 1972, 2538, 3216
5450, 1937, 2575, 3303
5451, 2332, 2618, 3124
5452, 2131, 2735, 3182
5453, 2335, 2785, 3302
5454, 1936, 2646, 2871
5455, 2531, 2093, 3191
5456, 2554, 2129, 2957
5457, 2908, 1937, 3041
5458, 2332, 2908, 3041
5459, 2208, 2531, 3191
5460, 3106, 2027, 3276
5461, 2133, 2685, 3102
5462, 2206, 2546, 3072
5463, 2200, 2538, 3086
5464, 2311, 2687, 3301
5465, 2538, 2054, 3086
5466, 2072, 2551, 3256
5467, 1979, 2530, 3217
5468, 349, 348, 2865
5469, 2208, 2818, 2891
5470, 2162, 2648, 2845
5471, 2021, 2827, 2858
5472, 2054, 2534, 3086
5473, 1989, 2589, 3008
5474, 397, 396, 2861
5475, 2436, 2968, 3290
5476, 1970, 2636, 3134
5477, 2612, 422, 2939
5478, 2665, 2298, 3289
5479, 408, 2665, 3289
5480, 377, 376, 3012
5481, 2250, 3108, 3235
5482, 2577, 1948, 2896
5483, 2536, 2215, 3200
5484, 325, 324, 2883
5485, 1930, 2574, 3283
5486, 2687, 2031, 3301
5487, 422, 421, 2939
5488, 1986, 2536, 3200
5489, 2366, 3032, 3208
5490, 2174, 2558, 2982
5491, 3064, 2130, 3144
5492, 2542, 1982, 3128
5493, 2177, 2821, 2909
5494, 2243, 2552, 3012
5495, 2538, 2200, 3216
5496, 2220, 2542, 3128
5497, 2339, 2867, 3174
5498, 2867, 1990, 3174
5499, 2550, 2149, 3009
5500, 2222, 2599, 2991
5501, 2178, 2789, 3177
5502, 2540, 2069, 3113
5503, 2572, 2170, 2989
5504, 2117, 2643, 2915
5505, 2599, 456, 2991
5506, 1960, 2593, 2892
5507, 2531, 401, 3150
5508, 2558, 394, 2982
5509, 2543, 2081, 3305
5510, 2646, 2571, 3196
5511, 2968, 2031, 3290
5512, 2199, 2952, 3314
5513, 2347, 2626, 3064
5514, 2740, 2319, 2981
5515, 2269, 2647, 3176
5516, 2556, 2080, 3024
5517, 2217, 2543, 3305
5518, 2004, 2955, 2988
5519, 2647, 2011, 3176
5520, 2036, 2700, 3185
5521, 2250, 2779, 2988
5522, 2061, 2544, 3103
5523, 428, 427, 2910
5524, 329, 328, 3050
5525, 2167, 2653, 2900
5526, 2224, 2756, 2800
5527, 20, 399, 3230
5528, 2548, 2202, 3121
5529, 2620, 1937, 3303
5530, 2224, 2637, 2871
5531, 2006, 2544, 3184
5532, 2039, 2548, 3121
5533, 2280, 2592, 2911
5534, 2658, 2479, 3309
5535, 2544, 2061, 3188
5536, 373, 372, 3243
5537, 1993, 2623, 2932
5538, 2216, 2559, 3117
5539, 2264, 3147, 3171
5540, 2974, 2225, 3165
5541, 2215, 2705, 3087
5542, 2578, 2081, 2944
5543, 3104, 2253, 3120
5544, 2589, 1989, 2924
5545, 1986, 2607, 3055
5546, 432, 431, 2893
5547, 2235, 2581, 2946
5548, 2261, 2864, 2872
5549, 2864, 1949, 2872
5550, 2756, 1984, 2800
5551, 372, 371, 3025
5552, 2852, 2178, 3177
5553, 2553, 2066, 3142
5554, 2883, 2193, 3239
5555, 2400, 2760, 3265
5556, 2930, 2029, 3248
5557, 2084, 2549, 3178
5558, 2758, 2272, 3143
5559, 2411, 2930, 3248
5560, 227, 226, 3315
5561, 1935, 2553, 3325
5562, 2688, 3078, 3291
5563, 403, 402, 2899
5564, 2828, 2172, 3300
5565, 1942, 2572, 2989
5566, 2651, 2007, 2913
5567, 2015, 2772, 2985
5568, 344, 343, 2901
5569, 2325, 2819, 3171
5570, 2642, 1993, 2932
5571, 376, 375, 3269
5572, 2966, 2300, 3202
5573, 2660, 2222, 2991
5574, 2341, 2691, 2897
5575, 2063, 2594, 3213
5576, 2185, 2657, 2908
5577, 455, 2660, 2991
5578, 2559, 1994, 3294
5579, 1940, 2649, 2879
5580, 2583, 2072, 3256
5581, 2010, 2733, 2949
5582, 2567, 2189, 3141
5583, 2963, 2607, 3200
5584, 362, 361, 2923
5585, 2108, 2573, 3017
5586, 2183, 2581, 3095
5587, 2182, 2744, 2922
5588, 2613, 1976, 2929
5589, 353, 352, 2927
5590, 2973, 2213, 3051
5591, 359, 358, 3286
5592, 2566, 2180, 3053
5593, 2809, 2213, 2851
5594, 2232, 2559, 3294
5595, 2073, 2628, 3210
5596, 2181, 3109, 3173
5597, 338, 29, 3237
5598, 2094, 2675, 2961
5599, 214, 20, 3230
5600, 2675, 2219, 2961
5601, 2628, 2263, 3210
5602, 2225, 2809, 2851
5603, 3016, 216, 3330
5604, 2815, 2030, 2887
5605, 2201, 2699, 2898
5606, 2699, 1927, 2898
5607, 2601, 2082, 3023
5608, 226, 225, 3220
5609, 2313, 2732, 3113
5610, 2628, 2211, 2919
5611, 2217, 2579, 3019
5612, 3172, 2273, 3279
5613, 1936, 2637, 3175
5614, 439, 2605, 3043
5615, 2637, 2259, 3175
5616, 2082, 2609, 3023
5617, 1996, 2943, 3120
5618, 2653, 2111, 2900
5619, 2024, 2903, 3240
5620, 2281, 2604, 2959
5621, 29, 337, 3237
5622, 2091, 2607, 2963
5623, 1955, 2638, 3005
5624, 2388, 2947, 3211
5625, 2947, 2035, 3211
5626, 2113, 2593, 3015
5627, 440, 439, 3043
5628, 2176, 2610, 3205
5629, 2725, 2185, 2858
5630, 2302, 2667, 2917
5631, 2082, 2601, 2976
5632, 400, 21, 3277
5633, 3109, 2420, 3173
5634, 2268, 2642, 2932
5635, 380, 379, 2967
5636, 28, 461, 3250
5637, 2569, 2002, 3131
5638, 2154, 2629, 2949
5639, 2027, 2793, 2936
5640, 2781, 2308, 2958
5641, 2928, 2023, 3306
5642, 393, 2769, 2982
5643, 2725, 1981, 2873
5644, 2564, 2145, 3262
5645, 2419, 2928, 3306
5646, 2597, 2252, 3228
5647, 2581, 1944, 3095
5648, 2635, 1928, 3047
5649, 2617, 2246, 3000
5650, 387, 2617, 3000
5651, 2690, 332, 3083
5652, 2023, 2654, 3306
5653, 2003, 2597, 3228
5654, 2384, 2852, 3260
5655, 1983, 2643, 3152
5656, 2654, 2284, 3306
5657, 2735, 3045, 3182
5658, 1953, 2777, 3198
5659, 456, 455, 2991
5660, 1999, 2611, 3004
5661, 2251, 2690, 3083
5662, 2098, 2711, 3048
5663, 2179, 2601, 3023
5664, 2571, 2071, 3196
5665, 2606, 2087, 3010
5666, 2711, 2247, 3048
5667, 319, 28, 3250
5668, 415, 414, 2995
5669, 1965, 2570, 3232
5670, 2943, 2330, 3120
5671, 3089, 2290, 3140
5672, 388, 387, 3000
5673, 2176, 2645, 3255
5674, 2185, 2725, 2873
5675, 2105, 2611, 3018
5676, 2049, 2688, 3312
5677, 2688, 2291, 3312
5678, 2620, 2089, 2996
5679, 2602, 2112, 3034
5680, 2904, 1991, 3052
5681, 2164, 2663, 3059
5682, 2672, 2279, 2915
5683, 1927, 2699, 2890
5684, 2174, 2785, 3328
5685, 2689, 1949, 3062
5686, 2241, 2689, 3062
5687, 2238, 2576, 3179
5688, 2192, 2841, 2910
5689, 2047, 2784, 2941
5690, 2575, 2159, 3303
5691, 420, 419, 3020
5692, 2600, 215, 3268
5693, 2330, 2822, 3104
5694, 2784, 2241, 2941
5695, 2350, 2616, 3038
5696, 2160, 2668, 2962
5697, 2230, 3034, 3093
5698, 2257, 2769, 3234
5699, 2003, 2766, 2860
5700, 2582, 2090, 3323
5701, 2580, 2232, 3294
5702, 2745, 2302, 2965
5703, 2645, 2095, 2979
5704, 1994, 2580, 3294
5705, 2914, 2167, 2933
5706, 2619, 2090, 3040
5707, 2295, 3133, 3293
5708, 2224, 2800, 2887
5709, 2378, 2914, 2933
5710, 2747, 2152, 2875
5711, 2300, 3187, 3222
5712, 1974, 2655, 3119
5713, 2174, 2727, 3302
5714, 1996, 2719, 2943
5715, 2173, 2583, 3256
5716, 2111, 2791, 2900
5717, 224, 223, 3058
5718, 2011, 2837, 2885
5719, 2656, 1929, 2974
5720, 2837, 2238, 2885
5721, 2800, 2188, 2887
5722, 1969, 2588, 3168
5723, 2151, 2797, 2889
5724, 2270, 2734, 3325
5725, 2631, 2371, 3066
5726, 2298, 2712, 3289
5727, 406, 405, 3076
5728, 226, 2741, 3315
5729, 2712, 409, 3289
5730, 2280, 2610, 3101
5731, 2394, 2600, 3268
5732, 21, 229, 3277
5733, 332, 331, 3083
5734, 1945, 2745, 3316
5735, 2194, 2707, 2985
5736, 2677, 1972, 3044
5737, 2291, 2973, 3051
5738, 2730, 2006, 3184
5739, 2030, 3125, 3281
5740, 2865, 2202, 3030
5741, 3060, 2304, 3284
5742, 2181, 2635, 3047
5743, 2293, 3062, 3136
5744, 2256, 2593, 3317
5745, 2448, 3115, 3198
5746, 3115, 1953, 3198
5747, 2733, 2443, 2949
5748, 2348, 2630, 3252
5749, 2682, 1927, 2978
5750, 2593, 1960, 3317
5751, 2207, 2682, 2978
5752, 2252, 2794, 3189
5753, 1982, 2678, 2972
5754, 2630, 391, 3252
5755, 2078, 2614, 3145
5756, 2618, 2308, 3124
5757, 2598, 2073, 3210
5758, 2637, 2224, 3281
5759, 2704, 1983, 3152
5760, 219, 218, 3123
5761, 2149, 2888, 3009
5762, 370, 369, 3132
5763, 2669, 1926, 2994
5764, 2703, 2121, 2960
5765, 2888, 2340, 3009
5766, 2204, 2703, 2960
5767, 2600, 2294, 3330
5768, 385, 384, 3149
5769, 2610, 1946, 3205
5770, 328, 327, 3155
5771, 2711, 2098, 3160
5772, 2937, 1995, 3096
5773, 1938, 2650, 3244
5774, 2785, 2174, 3302
5775, 2272, 2854, 2987
5776, 2854, 1947, 2987
5777, 2719, 2259, 2943
5778, 2603, 2254, 3266
5779, 2760, 359, 3286
5780, 2244, 2627, 3130
5781, 2075, 2697, 3003
5782, 2125, 2734, 3170
5783, 2067, 2603, 3266
5784, 2734, 2270, 3170
5785, 2687, 2261, 3199
5786, 2671, 217, 3016
5787, 2031, 2687, 3199
5788, 2644, 2078, 3145
5789, 2741, 226, 3220
5790, 2247, 2644, 3145
5791, 2090, 2619, 3323
5792, 2649, 1940, 3084
5793, 2002, 2880, 2886
5794, 2136, 2707, 3167
5795, 2880, 2256, 2886
5796, 1960, 2602, 3317
5797, 2602, 2256, 3317
5798, 2152, 3032, 3158
5799, 2234, 2824, 3056
5800, 3032, 2366, 3158
5801, 2110, 2706, 3097
5802, 2757, 1955, 3005
5803, 2197, 2697, 3031
5804, 2359, 3095, 3177
5805, 2315, 2765, 3036
5806, 2740, 2000, 3109
5807, 2976, 2601, 3067
5808, 2616, 2123, 3264
5809, 2707, 2015, 2985
5810, 1959, 2641, 3138
5811, 1928, 2635, 3140
5812, 2636, 2158, 3134
5813, 391, 390, 3252
5814, 327, 2686, 3155
5815, 2032, 2966, 3202
5816, 2770, 2221, 3011
5817, 2433, 2856, 3211
5818, 2001, 2675, 3215
5819, 2177, 2698, 3254
5820, 2694, 2113, 3015
5821, 374, 373, 3278
5822, 409, 408, 3289
5823, 2791, 2363, 2900
5824, 2834, 2209, 3080
5825, 2300, 2966, 3187
5826, 2156, 2778, 3094
5827, 2619, 2228, 3323
5828, 369, 2673, 3132
5829, 2857, 2216, 3025
5830, 2621, 2132, 3251
5831, 2697, 2197, 3003
5832, 228, 2658, 3309
5833, 2257, 2630, 3223
5834, 2390, 2646, 3196
5835, 2092, 2632, 3229
5836, 2749, 1943, 3001
5837, 2643, 2177, 3152
5838, 2752, 2339, 3247
5839, 2764, 1959, 3138
5840, 2316, 2636, 3180
5841, 2203, 2694, 3015
5842, 2882, 2210, 3052
5843, 2630, 2257, 3234
5844, 215, 214, 3268
5845, 2100, 2682, 3193
5846, 2700, 2320, 3014
5847, 2841, 428, 2910
5848, 2742, 2462, 3287
5849, 2188, 2815, 2887
5850, 229, 228, 3309
5851, 2996, 2212, 3041
5852, 2521, 2798, 3167
5853, 2266, 2764, 3138
5854, 2755, 2166, 2955
5855, 2284, 2833, 3311
5856, 2804, 2157, 3151
5857, 2248, 2642, 3204
5858, 2275, 2884, 3139
5859, 2236, 2826, 3073
5860, 358, 2797, 3286
5861, 2680, 2096, 3071
5862, 2681, 2206, 3072
5863, 2137, 2657, 3156
5864, 2799, 441, 2907
5865, 2752, 2198, 3192
5866, 2213, 2809, 3051
5867, 3095, 1944, 3177
5868, 1941, 2710, 3033
5869, 1939, 2761, 3107
5870, 2016, 2634, 3293
5871, 2189, 2709, 3141
5872, 2014, 2632, 3324
5873, 2142, 2652, 3206
5874, 3022, 2265, 3161
5875, 2750, 1947, 3187
5876, 2632, 2266, 3324
5877, 2241, 2784, 3215
5878, 2268, 2750, 3187
5879, 2685, 2133, 3091
5880, 2714, 2207, 3321
5881, 2029, 2930, 3270
5882, 2119, 2670, 3133
5883, 2930, 2352, 3270
5884, 2143, 2844, 3089
5885, 2844, 2296, 3089
5886, 2645, 1973, 3255
5887, 2726, 2009, 3279
5888, 2821, 2086, 2909
5889, 1947, 2854, 3222
5890, 2793, 2184, 2936
5891, 2765, 2192, 3114
5892, 2926, 2147, 3285
5893, 2884, 2275, 2957
5894, 2072, 2881, 2975
5895, 2129, 2884, 2957
5896, 2881, 2274, 2975
5897, 2199, 2951, 2952
5898, 1926, 2708, 3093
5899, 2708, 2230, 3093
5900, 2281, 2760, 3286
5901, 2951, 2303, 2952
5902, 1944, 2748, 3260
5903, 2758, 2077, 3197
5904, 331, 2744, 3083
5905, 2659, 2097, 3257
5906, 2272, 2758, 3197
5907, 2047, 2781, 2958
5908, 2675, 2094, 3153
5909, 2689, 2241, 3153
5910, 2094, 2689, 3153
5911, 2769, 2174, 2982
5912, 2956, 2227, 3258
5913, 2722, 2229, 3045
5914, 1999, 2722, 3045
5915, 2744, 2251, 3083
5916, 2293, 2941, 3062
5917, 2140, 2743, 3231
5918, 2885, 2238, 3179
5919, 3056, 2106, 3090
5920, 2285, 2814, 3207
5921, 2017, 2762, 3173
5922, 2814, 2139, 3207
5923, 2181, 2740, 3109
5924, 2656, 2309, 3275
5925, 2706, 2205, 3097
5926, 2761, 2209, 3107
5927, 2735, 1999, 3045
5928, 1992, 2718, 3079
5929, 2141, 2696, 3110
5930, 2702, 2133, 3102
5931, 2335, 3056, 3090
5932, 2687, 2088, 3249
5933, 2412, 3022, 3321
5934, 3022, 2005, 3321
5935, 2798, 2136, 3167
5936, 2261, 2687, 3249
5937, 2862, 2255, 2936
5938, 2251, 2678, 3194
5939, 2955, 2250, 2988
5940, 2783, 2336, 3178
5941, 2184, 2862, 2936
5942, 2720, 1926, 3093
5943, 1943, 2819, 3001
5944, 2147, 2662, 3285
5945, 2669, 2444, 3238
5946, 3087, 2375, 3181
5947, 2730, 2138, 3069
5948, 2683, 2131, 3182
5949, 2215, 3087, 3181
5950, 2483, 2752, 3247
5951, 2375, 2684, 3181
5952, 2746, 1938, 3244
5953, 2682, 2207, 3193
5954, 2856, 1951, 3221
5955, 1984, 2765, 3114
5956, 2286, 2835, 3002
5957, 2835, 1932, 3002
5958, 2670, 2119, 3274
5959, 2863, 2161, 2918
5960, 2948, 2460, 3008
5961, 2694, 1936, 3175
5962, 2878, 2414, 3100
5963, 2113, 2719, 3129
5964, 2121, 2703, 3161
5965, 2273, 2726, 3279
5966, 2824, 2234, 3310
5967, 2243, 3012, 3269
5968, 2328, 2926, 3285
5969, 2700, 2163, 3185
5970, 2902, 2178, 3006
5971, 2021, 2858, 3219
5972, 2707, 2194, 3167
5973, 2523, 2755, 3245
5974, 2245, 2692, 3212
5975, 2228, 2728, 3295
5976, 2282, 2937, 2938
5977, 2937, 2223, 2938
5978, 2780, 1996, 3120
5979, 2807, 2008, 3053
5980, 2821, 2177, 3254
5981, 2253, 2780, 3120
5982, 2671, 2114, 3329
5983, 2851, 2013, 3165
5984, 2987, 2288, 3143
5985, 2283, 3123, 3329
5986, 3048, 2247, 3098
5987, 2180, 2843, 2977
5988, 2323, 3048, 3098
5989, 2240, 2892, 3129
5990, 2291, 2688, 3291
5991, 2330, 2943, 3125
5992, 2190, 2795, 3218
5993, 2110, 2708, 3238
5994, 2929, 2183, 3010
5995, 3062, 1949, 3136
5996, 2171, 2855, 3039
5997, 2292, 2859, 3233
5998, 2931, 2301, 2934
5999, 2461, 2702, 3257
6000, 2210, 2931, 2934
6001, 2859, 2144, 3233
6002, 2011, 3074, 3176
6003, 2953, 2028, 3273
6004, 2383, 2953, 3273
6005, 2015, 2707, 3284
6006, 3297, 1931, 3310
6007, 3142, 2270, 3325
6008, 1949, 2864, 3136
6009, 3253, 2419, 3306
6010, 437, 2808, 3046
6011, 2809, 2018, 3051
6012, 2940, 2016, 3127
6013, 2296, 2940, 3127
6014, 2887, 2030, 3281
6015, 2000, 2925, 3109
6016, 2852, 1944, 3260
6017, 2858, 2185, 3219
6018, 2155, 2802, 3066
6019, 2772, 2283, 3329
6020, 3078, 2218, 3082
6021, 2789, 2359, 3177
6022, 2729, 2399, 3231
6023, 2428, 3078, 3082
6024, 2916, 2405, 3192
6025, 2114, 2772, 3329
6026, 2044, 2752, 3192
6027, 3143, 2288, 3248
6028, 2013, 2999, 3292
6029, 2999, 2357, 3292
6030, 2005, 2714, 3321
6031, 3050, 328, 3155
6032, 2333, 2905, 3327
6033, 2905, 1953, 3327
6034, 2329, 3050, 3155
6035, 2984, 2375, 3049
6036, 2036, 2926, 3287
6037, 371, 2857, 3025
6038, 3024, 2227, 3157
6039, 2926, 2328, 3287
6040, 2009, 2723, 3279
6041, 2964, 2372, 3172
6042, 2788, 2217, 3305
6043, 2109, 2964, 3172
6044, 2810, 374, 3278
6045, 2833, 2058, 3311
6046, 2027, 2936, 3276
6047, 2193, 2846, 3055
6048, 3118, 2310, 3221
6049, 3148, 2137, 3156
6050, 2219, 2746, 3244
6051, 2351, 3148, 3156
6052, 2728, 1951, 3295
6053, 2727, 1985, 3302
6054, 2037, 2942, 3271
6055, 2198, 2916, 3192
6056, 2231, 2774, 3163
6057, 2014, 2834, 3080
6058, 2942, 2327, 3271
6059, 349, 2865, 3030
6060, 2158, 2903, 3134
6061, 2903, 2386, 3134
6062, 2031, 2968, 3301
6063, 2968, 2389, 3301
6064, 2300, 3042, 3202
6065, 2748, 2205, 3260
6066, 2924, 2214, 3071
6067, 1991, 2904, 3226
6068, 2818, 2208, 3191
6069, 2734, 1935, 3325
6070, 2328, 2742, 3287
6071, 2904, 2371, 3226
6072, 2192, 2947, 3114
6073, 2760, 2281, 3265
6074, 2822, 2050, 3104
6075, 1943, 2749, 3282
6076, 2459, 3297, 3310
6077, 2014, 2736, 3320
6078, 2777, 2239, 3198
6079, 2741, 2299, 3315
6080, 2185, 2908, 3219
6081, 2969, 2349, 2971
6082, 2745, 2179, 3316
6083, 2200, 2969, 2971
6084, 2759, 2260, 3267
6085, 2022, 3100, 3275
6086, 2116, 2759, 3267
6087, 1969, 3168, 3304
6088, 2226, 2836, 3106
6089, 3168, 2431, 3304
6090, 2284, 3253, 3306
6091, 2873, 2351, 3156
6092, 3026, 2310, 3118
6093, 2250, 2955, 3259
6094, 2829, 2431, 3168
6095, 2266, 3138, 3241
6096, 2827, 2293, 3136
6097, 2866, 2196, 3203
6098, 2327, 2779, 3235
6099, 2944, 2195, 3067
6100, 3002, 2279, 3075
6101, 2286, 3002, 3075
6102, 2234, 3057, 3310
6103, 367, 2840, 3135
6104, 2276, 3229, 3320
6105, 3021, 2307, 3270
6106, 2875, 2152, 3158
6107, 2352, 3021, 3270
6108, 2463, 3233, 3307
6109, 2224, 2887, 3281
6110, 2191, 2948, 3008
6111, 3233, 2144, 3307
6112, 2819, 1943, 3171
6113, 2128, 3280, 3322
6114, 2793, 2300, 3222
6115, 3280, 2491, 3322
6116, 2346, 3027, 3073
6117, 2782, 2116, 3267
6118, 1931, 2824, 3310
6119, 2234, 3056, 3063
6120, 3056, 2335, 3063
6121, 3187, 1947, 3222
6122, 3172, 2372, 3224
6123, 2989, 2343, 3139
6124, 2273, 3172, 3224
6125, 1942, 2989, 3139
6126, 2019, 2842, 3314
6127, 2022, 2878, 3100
6128, 2145, 2842, 3262
6129, 2275, 3139, 3195
6130, 3139, 2343, 3195
6131, 2850, 411, 3164
6132, 2842, 2278, 3262
6133, 3165, 2013, 3292
6134, 2986, 1928, 3140
6135, 2310, 2815, 3221
6136, 2354, 3170, 3201
6137, 2290, 2986, 3140
6138, 2225, 2851, 3165
6139, 2098, 2855, 3160
6140, 2294, 3016, 3330
6141, 3170, 2270, 3201
6142, 3277, 229, 3309
6143, 2941, 2241, 3062
6144, 2785, 2040, 3328
6145, 1944, 2852, 3177
6146, 2895, 1924, 3300
6147, 2318, 2895, 3300
6148, 2797, 2281, 3286
6149, 2357, 3092, 3292
6150, 2951, 1991, 3226
6151, 3092, 2309, 3292
6152, 2354, 3088, 3170
6153, 2303, 2951, 3226
6154, 2220, 2984, 3049
6155, 3088, 2125, 3170
6156, 1932, 2906, 3326
6157, 2265, 3022, 3319
6158, 3026, 2265, 3319
6159, 3207, 2139, 3272
6160, 2401, 3207, 3272
6161, 2223, 2937, 3096
6162, 2479, 3277, 3309
6163, 3078, 1948, 3291
6164, 2195, 2976, 3067
6165, 2925, 2420, 3109
6166, 2834, 2014, 3324
6167, 3058, 2276, 3313
6168, 2921, 2267, 3208
6169, 2813, 2333, 3327
6170, 2261, 2872, 3199
6171, 2232, 3115, 3116
6172, 2881, 2269, 3176
6173, 3115, 2448, 3116
6174, 1924, 2828, 3300
6175, 2376, 3209, 3240
6176, 1951, 3118, 3221
6177, 3209, 2306, 3240
6178, 2947, 2388, 3114
6179, 2408, 3065, 3077
6180, 2943, 2259, 3125
6181, 2215, 2963, 3200
6182, 3027, 2236, 3073
6183, 3096, 2328, 3285
6184, 2675, 3153, 3215
6185, 214, 3230, 3268
6186, 2282, 2938, 3202
6187, 2963, 2215, 3181
6188, 2938, 2032, 3202
6189, 2163, 2912, 3185
6190, 2912, 2440, 3185
6191, 3065, 2231, 3077
6192, 2993, 2285, 3288
6193, 2297, 3214, 3273
6194, 3214, 2383, 3273
6195, 2290, 3089, 3127
6196, 3089, 2296, 3127
6197, 2272, 2987, 3143
6198, 325, 2883, 3239
6199, 2243, 3184, 3188
6200, 3184, 2544, 3188
6201, 2936, 2255, 3276
6202, 2265, 3026, 3118
6203, 3230, 2394, 3268
6204, 2908, 2332, 3219
6205, 1980, 2921, 3208
6206, 2966, 2268, 3187
6207, 2952, 2303, 3308
6208, 2019, 2952, 3308
6209, 2249, 3033, 3206
6210, 3189, 2474, 3190
6211, 2252, 3189, 3190
6212, 2166, 2928, 3259
6213, 2928, 2419, 3259
6214, 3108, 2419, 3253
6215, 3242, 2311, 3301
6216, 2389, 3242, 3301
6217, 2254, 2906, 3266
6218, 3108, 1954, 3235
6219, 2031, 3199, 3290
6220, 2267, 3111, 3208
6221, 373, 3243, 3278
6222, 3243, 2380, 3278
6223, 3045, 2229, 3182
6224, 2906, 2254, 3326
6225, 2029, 3143, 3248
6226, 2281, 2959, 3265
6227, 3111, 2366, 3208
6228, 2303, 3226, 3299
6229, 3226, 2371, 3299
6230, 2377, 2986, 3274
6231, 2017, 2956, 3258
6232, 1948, 2973, 3291
6233, 2973, 2291, 3291
6234, 2955, 2166, 3259
6235, 3042, 2282, 3202
6236, 2959, 2051, 3265
6237, 2285, 3207, 3288
6238, 2309, 3165, 3292
6239, 2258, 3017, 3282
6240, 2462, 3031, 3298
6241, 3022, 2412, 3319
6242, 2952, 2019, 3314
6243, 2012, 2993, 3288
6244, 3012, 376, 3269
6245, 2309, 3092, 3275
6246, 3092, 2022, 3275
6247, 1953, 3115, 3327
6248, 3153, 2241, 3215
6249, 3031, 1957, 3298
6250, 2050, 3026, 3319
6251, 1954, 3108, 3253
6252, 3057, 2459, 3310
6253, 224, 3058, 3313
6254, 2553, 3142, 3325
6255, 2254, 3162, 3326
6256, 3162, 2442, 3326
6257, 3207, 2401, 3288
*ELEMENT, type=CPS3, ELSET=Surface11
6258, 3607, 3617, 3433
6259, 3476, 3626, 496
6260, 474, 3630, 3474
6261, 503, 3627, 3475
6262, 3448, 3624, 3377
6263, 3387, 3598, 3429
6264, 3392, 3599, 3431
6265, 3341, 3547, 3441
6266, 559, 3458, 558
6267, 561, 3460, 560
6268, 588, 3459, 587
6269, 3377, 3624, 3569
6270, 3443, 3554, 3334
6271, 3334, 3553, 3442
6272, 474, 3474, 473
6273, 497, 3476, 496
6274, 503, 3475, 502
6275, 3489, 3558, 3403
6276, 3488, 3557, 3396
6277, 3487, 3559, 3402
6278, 3367, 3558, 3489
6279, 3366, 3559, 3487
6280, 3365, 3557, 3488
6281, 3396, 3563, 3502
6282, 3501, 3562, 3393
6283, 3502, 3563, 3377
6284, 3376, 3562, 3501
6285, 3341, 3684, 3547
6286, 481, 3609, 3543
6287, 472, 3463, 471
6288, 499, 3464, 498
6289, 501, 3462, 500
6290, 3442, 3520, 3334
6291, 3444, 3522, 3337
6292, 3334, 3521, 3443
6293, 3389, 3617, 3607
6294, 3439, 3525, 3339
6295, 3342, 3523, 3438
6296, 3441, 3524, 3341
6297, 3426, 3585, 547
6298, 3427, 3586, 511
6299, 540, 3469, 539
6300, 542, 3470, 541
6301, 492, 3468, 491
6302, 3514, 3568, 3413
6303, 3375, 3568, 3514
6304, 3397, 3574, 3499
6305, 3399, 3572, 3497
6306, 3495, 3573, 3401
6307, 3496, 3571, 3398
6308, 3402, 3570, 3498
6309, 3499, 3574, 3371
6310, 3497, 3572, 3375
6311, 3373, 3573, 3495
6312, 3374, 3571, 3496
6313, 3498, 3570, 3372
6314, 559, 3642, 3458
6315, 3460, 3642, 560
6316, 588, 3639, 3459
6317, 3460, 3492, 3355
6318, 3354, 3491, 3459
6319, 3353, 3490, 3458
6320, 3370, 3592, 3425
6321, 3434, 3739, 3380
6322, 3433, 3738, 3379
6323, 3432, 3737, 3378
6324, 3355, 3728, 3443
6325, 3444, 3727, 3354
6326, 3442, 3726, 3353
6327, 3463, 3640, 471
6328, 499, 3641, 3464
6329, 3462, 3641, 500
6330, 3333, 3607, 3433
6331, 3425, 3575, 3370
6332, 3368, 3576, 3424
6333, 3352, 3500, 3447
6334, 3597, 3607, 3425
6335, 3424, 3608, 3596
6336, 3424, 3567, 3368
6337, 3389, 3607, 3597
6338, 3596, 3608, 3390
6339, 3451, 3539, 3345
6340, 3450, 3541, 3343
6341, 3344, 3540, 3452
6342, 3452, 3728, 3355
6343, 3354, 3727, 3451
6344, 3353, 3726, 3450
6345, 3449, 3538, 3339
6346, 542, 3647, 3470
6347, 3469, 3648, 539
6348, 492, 3645, 3468
6349, 3437, 3608, 3336
6350, 3409, 3583, 3519
6351, 3519, 3583, 3379
6352, 3376, 3621, 3449
6353, 3384, 3588, 3535
6354, 3438, 3523, 3351
6355, 3352, 3524, 3441
6356, 3351, 3525, 3439
6357, 3614, 3618, 3434
6358, 3615, 3619, 3432
6359, 3438, 3710, 3342
6360, 3522, 3719, 3337
6361, 3432, 3578, 3335
6362, 3434, 3579, 3335
6363, 3440, 3715, 3340
6364, 3380, 3579, 3434
6365, 3378, 3578, 3432
6366, 3392, 3614, 3426
6367, 3387, 3615, 3427
6368, 3386, 3624, 3448
6369, 3381, 3587, 3526
6370, 3397, 3644, 3445
6371, 3446, 3637, 3393
6372, 3447, 3643, 3395
6373, 3337, 3718, 3444
6374, 593, 3530, 3494
6375, 3493, 3531, 466
6376, 3554, 3675, 3334
6377, 3535, 3588, 3420
6378, 3433, 3583, 3333
6379, 3426, 3685, 3392
6380, 3427, 3686, 3387
6381, 3379, 3583, 3433
6382, 3441, 3697, 3352
6383, 3351, 3696, 3438
6384, 3439, 3696, 3351
6385, 3440, 3697, 3359
6386, 3359, 3697, 3441
6387, 3466, 3586, 3380
6388, 3465, 3585, 3378
6389, 3447, 3524, 3352
6390, 3446, 3525, 3351
6391, 3335, 3614, 3434
6392, 3335, 3615, 3432
6393, 3478, 3506, 537
6394, 522, 3507, 3477
6395, 3441, 3547, 3359
6396, 3359, 3548, 3440
6397, 3498, 3512, 505
6398, 590, 3516, 3496
6399, 3497, 3514, 469
6400, 494, 3515, 3495
6401, 3546, 3696, 3360
6402, 3691, 3697, 3440
6403, 3438, 3696, 3546
6404, 3526, 3587, 3415
6405, 3380, 3739, 3479
6406, 3379, 3738, 3480
6407, 3378, 3737, 3481
6408, 3352, 3697, 3691
6409, 3340, 3558, 3435
6410, 3336, 3559, 3437
6411, 3338, 3557, 3436
6412, 3435, 3558, 3367
6413, 3437, 3559, 3366
6414, 3436, 3557, 3365
6415, 3426, 3578, 3378
6416, 3427, 3579, 3380
6417, 3380, 3586, 3427
6418, 3378, 3585, 3426
6419, 3525, 3731, 3339
6420, 3599, 3717, 3431
6421, 3598, 3716, 3429
6422, 3546, 3710, 3438
6423, 3545, 3716, 514
6424, 3544, 3717, 550
6425, 3449, 3760, 3538
6426, 3414, 3626, 3476
6427, 3474, 3630, 3411
6428, 3475, 3627, 3410
6429, 3548, 3715, 3440
6430, 3462, 3611, 3358
6431, 3356, 3613, 3464
6432, 3463, 3612, 3357
6433, 511, 3686, 3427
6434, 547, 3685, 3426
6435, 3494, 3561, 3412
6436, 3413, 3560, 3493
6437, 3364, 3561, 3494
6438, 3493, 3560, 3363
6439, 3428, 3593, 3386
6440, 3342, 3724, 3523
6441, 3444, 3718, 3555
6442, 3466, 3695, 3586
6443, 3465, 3694, 3585
6444, 3387, 3619, 3615
6445, 3392, 3618, 3614
6446, 3443, 3521, 3355
6447, 3354, 3522, 3444
6448, 3353, 3520, 3442
6449, 3360, 3668, 3468
6450, 3431, 3618, 3392
6451, 3429, 3619, 3387
6452, 3430, 3617, 3389
6453, 3350, 3618, 3431
6454, 3349, 3617, 3430
6455, 3348, 3619, 3429
6456, 3367, 3711, 3435
6457, 3365, 3713, 3436
6458, 3366, 3712, 3437
6459, 3560, 3568, 3346
6460, 3430, 3603, 3349
6461, 3429, 3601, 3348
6462, 3431, 3602, 3350
6463, 3460, 3705, 3492
6464, 3491, 3706, 3459
6465, 3490, 3707, 3458
6466, 3380, 3746, 3466
6467, 3378, 3748, 3465
6468, 3404, 3564, 3478
6469, 3477, 3565, 3395
6470, 3478, 3564, 3362
6471, 3361, 3565, 3477
6472, 3435, 3711, 3601
6473, 3386, 3582, 3428
6474, 3469, 3594, 3359
6475, 3359, 3594, 3470
6476, 3358, 3611, 3475
6477, 3476, 3613, 3356
6478, 3357, 3612, 3474
6479, 3358, 3553, 3462
6480, 3357, 3555, 3463
6481, 3464, 3554, 3356
6482, 3644, 3749, 3445
6483, 3447, 3750, 3643
6484, 3446, 3751, 3637
6485, 3461, 3504, 3362
6486, 3343, 3678, 3450
6487, 3345, 3679, 3451
6488, 3452, 3680, 3344
6489, 3542, 3621, 3376
6490, 3359, 3547, 3469
6491, 3468, 3546, 3360
6492, 3470, 3548, 3359
6493, 3395, 3524, 3447
6494, 3445, 3523, 3397
6495, 3393, 3525, 3446
6496, 3458, 3642, 3394
6497, 3459, 3639, 3398
6498, 3394, 3642, 3460
6499, 3595, 3691, 3440
6500, 3538, 3760, 3385
6501, 3413, 3568, 3560
6502, 3423, 3590, 3517
6503, 3518, 3589, 3423
6504, 3517, 3590, 3386
6505, 3385, 3589, 3518
6506, 3400, 3641, 3462
6507, 3399, 3640, 3463
6508, 3464, 3641, 3400
6509, 3334, 3675, 3553
6510, 482, 3609, 481
6511, 3406, 3534, 3471
6512, 3407, 3533, 3472
6513, 3473, 3532, 3408
6514, 3389, 3610, 3430
6515, 3338, 3582, 3448
6516, 3448, 3582, 3386
6517, 3590, 3624, 3386
6518, 3394, 3520, 3458
6519, 3398, 3522, 3459
6520, 3460, 3521, 3394
6521, 3459, 3522, 3354
6522, 3355, 3521, 3460
6523, 3458, 3520, 3353
6524, 3368, 3567, 3471
6525, 3470, 3647, 3403
6526, 3468, 3645, 3401
6527, 3404, 3648, 3469
6528, 3429, 3716, 3545
6529, 3431, 3717, 3544
6530, 3358, 3726, 3553
6531, 3554, 3728, 3356
6532, 3357, 3727, 3555
6533, 594, 3530, 593
6534, 466, 3531, 465
6535, 3505, 3668, 3360
6536, 3341, 3565, 3461
6537, 3461, 3564, 3341
6538, 467, 3493, 466
6539, 593, 3494, 592
6540, 3435, 3720, 3340
6541, 3336, 3570, 3559
6542, 3345, 3665, 3533
6543, 3343, 3666, 3534
6544, 3532, 3664, 3344
6545, 3436, 3620, 3338
6546, 522, 3477, 521
6547, 538, 3478, 537
6548, 3541, 3682, 3343
6549, 3539, 3681, 3345
6550, 3344, 3683, 3540
6551, 3523, 3758, 3351
6552, 3372, 3512, 3498
6553, 3496, 3516, 3374
6554, 3375, 3514, 3497
6555, 3495, 3515, 3373
6556, 3543, 3744, 480
6557, 3552, 3666, 3343
6558, 3549, 3665, 3345
6559, 3344, 3664, 3550
6560, 554, 3567, 553
6561, 523, 3507, 522
6562, 537, 3506, 536
6563, 3559, 3570, 3402
6564, 3453, 3537, 3363
6565, 3557, 3563, 3396
6566, 3338, 3563, 3557
6567, 3362, 3506, 3478
6568, 3477, 3507, 3361
6569, 3553, 3726, 3442
6570, 3443, 3728, 3554
6571, 3555, 3727, 3444
6572, 467, 3629, 3493
6573, 3494, 3628, 592
6574, 3339, 3672, 3439
6575, 505, 3512, 504
6576, 591, 3516, 590
6577, 476, 3513, 475
6578, 469, 3514, 468
6579, 495, 3515, 494
6580, 3453, 3560, 3346
6581, 3346, 3561, 3453
6582, 3367, 3653, 3465
6583, 3365, 3654, 3467
6584, 3366, 3655, 3466
6585, 3445, 3758, 3523
6586, 479, 3610, 478
6587, 515, 3545, 514
6588, 481, 3543, 480
6589, 551, 3544, 550
6590, 3339, 3562, 3449
6591, 3448, 3563, 3338
6592, 3449, 3562, 3376
6593, 3377, 3563, 3448
6594, 478, 3610, 3597
6595, 3332, 3623, 3537
6596, 3369, 3677, 3472
6597, 3520, 3674, 3334
6598, 3332, 3636, 3581
6599, 3340, 3595, 3440
6600, 3347, 3590, 3589
6601, 3589, 3590, 3423
6602, 3567, 3753, 553
6603, 3455, 3552, 3372
6604, 3454, 3549, 3370
6605, 3374, 3551, 3456
6606, 3373, 3550, 3457
6607, 3601, 3720, 3435
6608, 3331, 3634, 3580
6609, 3524, 3693, 3341
6610, 3450, 3678, 3606
6611, 3451, 3679, 3605
6612, 3604, 3680, 3452
6613, 3490, 3606, 3406
6614, 3491, 3605, 3407
6615, 3408, 3604, 3492
6616, 3353, 3606, 3490
6617, 3492, 3604, 3355
6618, 3354, 3605, 3491
6619, 3363, 3560, 3453
6620, 3471, 3534, 3368
6621, 3371, 3532, 3473
6622, 3472, 3533, 3369
6623, 3455, 3570, 3336
6624, 3342, 3573, 3457
6625, 3457, 3574, 3342
6626, 3337, 3571, 3456
6627, 3456, 3572, 3337
6628, 3364, 3700, 3561
6629, 3561, 3700, 3453
6630, 517, 3577, 516
6631, 3370, 3575, 3454
6632, 3455, 3576, 3368
6633, 3601, 3711, 3348
6634, 3454, 3584, 3369
6635, 3509, 3735, 3382
6636, 3381, 3734, 3508
6637, 3511, 3733, 3383
6638, 3384, 3736, 3510
6639, 3462, 3553, 3400
6640, 3463, 3555, 3399
6641, 3400, 3554, 3464
6642, 3473, 3671, 3371
6643, 517, 3658, 3577
6644, 3623, 3663, 3537
6645, 3403, 3548, 3470
6646, 3401, 3546, 3468
6647, 3469, 3547, 3404
6648, 3483, 3734, 3381
6649, 3382, 3735, 3484
6650, 3383, 3733, 3485
6651, 3486, 3736, 3384
6652, 3458, 3707, 558
6653, 3459, 3706, 587
6654, 561, 3705, 3460
6655, 3372, 3570, 3455
6656, 3456, 3571, 3374
6657, 3371, 3574, 3457
6658, 3457, 3573, 3373
6659, 3494, 3530, 3364
6660, 3363, 3531, 3493
6661, 3336, 3576, 3455
6662, 3454, 3575, 3333
6663, 572, 3528, 3501
6664, 3502, 3529, 575
6665, 3476, 3540, 3414
6666, 3411, 3539, 3474
6667, 3410, 3541, 3475
6668, 3475, 3541, 3358
6669, 3356, 3540, 3476
6670, 3474, 3539, 3357
6671, 3362, 3564, 3461
6672, 3377, 3529, 3502
6673, 3501, 3528, 3376
6674, 3465, 3748, 3367
6675, 3467, 3747, 3365
6676, 3466, 3746, 3366
6677, 3333, 3584, 3454
6678, 3437, 3757, 3608
6679, 581, 3519, 580
6680, 3481, 3711, 3367
6681, 3480, 3713, 3365
6682, 3479, 3712, 3366
6683, 3588, 3636, 3332
6684, 3503, 3677, 3369
6685, 3334, 3674, 3521
6686, 3539, 3727, 3357
6687, 3541, 3726, 3358
6688, 3356, 3728, 3540
6689, 3451, 3727, 3539
6690, 3450, 3726, 3541
6691, 3540, 3728, 3452
6692, 578, 3488, 577
6693, 544, 3489, 543
6694, 508, 3487, 507
6695, 3587, 3634, 3331
6696, 3543, 3609, 3391
6697, 579, 3652, 3467
6698, 506, 3498, 505
6699, 590, 3496, 589
6700, 470, 3497, 469
6701, 494, 3495, 493
6702, 566, 3499, 565
6703, 572, 3501, 571
6704, 576, 3502, 575
6705, 3350, 3757, 3712
6706, 547, 3585, 546
6707, 511, 3586, 510
6708, 3489, 3653, 3367
6709, 3488, 3654, 3365
6710, 3487, 3655, 3366
6711, 583, 3503, 582
6712, 3371, 3671, 3499
6713, 3405, 3538, 3482
6714, 3482, 3538, 3385
6715, 3417, 3591, 3577
6716, 3577, 3591, 3388
6717, 3351, 3758, 3446
6718, 3477, 3643, 521
6719, 538, 3648, 3478
6720, 3572, 3709, 3375
6721, 3456, 3709, 3572
6722, 3580, 3625, 3331
6723, 3566, 3587, 3331
6724, 3422, 3569, 3542
6725, 3418, 3634, 3508
6726, 3508, 3634, 3381
6727, 3346, 3568, 3551
6728, 3602, 3757, 3350
6729, 3349, 3761, 3713
6730, 476, 3592, 3513
6731, 3419, 3636, 3510
6732, 3510, 3636, 3384
6733, 3493, 3629, 3413
6734, 3412, 3628, 3494
6735, 3430, 3744, 3543
6736, 3361, 3725, 3565
6737, 3565, 3725, 3461
6738, 3500, 3714, 3447
6739, 3409, 3584, 3583
6740, 3583, 3584, 3333
6741, 3331, 3625, 3622
6742, 3367, 3748, 3481
6743, 3365, 3747, 3480
6744, 3366, 3746, 3479
6745, 3355, 3604, 3452
6746, 3451, 3605, 3354
6747, 3450, 3606, 3353
6748, 3603, 3761, 3349
6749, 3415, 3587, 3566
6750, 3537, 3556, 3332
6751, 3465, 3653, 545
6752, 3467, 3654, 579
6753, 3466, 3655, 509
6754, 555, 3631, 3471
6755, 584, 3633, 3472
6756, 3473, 3632, 564
6757, 487, 3518, 486
6758, 485, 3517, 484
6759, 3369, 3665, 3454
6760, 3457, 3664, 3371
6761, 3368, 3666, 3455
6762, 531, 3509, 530
6763, 529, 3508, 528
6764, 309, 3510, 308
6765, 311, 3511, 310
6766, 3504, 3566, 3331
6767, 464, 3536, 463
6768, 596, 3535, 595
6769, 3513, 3592, 3370
6770, 525, 3526, 524
6771, 535, 3527, 534
6772, 3395, 3643, 3477
6773, 3478, 3648, 3404
6774, 3392, 3685, 3599
6775, 3387, 3686, 3598
6776, 464, 3657, 3536
6777, 3535, 3656, 595
6778, 540, 3594, 3469
6779, 3470, 3594, 541
6780, 3485, 3702, 3383
6781, 3384, 3701, 3486
6782, 573, 3528, 572
6783, 575, 3529, 574
6784, 3385, 3690, 3482
6785, 501, 3611, 3462
6786, 472, 3612, 3463
6787, 3464, 3613, 498
6788, 3379, 3747, 3652
6789, 3505, 3616, 3405
6790, 3360, 3616, 3505
6791, 3468, 3668, 491
6792, 545, 3694, 3465
6793, 509, 3695, 3466
6794, 3386, 3593, 3517
6795, 3427, 3615, 3579
6796, 3426, 3614, 3578
6797, 3567, 3703, 3471
6798, 3484, 3699, 3382
6799, 3381, 3698, 3483
6800, 564, 3671, 3473
6801, 477, 3592, 476
6802, 3472, 3677, 584
6803, 3504, 3692, 3362
6804, 3518, 3690, 3385
6805, 3379, 3652, 3519
6806, 3420, 3588, 3556
6807, 535, 3649, 3527
6808, 3526, 3650, 524
6809, 3474, 3612, 473
6810, 497, 3613, 3476
6811, 3475, 3611, 502
6812, 3503, 3651, 582
6813, 3383, 3702, 3536
6814, 3535, 3701, 3384
6815, 3556, 3588, 3332
6816, 3536, 3657, 3421
6817, 3420, 3656, 3535
6818, 488, 3635, 3482
6819, 3382, 3699, 3527
6820, 3526, 3698, 3381
6821, 3471, 3703, 555
6822, 3481, 3748, 3378
6823, 3480, 3747, 3379
6824, 3479, 3746, 3380
6825, 3409, 3651, 3503
6826, 3543, 3603, 3430
6827, 3545, 3601, 3429
6828, 3544, 3602, 3431
6829, 3652, 3747, 3467
6830, 3482, 3690, 488
6831, 3471, 3631, 3406
6832, 3408, 3632, 3473
6833, 3472, 3633, 3407
6834, 3403, 3647, 3489
6835, 3396, 3638, 3488
6836, 3402, 3646, 3487
6837, 3488, 3638, 577
6838, 3489, 3647, 543
6839, 3487, 3646, 507
6840, 3425, 3607, 3575
6841, 3576, 3608, 3424
6842, 3542, 3569, 3347
6843, 3527, 3649, 3416
6844, 3415, 3650, 3526
6845, 3527, 3625, 3382
6846, 3401, 3645, 3495
6847, 3398, 3639, 3496
6848, 3497, 3640, 3399
6849, 3499, 3644, 3397
6850, 3498, 3646, 3402
6851, 3496, 3639, 589
6852, 506, 3646, 3498
6853, 3495, 3645, 493
6854, 470, 3640, 3497
6855, 566, 3644, 3499
6856, 3422, 3704, 3569
6857, 3393, 3637, 3501
6858, 3502, 3638, 3396
6859, 3501, 3637, 571
6860, 576, 3638, 3502
6861, 3338, 3620, 3582
6862, 3406, 3687, 3490
6863, 3407, 3688, 3491
6864, 3492, 3689, 3408
6865, 3568, 3709, 3551
6866, 3416, 3625, 3527
6867, 3519, 3652, 580
6868, 3577, 3658, 3417
6869, 312, 3742, 3733
6870, 3734, 3741, 527
6871, 532, 3740, 3735
6872, 3736, 3743, 307
6873, 3500, 3658, 518
6874, 477, 3752, 3592
6875, 580, 3652, 579
6876, 3406, 3678, 3534
6877, 3407, 3679, 3533
6878, 3532, 3680, 3408
6879, 3517, 3593, 484
6880, 3531, 3663, 3421
6881, 3405, 3745, 3505
6882, 3424, 3753, 3567
6883, 3622, 3692, 3504
6884, 557, 3707, 3490
6885, 586, 3706, 3491
6886, 3492, 3705, 562
6887, 3517, 3673, 3423
6888, 3423, 3673, 3518
6889, 3518, 3673, 486
6890, 485, 3673, 3517
6891, 3363, 3663, 3531
6892, 518, 3714, 3500
6893, 556, 3631, 555
6894, 585, 3633, 584
6895, 564, 3632, 563
6896, 529, 3669, 3508
6897, 3509, 3669, 530
6898, 309, 3670, 3510
6899, 3511, 3670, 310
6900, 3483, 3698, 526
6901, 533, 3699, 3484
6902, 3383, 3721, 3581
6903, 3482, 3635, 3405
6904, 3345, 3681, 3549
6905, 3343, 3682, 3552
6906, 3550, 3683, 3344
6907, 484, 3593, 483
6908, 3414, 3662, 3515
6909, 3513, 3660, 3411
6910, 3412, 3661, 3516
6911, 3512, 3659, 3410
6912, 3370, 3660, 3513
6913, 3372, 3659, 3512
6914, 3516, 3661, 3374
6915, 3515, 3662, 3373
6916, 3484, 3740, 533
6917, 526, 3741, 3483
6918, 597, 3743, 3486
6919, 3485, 3742, 462
6920, 3439, 3672, 3616
6921, 3340, 3720, 3591
6922, 462, 3702, 3485
6923, 3486, 3701, 597
6924, 490, 3668, 3505
6925, 3712, 3757, 3437
6926, 3369, 3759, 3503
6927, 3519, 3651, 3409
6928, 581, 3651, 3519
6929, 578, 3654, 3488
6930, 544, 3653, 3489
6931, 508, 3655, 3487
6932, 3331, 3622, 3504
6933, 3733, 3742, 3485
6934, 3483, 3741, 3734
6935, 3735, 3740, 3484
6936, 3486, 3743, 3736
6937, 3341, 3693, 3565
6938, 3564, 3684, 3341
6939, 489, 3635, 488
6940, 3508, 3669, 3418
6941, 3418, 3669, 3509
6942, 3510, 3670, 3419
6943, 3419, 3670, 3511
6944, 3499, 3671, 565
6945, 3417, 3658, 3500
6946, 3388, 3720, 3601
6947, 3713, 3761, 3436
6948, 3620, 3723, 3582
6949, 3515, 3626, 3414
6950, 3411, 3630, 3513
6951, 3413, 3629, 3514
6952, 3516, 3628, 3412
6953, 3410, 3627, 3512
6954, 3507, 3650, 3415
6955, 3416, 3649, 3506
6956, 3512, 3627, 504
6957, 3513, 3630, 475
6958, 591, 3628, 3516
6959, 3514, 3629, 468
6960, 495, 3626, 3515
6961, 3537, 3700, 3556
6962, 3500, 3691, 3417
6963, 3352, 3691, 3500
6964, 3528, 3676, 3422
6965, 3422, 3676, 3529
6966, 573, 3676, 3528
6967, 3529, 3676, 574
6968, 3545, 3667, 3388
6969, 509, 3655, 508
6970, 545, 3653, 544
6971, 579, 3654, 578
6972, 565, 3671, 564
6973, 3490, 3687, 557
6974, 3491, 3688, 586
6975, 562, 3689, 3492
6976, 3544, 3732, 3390
6977, 488, 3690, 487
6978, 523, 3650, 3507
6979, 3506, 3649, 536
6980, 3581, 3721, 3623
6981, 3528, 3722, 3376
6982, 3415, 3755, 3507
6983, 3461, 3725, 3504
6984, 3503, 3759, 3409
6985, 583, 3677, 3503
6986, 3390, 3602, 3544
6987, 3388, 3601, 3545
6988, 3391, 3603, 3543
6989, 3388, 3667, 3577
6990, 3377, 3704, 3529
6991, 3591, 3595, 3340
6992, 3581, 3636, 3419
6993, 3580, 3634, 3418
6994, 584, 3677, 583
6995, 308, 3736, 307
6996, 528, 3734, 527
6997, 532, 3735, 531
6998, 312, 3733, 311
6999, 518, 3658, 517
7000, 3521, 3674, 3394
7001, 487, 3690, 3518
7002, 541, 3594, 540
7003, 3549, 3681, 3660
7004, 3552, 3682, 3659
7005, 3662, 3683, 3550
7006, 3347, 3621, 3542
7007, 3506, 3692, 3416
7008, 512, 3686, 511
7009, 548, 3685, 547
7010, 3505, 3745, 490
7011, 526, 3698, 525
7012, 534, 3699, 533
7013, 513, 3598, 512
7014, 549, 3599, 548
7015, 3362, 3692, 3506
7016, 473, 3612, 472
7017, 498, 3613, 497
7018, 502, 3611, 501
7019, 3575, 3607, 3333
7020, 3336, 3608, 3576
7021, 3507, 3755, 3361
7022, 3508, 3734, 528
7023, 531, 3735, 3509
7024, 3510, 3736, 308
7025, 311, 3733, 3511
7026, 569, 3600, 568
7027, 3398, 3719, 3522
7028, 558, 3707, 557
7029, 587, 3706, 586
7030, 562, 3705, 561
7031, 3593, 3756, 483
7032, 3393, 3731, 3525
7033, 3589, 3621, 3347
7034, 3523, 3724, 3397
7035, 519, 3714, 518
7036, 3635, 3745, 3405
7037, 491, 3668, 490
7038, 3394, 3674, 3520
7039, 3360, 3696, 3616
7040, 3616, 3696, 3439
7041, 3395, 3693, 3524
7042, 3530, 3656, 3420
7043, 3421, 3657, 3531
7044, 3579, 3615, 3335
7045, 3578, 3614, 3335
7046, 3417, 3595, 3591
7047, 3631, 3687, 3406
7048, 3633, 3688, 3407
7049, 3408, 3689, 3632
7050, 3390, 3732, 3596
7051, 3383, 3729, 3511
7052, 3382, 3730, 3509
7053, 594, 3656, 3530
7054, 3531, 3657, 465
7055, 597, 3701, 596
7056, 463, 3702, 462
7057, 3569, 3624, 3347
7058, 3371, 3664, 3532
7059, 3533, 3665, 3369
7060, 3534, 3666, 3368
7061, 3551, 3708, 3346
7062, 3537, 3663, 3363
7063, 3597, 3610, 3389
7064, 525, 3698, 3526
7065, 3527, 3699, 534
7066, 3592, 3752, 3425
7067, 3553, 3675, 3400
7068, 3533, 3679, 3345
7069, 3344, 3680, 3532
7070, 3534, 3678, 3343
7071, 3420, 3754, 3530
7072, 3347, 3624, 3590
7073, 3581, 3623, 3332
7074, 3382, 3625, 3580
7075, 3529, 3704, 3422
7076, 27, 3743, 597
7077, 533, 3740, 31
7078, 30, 3741, 526
7079, 462, 3742, 26
7080, 3405, 3672, 3538
7081, 3346, 3708, 3561
7082, 3453, 3700, 3537
7083, 3422, 3722, 3528
7084, 3538, 3672, 3339
7085, 515, 3667, 3545
7086, 3536, 3721, 3383
7087, 513, 3716, 3598
7088, 549, 3717, 3599
7089, 3530, 3754, 3364
7090, 3411, 3681, 3539
7091, 3540, 3683, 3414
7092, 3410, 3682, 3541
7093, 3552, 3659, 3372
7094, 3549, 3660, 3370
7095, 3374, 3661, 3551
7096, 3373, 3662, 3550
7097, 553, 3753, 552
7098, 478, 3752, 477
7099, 3509, 3730, 3418
7100, 3511, 3729, 3419
7101, 3445, 3749, 3600
7102, 3600, 3751, 3446
7103, 3600, 3749, 568
7104, 569, 3751, 3600
7105, 504, 3627, 503
7106, 468, 3629, 467
7107, 592, 3628, 591
7108, 475, 3630, 474
7109, 496, 3626, 495
7110, 3455, 3666, 3552
7111, 3550, 3664, 3457
7112, 3454, 3665, 3549
7113, 3551, 3709, 3456
7114, 3421, 3721, 3536
7115, 3428, 3756, 3593
7116, 3403, 3715, 3548
7117, 3401, 3710, 3546
7118, 596, 3701, 3535
7119, 3536, 3702, 463
7120, 3555, 3718, 3399
7121, 3381, 3634, 3587
7122, 500, 3641, 499
7123, 507, 3646, 506
7124, 571, 3637, 570
7125, 589, 3639, 588
7126, 471, 3640, 470
7127, 577, 3638, 576
7128, 493, 3645, 492
7129, 567, 3644, 566
7130, 560, 3642, 559
7131, 521, 3643, 520
7132, 539, 3648, 538
7133, 543, 3647, 542
7134, 524, 3650, 523
7135, 536, 3649, 535
7136, 3542, 3722, 3422
7137, 582, 3651, 581
7138, 3547, 3684, 3404
7139, 3384, 3636, 3588
7140, 3376, 3722, 3542
7141, 3558, 3715, 3403
7142, 3577, 3667, 516
7143, 3400, 3675, 3554
7144, 3562, 3731, 3393
7145, 3622, 3625, 3416
7146, 595, 3656, 594
7147, 465, 3657, 464
7148, 3421, 3663, 3623
7149, 3584, 3759, 3369
7150, 516, 3667, 515
7151, 3566, 3725, 3361
7152, 3504, 3725, 3566
7153, 3573, 3710, 3401
7154, 3399, 3718, 3572
7155, 3571, 3719, 3398
7156, 3561, 3708, 3412
7157, 3397, 3724, 3574
7158, 551, 3732, 3544
7159, 3404, 3684, 3564
7160, 3565, 3693, 3395
7161, 552, 3732, 551
7162, 3342, 3710, 3573
7163, 3572, 3718, 3337
7164, 3337, 3719, 3571
7165, 3574, 3724, 3342
7166, 3608, 3757, 3390
7167, 3582, 3723, 3428
7168, 510, 3695, 509
7169, 546, 3694, 545
7170, 307, 3743, 27
7171, 31, 3740, 532
7172, 527, 3741, 30
7173, 26, 3742, 312
7174, 530, 3669, 529
7175, 310, 3670, 309
7176, 3556, 3700, 3364
7177, 3637, 3751, 570
7178, 567, 3749, 3644
7179, 3643, 3750, 520
7180, 486, 3673, 485
7181, 3361, 3755, 3566
7182, 574, 3676, 573
7183, 3409, 3759, 3584
7184, 3364, 3754, 3556
7185, 3428, 3723, 3609
7186, 3609, 3723, 3391
7187, 3556, 3754, 3420
7188, 3340, 3715, 3558
7189, 490, 3745, 489
7190, 3597, 3752, 478
7191, 552, 3753, 3596
7192, 555, 3703, 554
7193, 3418, 3730, 3580
7194, 3419, 3729, 3581
7195, 554, 3703, 3567
7196, 3339, 3731, 3562
7197, 563, 3689, 562
7198, 586, 3688, 585
7199, 557, 3687, 556
7200, 3566, 3755, 3415
7201, 3569, 3704, 3377
7202, 483, 3756, 482
7203, 3375, 3709, 3568
7204, 3446, 3758, 3600
7205, 3580, 3730, 3382
7206, 3581, 3729, 3383
7207, 3585, 3694, 546
7208, 3586, 3695, 510
7209, 480, 3744, 479
7210, 514, 3716, 513
7211, 550, 3717, 549
7212, 520, 3750, 519
7213, 568, 3749, 567
7214, 570, 3751, 569
7215, 3385, 3760, 3589
7216, 3596, 3732, 552
7217, 3349, 3738, 3617
7218, 3348, 3737, 3619
7219, 3350, 3739, 3618
7220, 3661, 3708, 3551
7221, 3619, 3737, 3432
7222, 3617, 3738, 3433
7223, 3618, 3739, 3434
7224, 3591, 3720, 3388
7225, 3606, 3678, 3406
7226, 3408, 3680, 3604
7227, 3605, 3679, 3407
7228, 3616, 3672, 3405
7229, 3417, 3691, 3595
7230, 3598, 3686, 512
7231, 3599, 3685, 548
7232, 3589, 3760, 3621
7233, 482, 3756, 3609
7234, 3479, 3739, 3712
7235, 3480, 3738, 3713
7236, 3481, 3737, 3711
7237, 3712, 3739, 3350
7238, 3713, 3738, 3349
7239, 3711, 3737, 3348
7240, 3414, 3683, 3662
7241, 3660, 3681, 3411
7242, 3659, 3682, 3410
7243, 479, 3744, 3610
7244, 3416, 3692, 3622
7245, 3412, 3708, 3661
7246, 3425, 3752, 3597
7247, 3596, 3753, 3424
7248, 3623, 3721, 3421
7249, 556, 3687, 3631
7250, 585, 3688, 3633
7251, 3632, 3689, 563
7252, 3391, 3723, 3620
7253, 3600, 3758, 3445
7254, 3391, 3761, 3603
7255, 3390, 3757, 3602
7256, 3610, 3744, 3430
7257, 3609, 3756, 3428
7258, 3620, 3761, 3391
7259, 3621, 3760, 3449
7260, 3436, 3761, 3620
7261, 489, 3745, 3635
7262, 3714, 3750, 3447
7263, 519, 3750, 3714
*ELEMENT, type=CPS3, ELSET=Surface12
7264, 4288, 5089, 4005
7265, 4241, 4905, 3900
7266, 4373, 4489, 3962
7267, 4137, 4620, 4474
7268, 4557, 4980, 36
7269, 4453, 5498, 5492
7270, 4310, 5449, 3959
7271, 4276, 5355, 3814
7272, 4189, 4679, 4424
7273, 4545, 4634, 4081
7274, 4232, 4967, 3802
7275, 3783, 4634, 4545
7276, 3939, 4514, 4273
7277, 4006, 4599, 4459
7278, 4383, 4806, 3914
7279, 5300, 5399, 4397
7280, 4029, 4482, 4362
7281, 4344, 4875, 3807
7282, 3859, 4607, 4571
7283, 4012, 4428, 4398
7284, 4453, 5492, 4284
7285, 4775, 4843, 4085
7286, 4164, 4625, 625
7287, 4321, 5181, 3903
7288, 4571, 4607, 4084
7289, 4404, 5273, 5121
7290, 3880, 4847, 4298
7291, 665, 4974, 4328
7292, 4890, 4923, 4388
7293, 3895, 4493, 4305
7294, 4377, 5167, 4168
7295, 4581, 4848, 4153
7296, 4348, 4484, 3932
7297, 3936, 4834, 4327
7298, 4647, 5117, 4148
7299, 4189, 5232, 4679
7300, 3801, 5167, 4377
7301, 4071, 4866, 4440
7302, 4503, 5081, 3762
7303, 3960, 4711, 4407
7304, 5006, 5081, 4503
7305, 4536, 5214, 3933
7306, 4333, 4975, 656
7307, 3804, 5300, 4397
7308, 4267, 5214, 4536
7309, 4215, 5247, 4065
7310, 4400, 5050, 3938
7311, 754, 4417, 753
7312, 4847, 4884, 4298
7313, 3835, 4615, 4386
7314, 4154, 5050, 4400
7315, 3918, 4914, 4408
7316, 4285, 5405, 5228
7317, 4407, 5690, 3960
7318, 3948, 4668, 4377
7319, 4282, 4796, 4035
7320, 4383, 4939, 4935
7321, 4386, 4615, 4018
7322, 5121, 5273, 4136
7323, 4383, 4935, 3771
7324, 4021, 5628, 4238
7325, 3959, 5449, 4375
7326, 3817, 4479, 4382
7327, 4397, 4948, 4247
7328, 32, 4756, 775
7329, 4157, 4888, 4609
7330, 4866, 5401, 4440
7331, 3809, 4705, 4544
7332, 3821, 4539, 4305
7333, 4250, 4725, 4005
7334, 3893, 5031, 4259
7335, 3823, 4754, 4296
7336, 598, 4756, 32
7337, 4373, 4625, 4164
7338, 3851, 4848, 4581
7339, 4544, 4705, 4109
7340, 3942, 4638, 4411
7341, 4474, 4620, 3974
7342, 4112, 5058, 4337
7343, 4343, 4947, 4190
7344, 4342, 5303, 5285
7345, 4324, 4928, 4057
7346, 4435, 4951, 4928
7347, 4455, 5077, 3883
7348, 3969, 4559, 4317
7349, 4291, 5443, 3987
7350, 3887, 4947, 4343
7351, 4337, 5058, 3889
7352, 5018, 5223, 4547
7353, 4139, 5001, 4694
7354, 4190, 5077, 4455
7355, 3970, 4650, 4426
7356, 4308, 4517, 3948
7357, 4327, 5525, 3936
7358, 4290, 4542, 4024
7359, 4230, 5117, 4647
7360, 4466, 5241, 3920
7361, 4009, 4736, 4348
7362, 3988, 4750, 4265
7363, 4647, 4899, 4230
7364, 4411, 4638, 4033
7365, 3929, 4948, 4397
7366, 3825, 4520, 4372
7367, 4076, 4848, 4501
7368, 4013, 5127, 4334
7369, 4247, 5241, 4466
7370, 4694, 5001, 3872
7371, 3814, 5110, 4276
7372, 4372, 4520, 4041
7373, 4166, 4573, 4413
7374, 3964, 5116, 5110
7375, 4128, 4794, 4704
7376, 4043, 4899, 4647
7377, 4047, 4867, 4338
7378, 3900, 4866, 4241
7379, 3966, 4688, 4258
7380, 4340, 5229, 3905
7381, 4848, 5459, 4501
7382, 4158, 5229, 4340
7383, 4737, 4811, 3842
7384, 4067, 4900, 4328
7385, 4385, 4523, 3983
7386, 4367, 4479, 3817
7387, 4258, 4622, 3966
7388, 4328, 4900, 3890
7389, 4617, 4918, 4162
7390, 3802, 4908, 4232
7391, 3815, 4523, 4385
7392, 4383, 5442, 4806
7393, 4381, 4834, 3936
7394, 4463, 4829, 4091
7395, 4035, 4818, 4282
7396, 4333, 4903, 4068
7397, 4609, 4888, 3962
7398, 4551, 4879, 3969
7399, 4116, 4765, 4492
7400, 3891, 4903, 4333
7401, 3953, 5177, 4384
7402, 3950, 4554, 4412
7403, 4324, 5517, 4488
7404, 754, 5085, 4417
7405, 4004, 4521, 4437
7406, 4282, 4818, 3793
7407, 5195, 5278, 4004
7408, 4432, 4668, 3948
7409, 5228, 5405, 4145
7410, 4447, 4640, 3797
7411, 4265, 5384, 3988
7412, 4551, 5390, 4879
7413, 4528, 4853, 4149
7414, 3816, 4853, 4528
7415, 3900, 4905, 4297
7416, 4297, 4886, 3808
7417, 3814, 5355, 4375
7418, 3779, 4584, 4547
7419, 4646, 4648, 3996
7420, 654, 4975, 4726
7421, 4005, 4675, 4250
7422, 4772, 5405, 4285
7423, 4547, 4584, 4060
7424, 4113, 4648, 4646
7425, 3911, 5303, 4342
7426, 4259, 4808, 3893
7427, 4488, 5517, 3784
7428, 4258, 5005, 3968
7429, 4345, 4539, 3821
7430, 3807, 4741, 4344
7431, 4507, 4711, 3960
7432, 4023, 4808, 4259
7433, 4273, 4612, 3939
7434, 4723, 4974, 667
7435, 5110, 5116, 4276
7436, 4005, 5308, 4288
7437, 4914, 5215, 4408
7438, 3809, 5674, 4369
7439, 4581, 5156, 3851
7440, 4445, 4519, 3967
7441, 4261, 4960, 4049
7442, 757, 5406, 4265
7443, 3990, 5301, 4971
7444, 4414, 4932, 3995
7445, 4040, 4530, 4321
7446, 4427, 4582, 3973
7447, 4299, 4774, 4022
7448, 4065, 4837, 4215
7449, 4369, 5674, 4578
7450, 3777, 4657, 4388
7451, 4331, 4646, 3996
7452, 4061, 4760, 4341
7453, 4449, 4568, 4045
7454, 3929, 5528, 4948
7455, 4595, 5157, 3928
7456, 3961, 5246, 4344
7457, 3860, 4568, 4449
7458, 4031, 4932, 4414
7459, 4341, 4760, 3824
7460, 4259, 4702, 4023
7461, 3836, 4565, 4368
7462, 3986, 4676, 4671
7463, 3816, 5462, 5194
7464, 4282, 5447, 4446
7465, 3946, 4549, 4392
7466, 4089, 4589, 4307
7467, 3827, 4774, 4299
7468, 3937, 5422, 4367
7469, 3844, 4829, 4463
7470, 4057, 4668, 4432
7471, 4368, 4565, 3990
7472, 5121, 5688, 4404
7473, 3892, 4646, 4331
7474, 4446, 5447, 3917
7475, 4297, 4576, 3900
7476, 4388, 4657, 4019
7477, 4385, 4546, 3815
7478, 4022, 4577, 4299
7479, 774, 4481, 773
7480, 3957, 5021, 4431
7481, 3771, 5560, 4383
7482, 4392, 4601, 4188
7483, 3953, 5537, 5177
7484, 4010, 4701, 4309
7485, 3822, 4504, 4470
7486, 4277, 5290, 4508
7487, 4672, 5409, 5010
7488, 4252, 4980, 4557
7489, 4197, 5399, 5300
7490, 4530, 5181, 4321
7491, 4294, 4600, 4040
7492, 4543, 5317, 4174
7493, 5285, 5303, 4156
7494, 4049, 4735, 4261
7495, 4286, 4685, 4004
7496, 4455, 4749, 3964
7497, 4118, 4744, 4627
7498, 4363, 4604, 3776
7499, 4013, 4770, 4262
7500, 4659, 4801, 3991
7501, 4470, 4504, 4017
7502, 4672, 5010, 3997
7503, 4374, 4527, 4093
7504, 4413, 4809, 3915
7505, 4577, 4775, 4085
7506, 4418, 5140, 5122
7507, 735, 5087, 4387
7508, 4003, 4821, 4315
7509, 3968, 5005, 4281
7510, 4418, 5122, 3927
7511, 4948, 5595, 4247
7512, 4757, 5300, 3804
7513, 4187, 5095, 4691
7514, 4163, 5235, 4989
7515, 4363, 5729, 4486
7516, 4361, 4587, 4055
7517, 4508, 5290, 3788
7518, 5712, 5729, 4363
7519, 4471, 4973, 3775
7520, 3909, 4890, 4388
7521, 4394, 5284, 3902
7522, 3968, 5003, 4258
7523, 3934, 4495, 4402
7524, 4408, 5625, 3918
7525, 4090, 4987, 4360
7526, 4369, 4578, 3968
7527, 3955, 5018, 4547
7528, 4122, 4655, 4443
7529, 4410, 4611, 3934
7530, 4307, 4589, 3878
7531, 3878, 4610, 4307
7532, 3998, 4658, 4490
7533, 4238, 4874, 4021
7534, 4512, 5148, 4030
7535, 4030, 5148, 4712
7536, 4155, 4973, 4471
7537, 4671, 4676, 4112
7538, 4360, 4987, 3949
7539, 4293, 5614, 3837
7540, 4344, 4741, 3961
7541, 4262, 4728, 4013
7542, 4492, 4765, 3837
7543, 3916, 5228, 4376
7544, 3842, 4811, 4574
7545, 4281, 4922, 3968
7546, 4006, 4715, 4599
7547, 4283, 5104, 3896
7548, 3974, 4835, 4275
7549, 4166, 5129, 4573
7550, 4246, 5213, 644
7551, 4495, 5369, 4829
7552, 771, 4393, 770
7553, 4685, 5195, 4004
7554, 4012, 4649, 4386
7555, 4548, 4732, 3790
7556, 4435, 4928, 3926
7557, 4174, 5343, 4543
7558, 4463, 5252, 4221
7559, 612, 4498, 611
7560, 4386, 4649, 3835
7561, 3988, 4616, 4483
7562, 3924, 5252, 4463
7563, 3963, 4797, 4343
7564, 4392, 4549, 699
7565, 4483, 4616, 4098
7566, 690, 5407, 4999
7567, 644, 4851, 4246
7568, 4012, 4761, 4649
7569, 4366, 4673, 3913
7570, 603, 4436, 602
7571, 4016, 4673, 4366
7572, 4030, 4552, 4512
7573, 4681, 4777, 3779
7574, 4343, 5064, 3963
7575, 4265, 4750, 757
7576, 4512, 4552, 4007
7577, 4649, 4761, 4140
7578, 4330, 5284, 5224
7579, 3789, 5421, 4729
7580, 4627, 4744, 4020
7581, 4102, 4719, 4492
7582, 3942, 4804, 4480
7583, 4306, 5300, 4757
7584, 5224, 5284, 4147
7585, 4165, 5156, 4581
7586, 4704, 4794, 3793
7587, 3967, 4526, 4458
7588, 4722, 5649, 3879
7589, 4143, 5084, 4517
7590, 4309, 4635, 4010
7591, 4829, 5369, 4150
7592, 4566, 5462, 3816
7593, 5131, 5151, 3820
7594, 4293, 4957, 3882
7595, 3959, 4686, 4310
7596, 4325, 4805, 4001
7597, 3888, 4635, 4309
7598, 39, 4380, 682
7599, 666, 4974, 665
7600, 3919, 5688, 5121
7601, 4275, 5496, 3974
7602, 5162, 5485, 3980
7603, 680, 4499, 679
7604, 4875, 5140, 3807
7605, 3882, 4659, 4293
7606, 4036, 4840, 4341
7607, 4051, 4602, 4449
7608, 4069, 4915, 4481
7609, 4949, 5482, 4639
7610, 605, 4736, 4350
7611, 3946, 4907, 4419
7612, 619, 4399, 618
7613, 4367, 5422, 4479
7614, 4281, 5559, 3883
7615, 3822, 4949, 4639
7616, 4449, 4602, 3860
7617, 700, 4392, 699
7618, 4460, 4556, 3945
7619, 4005, 5089, 4675
7620, 4257, 5649, 4722
7621, 3980, 5485, 4528
7622, 4492, 4719, 3932
7623, 4296, 5062, 3823
7624, 3978, 5034, 4464
7625, 774, 5069, 4481
7626, 625, 4625, 3854
7627, 4373, 5086, 4489
7628, 4398, 4826, 3778
7629, 3813, 4798, 4370
7630, 3987, 5443, 4438
7631, 4487, 4788, 4048
7632, 3906, 4632, 4314
7633, 3802, 4969, 4532
7634, 4802, 5087, 737
7635, 4247, 5532, 4397
7636, 3993, 4606, 4560
7637, 3896, 5022, 4283
7638, 4294, 5151, 5131
7639, 3850, 4918, 4617
7640, 3966, 4793, 4365
7641, 4610, 5243, 4307
7642, 639, 4557, 36
7643, 4531, 5204, 4279
7644, 5466, 5561, 3973
7645, 4397, 5532, 3804
7646, 4504, 5466, 3973
7647, 3902, 4721, 4394
7648, 4462, 5073, 4032
7649, 4148, 5117, 4514
7650, 3963, 4546, 4385
7651, 656, 4975, 655
7652, 3987, 4781, 4291
7653, 4194, 4640, 4447
7654, 3839, 4878, 4605
7655, 4532, 4969, 4182
7656, 4443, 4681, 3779
7657, 3957, 5518, 5021
7658, 4548, 5658, 4732
7659, 4051, 4605, 4523
7660, 3790, 4976, 4548
7661, 5204, 5622, 4279
7662, 4140, 5243, 4610
7663, 3767, 4526, 4433
7664, 4422, 4738, 4014
7665, 4548, 4976, 4186
7666, 3844, 5386, 4495
7667, 4058, 4662, 4306
7668, 4119, 4832, 4609
7669, 3815, 4644, 4523
7670, 3883, 4922, 4281
7671, 4519, 5507, 3967
7672, 3995, 4932, 4641
7673, 3912, 4789, 4311
7674, 4369, 5451, 3809
7675, 3793, 4794, 4282
7676, 4523, 4644, 4051
7677, 4859, 4915, 4069
7678, 3817, 5431, 4367
7679, 4004, 4870, 4286
7680, 4211, 4824, 4720
7681, 4319, 5106, 3895
7682, 4533, 5407, 690
7683, 4906, 5133, 3985
7684, 4475, 4817, 4088
7685, 4066, 4941, 4810
7686, 4413, 4921, 4809
7687, 4364, 5448, 4753
7688, 4720, 4824, 3869
7689, 4941, 5386, 3844
7690, 4498, 5044, 611
7691, 4190, 5268, 4343
7692, 3896, 5104, 4322
7693, 3982, 4624, 4352
7694, 4352, 4624, 3904
7695, 3821, 5393, 4345
7696, 3781, 4748, 4319
7697, 4878, 5200, 4605
7698, 4382, 5308, 4005
7699, 4433, 4526, 4025
7700, 4753, 5448, 3827
7701, 687, 5680, 4308
7702, 4077, 4895, 4423
7703, 3871, 4519, 4445
7704, 4049, 4923, 4890
7705, 3769, 4670, 4314
7706, 4824, 5189, 3943
7707, 4665, 5200, 4196
7708, 4317, 5151, 3969
7709, 4322, 4747, 3782
7710, 4736, 5337, 4348
7711, 686, 4491, 685
7712, 4771, 4932, 4031
7713, 4500, 4775, 4022
7714, 4024, 5382, 4290
7715, 600, 4505, 599
7716, 4729, 5421, 4221
7717, 655, 4975, 654
7718, 4001, 5062, 4296
7719, 4423, 4895, 3848
7720, 3824, 5063, 4884
7721, 4193, 5157, 4595
7722, 4319, 5161, 3781
7723, 4669, 4704, 3999
7724, 4762, 4779, 4204
7725, 4128, 4704, 4669
7726, 3908, 4779, 4762
7727, 4298, 5063, 4003
7728, 4738, 5198, 3873
7729, 4296, 4838, 4001
7730, 3954, 5522, 4425
7731, 4458, 4526, 3767
7732, 4309, 5004, 3888
7733, 3918, 4907, 4623
7734, 4884, 5063, 4298
7735, 3782, 5165, 4322
7736, 4322, 5164, 3896
7737, 4003, 4860, 4298
7738, 3832, 4910, 4792
7739, 4576, 5034, 3978
7740, 4660, 5191, 4183
7741, 5443, 5609, 3845
7742, 5492, 5498, 3806
7743, 4477, 4696, 4041
7744, 4384, 4573, 3953
7745, 4368, 4603, 3836
7746, 4268, 5133, 4906
7747, 4728, 5127, 4013
7748, 3878, 5702, 5019
7749, 4446, 4796, 4282
7750, 4002, 4769, 4308
7751, 3961, 5720, 5246
7752, 3945, 4801, 4563
7753, 4040, 5270, 4294
7754, 4792, 4910, 4289
7755, 4299, 4753, 3827
7756, 3981, 4603, 4368
7757, 4867, 5347, 4338
7758, 4413, 4573, 3796
7759, 4623, 4907, 4188
7760, 4089, 4739, 4589
7761, 4121, 4801, 4659
7762, 700, 4601, 4392
7763, 4311, 5054, 3912
7764, 3783, 4545, 4430
7765, 4430, 4545, 3984
7766, 4118, 4627, 4396
7767, 4416, 4712, 3913
7768, 4225, 5119, 4937
7769, 766, 5660, 5075
7770, 4113, 4646, 4501
7771, 4560, 4606, 4039
7772, 4030, 4712, 4416
7773, 4314, 5237, 4037
7774, 3935, 5631, 4421
7775, 3913, 4673, 4323
7776, 667, 4974, 666
7777, 5306, 5685, 3914
7778, 4501, 4646, 3892
7779, 4057, 4896, 4324
7780, 5064, 5382, 3963
7781, 4759, 5199, 4219
7782, 4188, 5457, 4392
7783, 4609, 4832, 3853
7784, 4298, 4860, 3880
7785, 4429, 5631, 3935
7786, 4576, 5530, 5401
7787, 4391, 5406, 759
7788, 3928, 4597, 4379
7789, 3808, 5034, 4297
7790, 3833, 5689, 4316
7791, 3974, 5093, 4474
7792, 42, 4439, 711
7793, 3903, 4692, 4321
7794, 3763, 5577, 4366
7795, 4147, 5284, 4394
7796, 4764, 5235, 4163
7797, 3973, 5561, 5265
7798, 3902, 5554, 4358
7799, 5265, 5561, 4406
7800, 4337, 4671, 4112
7801, 4404, 5123, 4152
7802, 736, 5087, 735
7803, 4306, 5007, 4058
7804, 4365, 4688, 3966
7805, 4305, 4953, 3895
7806, 4417, 5085, 4098
7807, 4395, 5579, 3828
7808, 4780, 4807, 3888
7809, 5228, 5654, 4376
7810, 4427, 5184, 4582
7811, 4216, 4807, 4780
7812, 4766, 4903, 3891
7813, 4256, 4903, 4766
7814, 4488, 4928, 4324
7815, 4543, 4596, 4176
7816, 4656, 4720, 3869
7817, 4308, 4769, 687
7818, 3948, 5011, 4308
7819, 4034, 5307, 4865
7820, 3845, 5609, 4564
7821, 4032, 5073, 4692
7822, 3890, 5590, 4328
7823, 4589, 4739, 4038
7824, 4307, 5612, 4089
7825, 4576, 5401, 3900
7826, 4100, 5165, 4354
7827, 4164, 5414, 4373
7828, 4392, 5457, 3946
7829, 4874, 5307, 35
7830, 3881, 5119, 4654
7831, 4524, 5114, 3764
7832, 3781, 5161, 4353
7833, 4567, 5301, 3990
7834, 3890, 4900, 4776
7835, 4776, 4900, 4255
7836, 4654, 5724, 3881
7837, 3845, 4727, 4438
7838, 4315, 4860, 4003
7839, 4123, 4720, 4656
7840, 4757, 5007, 4306
7841, 4737, 4994, 4046
7842, 4472, 4606, 3780
7843, 3973, 5265, 4427
7844, 3952, 5007, 4757
7845, 4354, 5165, 3782
7846, 4316, 5520, 3833
7847, 4352, 4978, 3982
7848, 4043, 5082, 4745
7849, 4239, 4994, 4737
7850, 3824, 4884, 4341
7851, 4554, 5426, 4412
7852, 4621, 4929, 3787
7853, 4442, 5731, 3991
7854, 4350, 5138, 4097
7855, 4471, 4638, 3942
7856, 4036, 4884, 4847
7857, 4658, 5121, 4490
7858, 3985, 4682, 4405
7859, 4563, 4801, 4121
7860, 4513, 5143, 3894
7861, 4333, 5587, 3891
7862, 4394, 5393, 3821
7863, 4728, 5359, 613
7864, 603, 5066, 4436
7865, 4424, 5564, 3930
7866, 4486, 5551, 3832
7867, 4245, 4931, 4719
7868, 3837, 5514, 4293
7869, 3762, 5005, 4688
7870, 4886, 5070, 3808
7871, 3786, 4830, 4648
7872, 4531, 5144, 4132
7873, 3990, 4643, 4368
7874, 4305, 5236, 3821
7875, 4719, 4931, 3932
7876, 3808, 5218, 4464
7877, 4331, 4933, 3817
7878, 4314, 5175, 3769
7879, 4640, 5540, 3797
7880, 4464, 5218, 4185
7881, 4487, 5528, 4788
7882, 4462, 5412, 3772
7883, 4804, 5167, 4480
7884, 4037, 4913, 4314
7885, 4310, 5551, 4486
7886, 680, 4962, 4499
7887, 4201, 5143, 4513
7888, 4679, 5232, 3870
7889, 4014, 4670, 4420
7890, 4749, 5116, 3964
7891, 4590, 4660, 4183
7892, 4063, 4814, 4451
7893, 4451, 4814, 3818
7894, 3779, 4777, 4584
7895, 4367, 5324, 3937
7896, 4468, 4553, 3951
7897, 4081, 5038, 4545
7898, 4688, 5005, 4258
7899, 3968, 4922, 4369
7900, 4609, 5040, 4157
7901, 4162, 5467, 4617
7902, 4666, 4941, 4066
7903, 4425, 5522, 4580
7904, 4496, 5224, 4147
7905, 4418, 5677, 3807
7906, 4001, 4838, 4325
7907, 4691, 5095, 3992
7908, 4050, 4629, 4567
7909, 4334, 5096, 4013
7910, 3817, 4783, 4331
7911, 4517, 5084, 3948
7912, 3968, 4578, 4511
7913, 5075, 5660, 4410
7914, 4425, 4580, 3839
7915, 737, 5087, 736
7916, 40, 4474, 684
7917, 3796, 5180, 4522
7918, 4567, 4629, 3826
7919, 3938, 5491, 4400
7920, 4495, 4829, 3844
7921, 4331, 4725, 3892
7922, 4695, 5628, 4021
7923, 4943, 5056, 4213
7924, 4649, 4995, 3835
7925, 4130, 5029, 4488
7926, 4573, 5129, 3953
7927, 4420, 4670, 3769
7928, 756, 4483, 755
7929, 4347, 5211, 3898
7930, 4314, 4913, 3906
7931, 4522, 5180, 4209
7932, 726, 5234, 4693
7933, 4500, 5012, 4775
7934, 3991, 5731, 4459
7935, 3898, 5211, 4353
7936, 4380, 4676, 3986
7937, 726, 4693, 725
7938, 3828, 5579, 4444
7939, 3897, 5210, 4349
7940, 3897, 4700, 4346
7941, 4346, 5192, 3897
7942, 4126, 4859, 4505
7943, 4354, 5210, 3897
7944, 39, 4676, 4380
7945, 4650, 4889, 4426
7946, 3764, 5114, 4643
7947, 4009, 4708, 4350
7948, 4396, 4627, 3905
7949, 4376, 5277, 3916
7950, 4323, 4784, 3913
7951, 3994, 5107, 4985
7952, 4430, 4852, 4125
7953, 4354, 5192, 4100
7954, 5163, 5336, 4106
7955, 4340, 4742, 3829
7956, 4488, 5029, 3926
7957, 4141, 5080, 4541
7958, 3899, 4698, 4356
7959, 4396, 5471, 4118
7960, 3895, 5607, 4319
7961, 4234, 5427, 4976
7962, 4431, 4714, 3957
7963, 4714, 5160, 3957
7964, 4308, 5011, 4002
7965, 3897, 5192, 4354
7966, 4531, 5509, 5144
7967, 3904, 5137, 4372
7968, 3945, 4563, 4460
7969, 5110, 5527, 3964
7970, 4056, 4936, 4815
7971, 4514, 5117, 3795
7972, 4087, 4918, 4779
7973, 4487, 5568, 4304
7974, 3774, 5568, 4487
7975, 3962, 4625, 4373
7976, 4041, 4846, 4372
7977, 4356, 4698, 3999
7978, 4372, 4846, 3904
7979, 4621, 5397, 4929
7980, 5019, 5702, 4264
7981, 3919, 4658, 4378
7982, 4508, 5505, 4266
7983, 4918, 5387, 4779
7984, 4358, 4730, 3763
7985, 738, 4802, 737
7986, 4600, 5131, 4136
7987, 4321, 5340, 4040
7988, 654, 4726, 653
7989, 5136, 5414, 4164
7990, 4223, 5440, 4865
7991, 709, 5033, 4680
7992, 3999, 4704, 4356
7993, 4006, 5437, 4351
7994, 4817, 5176, 4088
7995, 4440, 5446, 747
7996, 4815, 4936, 4302
7997, 3958, 5153, 4596
7998, 4478, 4793, 3966
7999, 3818, 4645, 4403
8000, 4830, 5470, 4648
8001, 4403, 4645, 3992
8002, 4235, 5198, 4738
8003, 4491, 5209, 685
8004, 4125, 5201, 4430
8005, 4585, 4871, 4135
8006, 3846, 4871, 4585
8007, 4978, 5373, 3982
8008, 5358, 5691, 4742
8009, 4350, 4736, 4009
8010, 4062, 4562, 4497
8011, 4402, 5481, 3934
8012, 4328, 4974, 4067
8013, 4403, 4891, 3818
8014, 4596, 5153, 4227
8015, 3780, 4606, 4529
8016, 5640, 5695, 4598
8017, 4560, 4990, 3993
8018, 3803, 5640, 4598
8019, 4402, 5000, 3795
8020, 4377, 4668, 3801
8021, 4353, 4805, 3781
8022, 3807, 5677, 4467
8023, 681, 5028, 4962
8024, 3996, 4933, 4331
8025, 4462, 5690, 5412
8026, 3782, 4821, 4354
8027, 4078, 5000, 4402
8028, 4330, 5224, 4515
8029, 4068, 4975, 4333
8030, 3811, 5292, 4758
8031, 4328, 4919, 665
8032, 4604, 5247, 4215
8033, 4134, 4872, 4586
8034, 3956, 5418, 4438
8035, 4262, 5359, 4728
8036, 4336, 5025, 3943
8037, 4948, 5528, 4304
8038, 4586, 4872, 3847
8039, 4962, 5028, 4380
8040, 4807, 5038, 4081
8041, 4405, 4906, 3985
8042, 3949, 5251, 4360
8043, 4007, 5626, 5393
8044, 656, 4927, 4333
8045, 4375, 5355, 3959
8046, 4348, 4931, 4009
8047, 4358, 4721, 3902
8048, 3837, 5614, 4599
8049, 668, 4723, 667
8050, 4937, 5119, 3881
8051, 3829, 4819, 4340
8052, 4496, 5679, 5224
8053, 4701, 5453, 4309
8054, 3905, 5068, 4340
8055, 4469, 4615, 4072
8056, 3913, 4712, 4366
8057, 4338, 4830, 4047
8058, 3889, 5365, 4337
8059, 3946, 5457, 4907
8060, 4419, 5572, 3946
8061, 4412, 4816, 4029
8062, 4445, 4943, 4213
8063, 4379, 4751, 4142
8064, 4747, 5104, 3979
8065, 3974, 5496, 5093
8066, 4438, 4727, 3956
8067, 4322, 5104, 4747
8068, 4210, 5638, 4478
8069, 4343, 4797, 3887
8070, 3988, 5384, 4485
8071, 4729, 5287, 4144
8072, 4020, 5358, 4742
8073, 4726, 5222, 653
8074, 4413, 5346, 4166
8075, 4735, 5067, 4261
8076, 4244, 5685, 5306
8077, 3961, 4741, 4525
8078, 3952, 4572, 4473
8079, 3964, 4880, 4455
8080, 3835, 4995, 4796
8081, 3807, 5002, 4741
8082, 4450, 5418, 3956
8083, 4379, 5333, 3928
8084, 4351, 4923, 4049
8085, 4142, 5333, 4379
8086, 4340, 5155, 4158
8087, 4356, 4782, 3899
8088, 738, 5408, 4802
8089, 4401, 5014, 634
8090, 4394, 4721, 4007
8091, 4542, 4996, 4138
8092, 3936, 5352, 4381
8093, 3977, 5106, 4748
8094, 4376, 4781, 3987
8095, 4044, 4664, 4441
8096, 3877, 5388, 4946
8097, 4748, 5106, 4319
8098, 3915, 5346, 4413
8099, 4596, 5504, 4176
8100, 724, 4516, 723
8101, 4679, 5564, 4424
8102, 4612, 5671, 3841
8103, 4497, 4562, 3830
8104, 4235, 5391, 5198
8105, 3828, 5067, 4735
8106, 5080, 5594, 4541
8107, 4042, 4898, 4365
8108, 4428, 5645, 4398
8109, 4459, 4599, 3991
8110, 4341, 4884, 4036
8111, 4478, 5638, 4793
8112, 3986, 4962, 4380
8113, 4098, 5683, 4417
8114, 4339, 5287, 4729
8115, 3993, 4990, 4639
8116, 3788, 5505, 4508
8117, 5031, 5141, 4571
8118, 4341, 5320, 4061
8119, 4349, 5080, 3897
8120, 4928, 4951, 4057
8121, 4366, 5577, 4873
8122, 3785, 5417, 4424
8123, 3838, 5169, 4506
8124, 4246, 5322, 4494
8125, 4097, 5511, 4350
8126, 619, 5403, 4399
8127, 3943, 5345, 4824
8128, 3970, 4593, 4583
8129, 4583, 4593, 4080
8130, 692, 4533, 41
8131, 3928, 5217, 4595
8132, 3943, 5693, 4336
8133, 4335, 5373, 4978
8134, 4007, 5393, 4394
8135, 765, 4745, 764
8136, 4001, 5211, 5062
8137, 3823, 5062, 4813
8138, 4057, 4951, 4668
8139, 4483, 4750, 3988
8140, 766, 5075, 765
8141, 4409, 4669, 3999
8142, 4342, 5096, 3911
8143, 4424, 5417, 4189
8144, 3991, 4801, 4442
8145, 4813, 5062, 4347
8146, 4370, 5240, 3813
8147, 4704, 5259, 4356
8148, 3898, 5113, 4347
8149, 3932, 4931, 4348
8150, 5063, 5210, 4003
8151, 668, 5216, 4723
8152, 4346, 4938, 3820
8153, 3793, 5259, 4704
8154, 4426, 5267, 4108
8155, 4865, 5583, 4223
8156, 4745, 5082, 4181
8157, 3987, 5277, 4376
8158, 4377, 5011, 3948
8159, 3787, 4843, 4775
8160, 3904, 4846, 4352
8161, 3838, 4669, 4409
8162, 4362, 5183, 4029
8163, 4529, 4606, 3993
8164, 4514, 5293, 4148
8165, 3770, 4781, 4376
8166, 4397, 5399, 3929
8167, 4654, 5119, 4186
8168, 4477, 5554, 3902
8169, 4886, 4905, 3955
8170, 4353, 5641, 3898
8171, 4360, 5608, 4090
8172, 4051, 4644, 4602
8173, 4363, 5716, 4604
8174, 3965, 4651, 4518
8175, 4602, 4644, 4016
8176, 4297, 4905, 4886
8177, 4228, 5160, 4714
8178, 4039, 4606, 4472
8179, 4414, 5325, 3832
8180, 3820, 5588, 4346
8181, 4800, 5400, 4081
8182, 4086, 4759, 4370
8183, 4393, 4984, 770
8184, 771, 4703, 4393
8185, 3964, 5527, 4880
8186, 4365, 4902, 4042
8187, 4204, 4852, 4430
8188, 4409, 4791, 3927
8189, 3951, 5567, 4361
8190, 4493, 4594, 3960
8191, 3983, 5200, 4665
8192, 4018, 4615, 4469
8193, 4126, 5339, 4859
8194, 4362, 4917, 3811
8195, 3870, 4902, 4365
8196, 4382, 4783, 3817
8197, 4362, 5565, 3950
8198, 4436, 5066, 4097
8199, 5062, 5211, 4347
8200, 3990, 4971, 4643
8201, 4502, 4597, 4028
8202, 4351, 4790, 4006
8203, 4365, 4793, 3870
8204, 3886, 5199, 4759
8205, 4390, 5524, 4062
8206, 4461, 4811, 4046
8207, 3960, 4594, 4507
8208, 4294, 5131, 4600
8209, 4598, 4973, 4155
8210, 4350, 5511, 605
8211, 4426, 5109, 3970
8212, 4945, 5378, 4023
8213, 4971, 5301, 4183
8214, 4349, 5210, 5063
8215, 3862, 5317, 4543
8216, 4371, 5009, 3927
8217, 4691, 5425, 4187
8218, 3836, 5255, 4825
8219, 4085, 4795, 4571
8220, 4461, 4689, 3989
8221, 631, 4874, 35
8222, 4753, 5378, 4364
8223, 4505, 5078, 599
8224, 3832, 4792, 4414
8225, 4618, 4755, 4018
8226, 4414, 4792, 4031
8227, 4284, 5668, 4453
8228, 4050, 4567, 4565
8229, 4511, 4578, 4038
8230, 4430, 5201, 3783
8231, 4181, 4755, 4618
8232, 4295, 5336, 5163
8233, 4571, 4795, 3859
8234, 5261, 5430, 4628
8235, 4443, 5371, 4681
8236, 4122, 5223, 5018
8237, 4055, 5101, 4361
8238, 3857, 4896, 4432
8239, 4108, 5109, 4426
8240, 4402, 5386, 4078
8241, 4565, 4567, 3990
8242, 4758, 5292, 4229
8243, 4070, 4940, 4399
8244, 4592, 4738, 3873
8245, 3863, 5469, 4535
8246, 4259, 5031, 4575
8247, 4485, 4794, 4128
8248, 4091, 4984, 4393
8249, 4574, 4621, 4083
8250, 4628, 5430, 3852
8251, 4370, 4798, 3965
8252, 4394, 5350, 4147
8253, 3853, 5040, 4609
8254, 3821, 5350, 4394
8255, 3776, 5083, 4363
8256, 3811, 5100, 4362
8257, 759, 5406, 758
8258, 4246, 5436, 5322
8259, 4826, 5267, 3778
8260, 4432, 4896, 4057
8261, 4564, 5698, 4073
8262, 4103, 5079, 4515
8263, 4045, 4681, 4425
8264, 4655, 4916, 4443
8265, 4005, 4783, 4382
8266, 5288, 5585, 4620
8267, 623, 4508, 622
8268, 4239, 5314, 4914
8269, 4520, 5107, 3994
8270, 4196, 5432, 4665
8271, 4590, 4800, 3975
8272, 4522, 5689, 4026
8273, 3989, 4811, 4461
8274, 3950, 5183, 4362
8275, 4768, 4786, 4017
8276, 4720, 5225, 4332
8277, 4366, 5148, 3763
8278, 4236, 5278, 5195
8279, 4386, 4778, 4012
8280, 3900, 5401, 4866
8281, 3763, 4952, 4358
8282, 4806, 5442, 4052
8283, 4645, 5698, 4564
8284, 4404, 5688, 5123
8285, 4656, 4774, 4123
8286, 3841, 5271, 4612
8287, 3774, 5453, 4701
8288, 4123, 5225, 4720
8289, 3965, 5150, 4370
8290, 4559, 5663, 4317
8291, 4370, 5150, 4086
8292, 3828, 4735, 4395
8293, 3785, 4822, 4441
8294, 5197, 5428, 4000
8295, 3930, 5013, 4424
8296, 4152, 5368, 4404
8297, 4967, 5703, 3802
8298, 4114, 4857, 4588
8299, 4441, 4822, 4044
8300, 4588, 4857, 3841
8301, 4500, 4656, 3869
8302, 4049, 4960, 4351
8303, 4366, 4873, 4016
8304, 4398, 4761, 4012
8305, 4361, 5101, 3951
8306, 3866, 5191, 4660
8307, 4177, 4842, 4743
8308, 4743, 4842, 4071
8309, 5326, 5417, 4031
8310, 4458, 4661, 3967
8311, 3848, 4708, 4423
8312, 4320, 5389, 4638
8313, 3831, 4950, 4683
8314, 4503, 4686, 3959
8315, 3778, 4761, 4398
8316, 4399, 4940, 618
8317, 4031, 5417, 4763
8318, 763, 4618, 762
8319, 4448, 5328, 3935
8320, 4022, 4656, 4500
8321, 747, 5446, 746
8322, 3984, 5500, 4430
8323, 4638, 5389, 4033
8324, 4139, 4768, 4732
8325, 4436, 4731, 602
8326, 3958, 4596, 4543
8327, 4683, 4950, 4203
8328, 4732, 4768, 3790
8329, 4430, 5500, 4204
8330, 4491, 4628, 4137
8331, 4523, 4605, 3983
8332, 4315, 4821, 4619
8333, 3865, 4663, 4630
8334, 699, 4549, 698
8335, 4172, 5328, 4448
8336, 765, 5075, 4745
8337, 3795, 5573, 4402
8338, 4534, 5235, 3956
8339, 4198, 5585, 5288
8340, 4408, 5215, 3800
8341, 4289, 4910, 4902
8342, 4423, 4787, 4077
8343, 4271, 5400, 4800
8344, 4360, 5646, 4935
8345, 4002, 4628, 4491
8346, 5452, 5727, 4450
8347, 4535, 5469, 5254
8348, 4093, 5137, 4374
8349, 4290, 5382, 5064
8350, 4902, 4910, 4042
8351, 4702, 4945, 4023
8352, 4870, 5436, 4286
8353, 4552, 5626, 4007
8354, 4506, 5683, 4098
8355, 4492, 5262, 4116
8356, 4604, 5716, 3995
8357, 4630, 4663, 4059
8358, 4619, 5416, 4315
8359, 610, 5044, 4687
8360, 3972, 5416, 4619
8361, 3967, 5507, 4526
8362, 4148, 5294, 4647
8363, 4935, 5646, 3771
8364, 758, 5406, 757
8365, 4207, 4963, 4540
8366, 4456, 4816, 672
8367, 3861, 4614, 4542
8368, 4375, 5618, 3814
8369, 3834, 4557, 639
8370, 4211, 5189, 4824
8371, 4368, 5114, 3981
8372, 4483, 5085, 755
8373, 3927, 5239, 4371
8374, 4012, 4778, 4428
8375, 3839, 4882, 4425
8376, 4626, 4629, 4050
8377, 4010, 4629, 4626
8378, 4517, 4999, 4143
8379, 4542, 4614, 4024
8380, 4591, 4968, 3853
8381, 4020, 4744, 4441
8382, 4971, 5377, 4643
8383, 4976, 5427, 4318
8384, 4425, 4882, 4045
8385, 3852, 5430, 4411
8386, 5338, 5448, 4717
8387, 4441, 4744, 3785
8388, 4630, 5134, 4184
8389, 4469, 5098, 4018
8390, 4490, 5131, 3820
8391, 4543, 5343, 3958
8392, 4136, 5131, 4490
8393, 4527, 4946, 4093
8394, 4051, 4998, 4605
8395, 4385, 5230, 3963
8396, 4445, 5543, 3871
8397, 3823, 4813, 4416
8398, 763, 5297, 4618
8399, 4582, 5184, 3884
8400, 4372, 5664, 3825
8401, 3816, 5485, 4566
8402, 4457, 4883, 4202
8403, 4376, 5654, 3770
8404, 4139, 4786, 4768
8405, 4401, 5263, 4088
8406, 4416, 4813, 4030
8407, 5201, 5235, 4534
8408, 4489, 5126, 4119
8409, 4569, 5254, 4173
8410, 4566, 5485, 4300
8411, 4048, 5004, 4487
8412, 709, 4680, 708
8413, 4168, 5661, 4377
8414, 4226, 4858, 4465
8415, 3872, 5726, 4694
8416, 4459, 5437, 4006
8417, 4513, 5197, 4000
8418, 4421, 4992, 3780
8419, 4831, 5317, 4214
8420, 4019, 5020, 4388
8421, 4156, 4968, 4591
8422, 4316, 5689, 4522
8423, 4472, 4767, 4039
8424, 608, 5186, 4484
8425, 4084, 5031, 4571
8426, 3769, 5445, 4420
8427, 4581, 4757, 4165
8428, 4617, 4989, 3850
8429, 4163, 4989, 4617
8430, 5151, 5588, 3820
8431, 703, 4509, 702
8432, 4221, 4810, 4463
8433, 3956, 4727, 4534
8434, 4387, 4925, 735
8435, 759, 4877, 4391
8436, 3832, 5325, 4486
8437, 4472, 5715, 4767
8438, 4325, 5444, 4631
8439, 4464, 4803, 3978
8440, 3920, 5060, 4466
8441, 4378, 5065, 3919
8442, 4213, 5543, 4445
8443, 3780, 5721, 4472
8444, 4631, 5444, 3971
8445, 4707, 5307, 4034
8446, 4840, 5320, 4341
8447, 4420, 5088, 4014
8448, 3952, 4757, 4581
8449, 4482, 4917, 4362
8450, 4632, 4854, 4117
8451, 4767, 5715, 3947
8452, 5169, 5413, 4506
8453, 3927, 5009, 4418
8454, 3999, 4791, 4409
8455, 4521, 4969, 4437
8456, 4391, 4877, 4072
8457, 4680, 5033, 3859
8458, 4754, 5341, 4296
8459, 4021, 4819, 4695
8460, 4935, 4939, 4059
8461, 4826, 5645, 3939
8462, 4018, 5597, 4386
8463, 4055, 4981, 4468
8464, 4766, 5668, 3977
8465, 4393, 5185, 4091
8466, 4137, 5209, 4491
8467, 4598, 5428, 4973
8468, 4124, 4876, 4845
8469, 3906, 4854, 4632
8470, 4303, 5595, 4868
8471, 3979, 5669, 4776
8472, 3914, 4939, 4383
8473, 3796, 4921, 4413
8474, 4014, 5088, 4422
8475, 4184, 5718, 4630
8476, 4416, 5196, 3823
8477, 3830, 4864, 4429
8478, 4399, 5071, 4070
8479, 611, 5044, 610
8480, 40, 5209, 4474
8481, 4473, 4986, 4058
8482, 4785, 5324, 4367
8483, 3896, 5663, 4559
8484, 4453, 5668, 4766
8485, 3945, 5550, 4442
8486, 4062, 5042, 4390
8487, 4411, 4804, 3942
8488, 4388, 4923, 3777
8489, 4239, 4914, 4623
8490, 4146, 5324, 4785
8491, 4417, 4833, 753
8492, 4776, 5669, 4454
8493, 3995, 5325, 4414
8494, 632, 4667, 631
8495, 4631, 4805, 4325
8496, 5393, 5626, 4345
8497, 707, 4966, 706
8498, 3983, 5015, 4385
8499, 5194, 5462, 4216
8500, 4096, 4784, 4614
8501, 4644, 5257, 4016
8502, 4825, 5255, 4225
8503, 4521, 5278, 3874
8504, 4072, 5094, 4391
8505, 4173, 5469, 4456
8506, 4070, 4964, 4415
8507, 688, 5680, 687
8508, 4756, 5069, 775
8509, 4047, 4830, 4476
8510, 4092, 4684, 4595
8511, 4053, 4765, 4687
8512, 4138, 5375, 4542
8513, 4127, 5204, 4705
8514, 3910, 5436, 4870
8515, 4880, 5527, 4357
8516, 3914, 5685, 4939
8517, 4595, 4684, 3833
8518, 4015, 4878, 4580
8519, 4032, 5679, 4496
8520, 3851, 5459, 4848
8521, 4437, 4870, 4004
8522, 4263, 5374, 4661
8523, 4422, 5142, 4738
8524, 4841, 4961, 4124
8525, 5502, 5540, 4478
8526, 614, 4728, 613
8527, 4601, 5475, 4188
8528, 3940, 5729, 5712
8529, 3905, 5171, 4396
8530, 3861, 4893, 4537
8531, 4045, 4777, 4681
8532, 3922, 5599, 4711
8533, 4219, 5240, 4759
8534, 4088, 5171, 4401
8535, 4476, 4830, 3786
8536, 4447, 5516, 4194
8537, 4557, 5410, 4252
8538, 3780, 5344, 4421
8539, 4828, 5391, 4235
8540, 4491, 4769, 4002
8541, 3877, 4946, 4527
8542, 3794, 5056, 4943
8543, 4132, 4791, 4698
8544, 5410, 5545, 4252
8545, 4474, 5209, 4137
8546, 4477, 5207, 4696
8547, 4687, 4765, 4116
8548, 4697, 5461, 4220
8549, 3946, 5231, 4549
8550, 3800, 4850, 4408
8551, 4016, 5257, 4673
8552, 4046, 5053, 4461
8553, 3966, 5441, 4478
8554, 4698, 4791, 3999
8555, 4517, 5680, 689
8556, 686, 4769, 4491
8557, 4697, 5653, 5461
8558, 4499, 4962, 3986
8559, 775, 5069, 774
8560, 3934, 4899, 4410
8561, 4010, 4991, 4629
8562, 5204, 5311, 4705
8563, 661, 5076, 4831
8564, 4104, 5132, 4431
8565, 4410, 4899, 4043
8566, 4194, 5484, 4640
8567, 4208, 5502, 4478
8568, 4025, 5423, 4433
8569, 3813, 5727, 5452
8570, 681, 4962, 680
8571, 3828, 5478, 4452
8572, 663, 4555, 662
8573, 4635, 4991, 4010
8574, 4243, 5429, 4556
8575, 4411, 5288, 3852
8576, 649, 4981, 4538
8577, 5079, 5602, 4515
8578, 3928, 5333, 4570
8579, 3804, 5360, 4757
8580, 4478, 5441, 4208
8581, 606, 4736, 605
8582, 4424, 4822, 3785
8583, 659, 4558, 658
8584, 3931, 5516, 4447
8585, 4966, 5651, 706
8586, 3989, 4621, 4574
8587, 4412, 5183, 3950
8588, 4388, 5020, 3909
8589, 4027, 5513, 4435
8590, 4438, 5443, 3845
8591, 3883, 4749, 4455
8592, 3933, 5203, 4436
8593, 4490, 4938, 3998
8594, 4774, 5338, 4123
8595, 4711, 5599, 4407
8596, 5025, 5699, 3800
8597, 5522, 5677, 4015
8598, 3988, 5353, 4616
8599, 4061, 4710, 4603
8600, 4442, 4801, 3945
8601, 3986, 4671, 4562
8602, 4603, 4710, 3836
8603, 3777, 5731, 4657
8604, 4098, 5085, 4483
8605, 4452, 5478, 4194
8606, 751, 4561, 750
8607, 4556, 5429, 4019
8608, 3845, 5035, 4727
8609, 3992, 5095, 4403
8610, 4740, 4829, 4150
8611, 4439, 5730, 711
8612, 4091, 4829, 4740
8613, 4502, 5719, 3819
8614, 4657, 5731, 4442
8615, 4511, 4739, 3840
8616, 4434, 5497, 3786
8617, 3956, 4764, 4450
8618, 4043, 5075, 4410
8619, 3992, 4645, 4564
8620, 3767, 5135, 4458
8621, 701, 4601, 700
8622, 4479, 5092, 4382
8623, 634, 5263, 4401
8624, 715, 4575, 714
8625, 4400, 5686, 4154
8626, 4017, 4786, 4470
8627, 4805, 5211, 4001
8628, 4415, 5694, 4070
8629, 4303, 5719, 4502
8630, 722, 5454, 4675
8631, 4042, 4686, 4503
8632, 3827, 5448, 5338
8633, 5277, 5642, 3916
8634, 4976, 5709, 4234
8635, 4353, 5211, 4805
8636, 4374, 5425, 5112
8637, 4611, 5369, 3934
8638, 4234, 4958, 4582
8639, 4989, 5235, 4125
8640, 745, 4608, 744
8641, 4197, 5300, 4662
8642, 4458, 5135, 4110
8643, 4038, 4739, 4511
8644, 5287, 5339, 4642
8645, 5048, 5524, 4390
8646, 4015, 5260, 4878
8647, 3779, 5223, 4443
8648, 677, 5524, 5048
8649, 4610, 4995, 4140
8650, 3835, 4796, 4446
8651, 4438, 5418, 3987
8652, 4612, 4826, 3939
8653, 4007, 4952, 4512
8654, 4443, 5223, 4122
8655, 5106, 5549, 3895
8656, 4421, 5439, 3935
8657, 4465, 5596, 4226
8658, 4444, 5478, 3828
8659, 675, 4569, 674
8660, 4035, 4995, 4610
8661, 4500, 4965, 4083
8662, 4048, 5194, 4780
8663, 4511, 5003, 3968
8664, 4661, 5374, 3967
8665, 3852, 5288, 4620
8666, 4570, 5217, 3928
8667, 4449, 4998, 4051
8668, 5122, 5140, 4111
8669, 4540, 4986, 730
8670, 3795, 4682, 4514
8671, 4514, 5705, 4273
8672, 3869, 4965, 4500
8673, 756, 4750, 4483
8674, 4029, 5183, 4412
8675, 4607, 5033, 4095
8676, 5054, 5580, 3976
8677, 4448, 4789, 4172
8678, 4423, 5555, 4787
8679, 4207, 5650, 4963
8680, 4879, 5017, 4064
8681, 4290, 4996, 4542
8682, 4460, 5187, 4556
8683, 4100, 5192, 4827
8684, 4292, 5017, 4879
8685, 4827, 5192, 4346
8686, 4202, 5537, 4457
8687, 4426, 4889, 4089
8688, 4467, 5677, 5522
8689, 4868, 5595, 3941
8690, 4435, 5220, 4027
8691, 3927, 5122, 4409
8692, 4682, 5000, 4405
8693, 5048, 5149, 676
8694, 4588, 5133, 4114
8695, 722, 4675, 721
8696, 4528, 4677, 3980
8697, 4398, 5645, 4826
8698, 5092, 5308, 4382
8699, 4456, 4812, 4029
8700, 5161, 5641, 4353
8701, 3935, 5328, 4429
8702, 4104, 4711, 4507
8703, 4003, 5210, 4821
8704, 5000, 5474, 4405
8705, 4476, 5519, 5370
8706, 4078, 5474, 5000
8707, 4787, 5555, 4245
8708, 4819, 5463, 4695
8709, 4821, 5210, 4354
8710, 4764, 5452, 4450
8711, 3913, 5506, 4416
8712, 4077, 5379, 4970
8713, 3876, 5347, 4867
8714, 4170, 5070, 4886
8715, 4634, 4800, 4081
8716, 4213, 5043, 4790
8717, 3975, 4800, 4634
8718, 4429, 5330, 3830
8719, 3949, 4786, 4694
8720, 3976, 5254, 4569
8721, 4409, 5169, 3838
8722, 5171, 5229, 4401
8723, 4616, 5353, 5057
8724, 3860, 4944, 4568
8725, 4624, 5381, 4187
8726, 3939, 5293, 4514
8727, 4198, 4856, 4835
8728, 4441, 5358, 4020
8729, 712, 4439, 42
8730, 4815, 5025, 3800
8731, 4978, 5221, 3792
8732, 4694, 4786, 4139
8733, 749, 5125, 4743
8734, 4476, 5370, 4047
8735, 4662, 5300, 4306
8736, 3842, 4936, 4737
8737, 3830, 5330, 4497
8738, 3973, 4958, 4504
8739, 4091, 5185, 4463
8740, 4089, 4926, 4426
8741, 4266, 5472, 4508
8742, 4025, 5067, 4452
8743, 4835, 4856, 3812
8744, 3948, 5084, 4432
8745, 4684, 5689, 3833
8746, 3807, 5140, 4418
8747, 4744, 4763, 3785
8748, 4767, 5596, 4465
8749, 4732, 5658, 4054
8750, 4853, 5194, 4048
8751, 3947, 5596, 4767
8752, 4118, 4763, 4744
8753, 4497, 5330, 4172
8754, 4593, 4857, 4080
8755, 4452, 5423, 4025
8756, 4557, 5582, 4242
8757, 4695, 5187, 3875
8758, 3813, 5452, 4798
8759, 4222, 5303, 4964
8760, 4033, 5493, 4411
8761, 3942, 4844, 4471
8762, 4106, 5336, 4637
8763, 3837, 5648, 4492
8764, 5175, 5455, 3769
8765, 3905, 5229, 5171
8766, 4509, 5053, 4046
8767, 4251, 5205, 4701
8768, 4470, 4786, 3949
8769, 4194, 5516, 4452
8770, 4029, 4816, 4456
8771, 689, 5680, 688
8772, 4701, 5205, 3774
8773, 4023, 5378, 4753
8774, 4440, 4920, 4071
8775, 5036, 5152, 4355
8776, 4244, 5134, 4630
8777, 3975, 4660, 4590
8778, 4086, 5591, 4510
8779, 3841, 4857, 4593
8780, 4869, 4895, 4079
8781, 3963, 5230, 4797
8782, 3858, 5339, 5287
8783, 4425, 5371, 3954
8784, 4635, 5400, 4271
8785, 3888, 5400, 4635
8786, 4018, 5098, 4618
8787, 4019, 5550, 4556
8788, 4480, 4844, 3942
8789, 4692, 5679, 4032
8790, 3771, 5673, 5560
8791, 4532, 4908, 3802
8792, 4046, 4811, 4737
8793, 3923, 5308, 5092
8794, 4535, 4752, 4171
8795, 4352, 5221, 4978
8796, 4431, 5480, 4104
8797, 4463, 4810, 3844
8798, 3840, 5003, 4511
8799, 4836, 5673, 3771
8800, 4433, 4988, 3767
8801, 4790, 5043, 4006
8802, 4293, 5514, 4957
8803, 4590, 5275, 4800
8804, 4067, 4974, 4723
8805, 3895, 5549, 4493
8806, 4633, 5429, 3829
8807, 4174, 5317, 4831
8808, 3860, 5108, 4944
8809, 3786, 5433, 4434
8810, 4020, 5068, 4627
8811, 4617, 4798, 4163
8812, 4461, 5053, 704
8813, 5429, 5463, 3829
8814, 4029, 4812, 4482
8815, 747, 4920, 4440
8816, 5442, 5704, 4052
8817, 3965, 4798, 4617
8818, 4480, 5513, 4027
8819, 4243, 5187, 4695
8820, 3883, 5559, 4749
8821, 4436, 5226, 3933
8822, 5370, 5519, 4193
8823, 4537, 5196, 4096
8824, 4097, 5226, 4436
8825, 4173, 5283, 4569
8826, 4432, 5634, 3857
8827, 4045, 4882, 4449
8828, 4891, 5123, 3818
8829, 4320, 5202, 4883
8830, 769, 4740, 768
8831, 4273, 5671, 4612
8832, 3786, 5497, 4476
8833, 724, 5074, 4516
8834, 4726, 4975, 4068
8835, 4092, 5152, 5036
8836, 3935, 5534, 4448
8837, 4000, 4850, 4513
8838, 4708, 5555, 4423
8839, 4707, 4832, 4119
8840, 5112, 5425, 3770
8841, 4926, 5267, 4426
8842, 4618, 5297, 4181
8843, 4580, 5522, 4015
8844, 4674, 5596, 3947
8845, 4883, 5202, 3775
8846, 4065, 4817, 4475
8847, 4102, 5056, 4719
8848, 3920, 5046, 4434
8849, 4566, 4762, 3984
8850, 4486, 5729, 4310
8851, 4667, 4874, 631
8852, 4772, 4901, 3877
8853, 4170, 4901, 4772
8854, 4588, 5705, 3985
8855, 3764, 4734, 4524
8856, 4374, 5112, 4527
8857, 4482, 4812, 3863
8858, 5671, 5705, 4588
8859, 3967, 5374, 4445
8860, 4661, 4970, 4263
8861, 4434, 5060, 3920
8862, 4708, 5138, 4350
8863, 4475, 5600, 4065
8864, 4009, 5555, 4708
8865, 3766, 5182, 4509
8866, 740, 5047, 4518
8867, 4187, 5381, 5095
8868, 4985, 5107, 4167
8869, 4782, 5259, 4264
8870, 4525, 4741, 4105
8871, 4313, 5428, 5197
8872, 4242, 5410, 4557
8873, 4534, 4727, 4107
8874, 5376, 5711, 4252
8875, 4763, 4771, 4031
8876, 4118, 4771, 4763
8877, 609, 5186, 608
8878, 4591, 4887, 4156
8879, 4470, 5603, 3822
8880, 4291, 5609, 5443
8881, 4541, 5562, 3981
8882, 4079, 4895, 4724
8883, 4546, 5312, 3815
8884, 4865, 5307, 4238
8885, 4238, 5307, 4874
8886, 650, 4981, 649
8887, 4287, 5145, 4820
8888, 4546, 5382, 4024
8889, 3797, 5540, 5502
8890, 3884, 5427, 4582
8891, 3926, 5220, 4435
8892, 4946, 5388, 4180
8893, 733, 4636, 732
8894, 5278, 5675, 3874
8895, 4936, 5314, 4737
8896, 4489, 5659, 5126
8897, 3859, 5033, 4607
8898, 704, 5563, 4461
8899, 4582, 5427, 4234
8900, 5137, 5664, 4372
8901, 599, 5078, 598
8902, 749, 4743, 748
8903, 4675, 5454, 4250
8904, 3947, 5163, 4674
8905, 4584, 5010, 4060
8906, 4264, 5702, 4782
8907, 4573, 5342, 3796
8908, 4820, 5145, 3865
8909, 4682, 5705, 4514
8910, 4072, 5548, 4469
8911, 4548, 5119, 4225
8912, 4475, 4979, 636
8913, 4626, 5061, 4010
8914, 4073, 4814, 4706
8915, 4726, 4872, 4134
8916, 4488, 5367, 4130
8917, 4068, 4872, 4726
8918, 4657, 5550, 4019
8919, 4135, 4871, 4723
8920, 4039, 5051, 4560
8921, 4723, 4871, 4067
8922, 3976, 5681, 5054
8923, 5056, 5592, 4719
8924, 4027, 4844, 4480
8925, 4136, 5273, 4600
8926, 4446, 5274, 3835
8927, 598, 5078, 4756
8928, 4041, 5624, 4477
8929, 4270, 5149, 5048
8930, 4034, 4832, 4707
8931, 4064, 5022, 4559
8932, 4599, 4715, 3837
8933, 4809, 4921, 4026
8934, 3893, 5141, 5031
8935, 634, 5014, 633
8936, 4025, 5507, 4519
8937, 4914, 5314, 4056
8938, 4508, 5190, 4277
8939, 4568, 4777, 4045
8940, 4455, 5483, 4190
8941, 4153, 5450, 4581
8942, 4478, 5540, 4210
8943, 3997, 4777, 4568
8944, 4831, 5076, 4174
8945, 623, 5190, 4508
8946, 4008, 4754, 4537
8947, 4026, 4921, 4522
8948, 672, 5717, 4456
8949, 4529, 4820, 4178
8950, 3960, 5238, 4493
8951, 3917, 5094, 4446
8952, 4486, 5716, 4363
8953, 4947, 5102, 4151
8954, 4894, 5035, 4272
8955, 3919, 5121, 4658
8956, 4582, 4958, 3973
8957, 4466, 5532, 4247
8958, 4539, 4953, 4305
8959, 4348, 5250, 4484
8960, 3824, 4760, 4541
8961, 3821, 5236, 4496
8962, 4149, 5318, 4528
8963, 4522, 4921, 3796
8964, 4788, 4853, 4048
8965, 4587, 4930, 4055
8966, 4845, 4876, 4066
8967, 4149, 4853, 4788
8968, 4052, 5704, 4881
8969, 3806, 5132, 4507
8970, 4507, 5132, 4104
8971, 4942, 5079, 4103
8972, 4107, 5035, 4894
8973, 3812, 5103, 4835
8974, 4335, 5079, 4942
8975, 4526, 5507, 4025
8976, 3820, 4938, 4490
8977, 4835, 5103, 4275
8978, 4788, 5528, 3929
8979, 4351, 4960, 4790
8980, 4351, 5437, 4923
8981, 4087, 5578, 5087
8982, 4621, 5012, 4083
8983, 4742, 5068, 4020
8984, 4451, 5065, 4063
8985, 3797, 5039, 4447
8986, 3962, 4888, 4625
8987, 4597, 5157, 4028
8988, 4901, 5388, 3877
8989, 4529, 5344, 3780
8990, 4508, 5472, 622
8991, 4929, 4966, 4101
8992, 4452, 5067, 3828
8993, 4203, 5346, 5139
8994, 4073, 5281, 4954
8995, 730, 4986, 729
8996, 4210, 5540, 4640
8997, 4970, 5379, 4263
8998, 4549, 5231, 4130
8999, 3818, 5123, 4451
9000, 4463, 5185, 3924
9001, 4447, 5208, 3931
9002, 4469, 5548, 761
9003, 3954, 5371, 4916
9004, 4790, 4960, 3871
9005, 4114, 5133, 4897
9006, 4916, 5371, 4443
9007, 4254, 4966, 4929
9008, 4746, 5090, 3810
9009, 3933, 5226, 4536
9010, 4693, 5234, 4153
9011, 4507, 5492, 3806
9012, 4240, 5090, 4746
9013, 3809, 4885, 4705
9014, 4178, 5344, 4529
9015, 5323, 5403, 620
9016, 3848, 4869, 4536
9017, 4304, 5528, 4487
9018, 4384, 5342, 4573
9019, 4536, 4869, 4267
9020, 4456, 5717, 4173
9021, 4509, 5182, 702
9022, 4559, 4879, 4064
9023, 4028, 5046, 4502
9024, 4024, 5312, 4546
9025, 3998, 4734, 4658
9026, 3969, 4879, 4559
9027, 4948, 5032, 3941
9028, 3926, 4928, 4488
9029, 3803, 5023, 4613
9030, 3986, 5574, 4499
9031, 5198, 5391, 4159
9032, 3863, 5304, 4482
9033, 4299, 4808, 4753
9034, 4299, 5571, 4808
9035, 4705, 4885, 4127
9036, 4261, 5725, 4960
9037, 5025, 5345, 3943
9038, 4304, 5032, 4948
9039, 4482, 5304, 4129
9040, 4709, 4876, 4124
9041, 4117, 5266, 5090
9042, 636, 5600, 4475
9043, 5232, 5326, 4289
9044, 3975, 4894, 4660
9045, 4854, 5266, 4117
9046, 4505, 4859, 4069
9047, 4778, 5294, 4428
9048, 615, 5331, 5127
9049, 4481, 4915, 4120
9050, 4694, 5251, 3949
9051, 4496, 5350, 3821
9052, 3795, 5000, 4682
9053, 4014, 4738, 4592
9054, 4147, 5350, 4496
9055, 4743, 5125, 4177
9056, 616, 5694, 5331
9057, 4344, 5246, 4875
9058, 4700, 5296, 3998
9059, 4129, 4917, 4482
9060, 4875, 5246, 3944
9061, 4010, 5061, 4701
9062, 4651, 5408, 739
9063, 672, 4816, 671
9064, 4028, 5497, 5046
9065, 4233, 5251, 4694
9066, 4253, 5691, 5358
9067, 4040, 5128, 4530
9068, 4464, 5034, 3808
9069, 3951, 5101, 4468
9070, 4467, 5002, 3807
9071, 3892, 5037, 4501
9072, 3949, 4987, 4470
9073, 4622, 5003, 3840
9074, 4124, 4961, 4709
9075, 761, 5098, 4469
9076, 4110, 5193, 4458
9077, 4499, 4912, 679
9078, 4252, 5711, 4980
9079, 4185, 5327, 4464
9080, 4493, 5569, 4305
9081, 4524, 5296, 4141
9082, 3805, 4855, 4579
9083, 3762, 4898, 4503
9084, 3772, 5073, 4462
9085, 652, 5222, 4553
9086, 4579, 4855, 4064
9087, 4501, 5037, 4076
9088, 5010, 5409, 4180
9089, 4721, 4952, 4007
9090, 4493, 5549, 4594
9091, 4590, 5301, 3826
9092, 4520, 5624, 4041
9093, 4592, 4959, 4037
9094, 4032, 5238, 4462
9095, 4113, 4849, 4799
9096, 4183, 5301, 4590
9097, 4203, 5227, 5051
9098, 4280, 5527, 5110
9099, 4022, 4775, 4577
9100, 4741, 5002, 4105
9101, 4062, 5524, 4912
9102, 4619, 4821, 3782
9103, 4088, 4979, 4475
9104, 4471, 5202, 4638
9105, 4550, 5389, 3925
9106, 4308, 5680, 4517
9107, 4613, 5557, 3803
9108, 4670, 5237, 4314
9109, 4473, 5007, 3952
9110, 4144, 5052, 4729
9111, 41, 4533, 691
9112, 715, 5586, 4575
9113, 4058, 5007, 4473
9114, 4550, 4856, 4033
9115, 3831, 5546, 4465
9116, 4120, 4983, 4481
9117, 4442, 5550, 4657
9118, 3998, 4938, 4700
9119, 4038, 5674, 4544
9120, 711, 5730, 4095
9121, 4060, 4892, 4547
9122, 5016, 5099, 3810
9123, 4740, 5219, 768
9124, 3781, 4805, 4631
9125, 4468, 5101, 4055
9126, 4481, 4983, 773
9127, 4361, 5099, 5016
9128, 4547, 4892, 3955
9129, 4717, 5448, 4212
9130, 4919, 4982, 664
9131, 5579, 5713, 4044
9132, 4487, 5453, 3774
9133, 3888, 5004, 4780
9134, 4923, 5437, 3777
9135, 4503, 4898, 4042
9136, 4584, 4777, 3997
9137, 4465, 5533, 3831
9138, 5087, 5578, 4387
9139, 4865, 5440, 4034
9140, 4925, 5055, 734
9141, 4665, 5432, 3768
9142, 4249, 5466, 4639
9143, 4456, 5469, 4812
9144, 4554, 5216, 669
9145, 3836, 4825, 4565
9146, 4203, 5051, 4683
9147, 3766, 5475, 4601
9148, 3864, 4970, 4661
9149, 4565, 4825, 4050
9150, 5004, 5453, 4487
9151, 4639, 5466, 3822
9152, 5127, 5331, 4334
9153, 602, 4731, 601
9154, 4720, 5364, 4211
9155, 4568, 4944, 3997
9156, 4278, 5557, 4613
9157, 4332, 5364, 4720
9158, 4471, 5714, 4155
9159, 4080, 4857, 4718
9160, 4039, 5546, 4683
9161, 657, 4997, 4927
9162, 4062, 4912, 4499
9163, 4021, 4874, 4667
9164, 4494, 5630, 4246
9165, 4113, 4799, 4648
9166, 4474, 5093, 684
9167, 4498, 4957, 4053
9168, 4167, 5107, 4672
9169, 5401, 5530, 4224
9170, 4672, 5107, 3825
9171, 4116, 5262, 4484
9172, 687, 4769, 686
9173, 4250, 5454, 4516
9174, 4484, 5262, 3932
9175, 4234, 5672, 4958
9176, 4380, 5028, 682
9177, 5047, 5591, 4086
9178, 4090, 5608, 4663
9179, 4891, 5381, 3982
9180, 4575, 5586, 4259
9181, 4403, 5381, 4891
9182, 3775, 5202, 4471
9183, 3864, 4961, 4841
9184, 4587, 5310, 3874
9185, 4179, 5310, 4587
9186, 647, 4685, 646
9187, 4718, 4857, 4114
9188, 4784, 5476, 4614
9189, 730, 5383, 4540
9190, 4516, 5454, 723
9191, 4516, 5074, 4076
9192, 4775, 5012, 3787
9193, 4024, 5476, 5312
9194, 4710, 4716, 4054
9195, 3855, 5294, 4778
9196, 4561, 5125, 750
9197, 4562, 5722, 3830
9198, 4678, 4788, 3929
9199, 5046, 5497, 4434
9200, 739, 5408, 738
9201, 4082, 4533, 692
9202, 4061, 4716, 4710
9203, 4227, 5490, 4596
9204, 4128, 5353, 4485
9205, 4596, 5490, 3805
9206, 3903, 5181, 4515
9207, 4515, 5181, 4103
9208, 4149, 4788, 4678
9209, 772, 4703, 771
9210, 4552, 5113, 3898
9211, 4046, 4994, 4509
9212, 3914, 4806, 4733
9213, 659, 5269, 4558
9214, 4683, 5051, 4039
9215, 4752, 5091, 4171
9216, 4754, 5196, 4537
9217, 4699, 5456, 5372
9218, 4481, 5069, 4069
9219, 4485, 5353, 3988
9220, 4760, 5562, 4541
9221, 4326, 5703, 4967
9222, 4733, 4806, 4129
9223, 4810, 4941, 3844
9224, 4424, 5013, 4822
9225, 4250, 5635, 4725
9226, 4085, 5141, 4577
9227, 4505, 5049, 4126
9228, 4730, 5554, 3994
9229, 4358, 5554, 4730
9230, 4592, 5237, 4014
9231, 3902, 5207, 4477
9232, 4964, 5657, 4415
9233, 5553, 5719, 4400
9234, 5331, 5694, 4415
9235, 4114, 4988, 4718
9236, 600, 5049, 4505
9237, 3872, 5320, 4840
9238, 4578, 5674, 4038
9239, 689, 4999, 4517
9240, 4641, 4817, 4065
9241, 717, 4702, 716
9242, 4512, 4952, 3763
9243, 3849, 4817, 4641
9244, 751, 5508, 4561
9245, 4767, 5546, 4039
9246, 4040, 5340, 4551
9247, 4551, 5270, 4040
9248, 4484, 5186, 4116
9249, 4602, 5041, 3860
9250, 4499, 5574, 4062
9251, 4540, 4963, 4058
9252, 4087, 5087, 4802
9253, 4954, 5281, 4272
9254, 4700, 5684, 5296
9255, 5096, 5632, 4013
9256, 5389, 5458, 3925
9257, 3878, 5019, 4610
9258, 4286, 5643, 4685
9259, 4758, 5416, 3972
9260, 4574, 4811, 3989
9261, 4345, 4904, 4539
9262, 4504, 4958, 4017
9263, 4824, 5345, 4199
9264, 4506, 5526, 3838
9265, 4569, 5283, 674
9266, 4964, 5303, 3911
9267, 4802, 4918, 4087
9268, 4574, 4977, 3842
9269, 3971, 5444, 4746
9270, 4162, 4918, 4802
9271, 4498, 5359, 4262
9272, 3853, 4832, 4591
9273, 4647, 5294, 3855
9274, 4416, 5506, 5196
9275, 4490, 5121, 4136
9276, 4515, 5602, 4330
9277, 4119, 5464, 4489
9278, 4083, 5012, 4500
9279, 4130, 5170, 4549
9280, 4678, 5538, 5318
9281, 4594, 5492, 4507
9282, 4460, 5583, 5187
9283, 695, 5517, 4823
9284, 4691, 4781, 3770
9285, 3994, 5624, 4520
9286, 4492, 5648, 4102
9287, 4600, 5128, 4040
9288, 4365, 4898, 4688
9289, 4591, 4832, 4034
9290, 3960, 5690, 5238
9291, 4518, 5620, 740
9292, 4537, 4893, 4008
9293, 4647, 5082, 4043
9294, 4828, 5449, 3940
9295, 4509, 4994, 3766
9296, 4837, 5473, 4215
9297, 4053, 5044, 4498
9298, 4671, 5722, 4562
9299, 4262, 5544, 4498
9300, 4073, 5698, 4814
9301, 4570, 5333, 4142
9302, 4083, 4977, 4574
9303, 3959, 5006, 4503
9304, 3784, 5367, 4488
9305, 4538, 5675, 4236
9306, 4144, 5287, 4642
9307, 3810, 5099, 4746
9308, 4022, 4774, 4656
9309, 4297, 5034, 4576
9310, 4495, 5386, 4402
9311, 4484, 5250, 608
9312, 5060, 5547, 4466
9313, 3861, 5515, 4893
9314, 4746, 5099, 4192
9315, 3819, 5479, 4502
9316, 4799, 4849, 4074
9317, 4806, 4839, 4129
9318, 4052, 4839, 4806
9319, 3822, 5466, 4504
9320, 4037, 4908, 4532
9321, 4375, 5449, 4828
9322, 4689, 5397, 3989
9323, 4522, 5030, 4316
9324, 4082, 5407, 4533
9325, 3977, 5027, 4766
9326, 4030, 5113, 4552
9327, 4497, 5042, 4062
9328, 4044, 5713, 4664
9329, 4776, 5026, 3979
9330, 3834, 5582, 4557
9331, 4637, 5365, 3889
9332, 4073, 4954, 4564
9333, 3769, 5455, 4713
9334, 4564, 4954, 3845
9335, 3770, 5425, 4691
9336, 757, 4750, 756
9337, 4220, 5378, 4945
9338, 4532, 4913, 4037
9339, 4542, 5375, 3861
9340, 4528, 5318, 4677
9341, 3934, 5369, 4495
9342, 4678, 5318, 4149
9343, 4539, 4904, 4099
9344, 3941, 5595, 4948
9345, 4233, 4840, 4836
9346, 645, 4851, 644
9347, 4254, 5397, 4689
9348, 4510, 5280, 4086
9349, 4411, 5430, 4804
9350, 4069, 5078, 4505
9351, 4955, 5213, 4075
9352, 4836, 4840, 4036
9353, 4172, 5394, 4497
9354, 4157, 5040, 4690
9355, 5286, 5583, 4460
9356, 612, 5359, 4498
9357, 4221, 5421, 4810
9358, 4538, 5411, 649
9359, 4601, 5182, 3766
9360, 4549, 5170, 698
9361, 4640, 5484, 3930
9362, 3858, 4915, 4859
9363, 4690, 5040, 4222
9364, 4933, 5431, 3817
9365, 4176, 5456, 4699
9366, 4624, 5329, 3904
9367, 620, 5403, 619
9368, 4108, 4826, 4612
9369, 4187, 5329, 4624
9370, 4883, 5351, 4202
9371, 3840, 4889, 4650
9372, 4534, 5179, 3783
9373, 5508, 5720, 4561
9374, 4107, 5179, 4534
9375, 4501, 5459, 4113
9376, 4823, 5517, 4324
9377, 4648, 4799, 3786
9378, 3799, 5091, 4752
9379, 4758, 5100, 3811
9380, 4496, 5236, 4032
9381, 3800, 5215, 4815
9382, 4027, 5220, 4613
9383, 4191, 5100, 4758
9384, 742, 5258, 4510
9385, 4062, 5574, 4562
9386, 5187, 5583, 3875
9387, 4016, 5041, 4602
9388, 5041, 5108, 3860
9389, 741, 5047, 740
9390, 4664, 5358, 4441
9391, 5123, 5688, 4451
9392, 4055, 4930, 4538
9393, 4999, 5407, 4143
9394, 4729, 5052, 3789
9395, 4076, 5037, 4516
9396, 4563, 5286, 4460
9397, 746, 5701, 745
9398, 3932, 5262, 4492
9399, 3787, 5012, 4621
9400, 4536, 5138, 3848
9401, 4090, 5145, 4949
9402, 4580, 4878, 3839
9403, 4231, 5692, 4510
9404, 4751, 5309, 3884
9405, 4591, 5440, 4887
9406, 3911, 5657, 4964
9407, 4014, 5237, 4670
9408, 4693, 4848, 4076
9409, 4593, 5271, 3841
9410, 4248, 5309, 4751
9411, 4302, 5345, 5025
9412, 4153, 4848, 4693
9413, 4633, 5020, 4019
9414, 745, 5701, 4608
9415, 5050, 5205, 4251
9416, 4082, 5253, 4911
9417, 4097, 5138, 4536
9418, 4956, 4959, 3873
9419, 4878, 5260, 4196
9420, 4949, 5145, 4287
9421, 4518, 5047, 4086
9422, 4572, 5234, 727
9423, 4330, 5602, 4696
9424, 4105, 5604, 4525
9425, 4696, 5602, 3792
9426, 4502, 5598, 4303
9427, 4519, 5503, 4025
9428, 3859, 4795, 4680
9429, 4116, 5678, 4687
9430, 4232, 4959, 4956
9431, 4209, 5030, 4522
9432, 4317, 5588, 5151
9433, 4098, 5526, 4506
9434, 4608, 5530, 3978
9435, 3997, 4944, 4672
9436, 4224, 5530, 4608
9437, 4680, 4795, 4101
9438, 4607, 4863, 4084
9439, 4727, 5035, 4107
9440, 695, 4823, 694
9441, 4099, 4953, 4539
9442, 5355, 5670, 3959
9443, 4723, 5216, 4135
9444, 4897, 5135, 3767
9445, 4291, 4781, 4691
9446, 4134, 5222, 4726
9447, 4667, 5155, 4021
9448, 4518, 5150, 3965
9449, 4086, 5150, 4518
9450, 4050, 4937, 4626
9451, 3965, 5467, 4651
9452, 4516, 5635, 4250
9453, 4732, 5001, 4139
9454, 4725, 4783, 4005
9455, 4600, 5273, 3856
9456, 4268, 5135, 4897
9457, 4521, 5619, 4969
9458, 4367, 5431, 4785
9459, 4969, 5619, 4182
9460, 4755, 5082, 3855
9461, 4264, 5259, 4818
9462, 4192, 5567, 4586
9463, 4127, 5622, 5204
9464, 3874, 5619, 4521
9465, 4158, 5155, 4667
9466, 4064, 5017, 4579
9467, 4473, 5623, 4986
9468, 4181, 5082, 4755
9469, 4981, 5584, 4468
9470, 5072, 5135, 4268
9471, 4818, 5259, 3793
9472, 3763, 5148, 4512
9473, 4138, 5385, 5146
9474, 3825, 5107, 4520
9475, 3894, 5197, 4513
9476, 4538, 4981, 4055
9477, 4199, 4965, 4824
9478, 3871, 5725, 4519
9479, 4431, 5132, 4714
9480, 4510, 5591, 742
9481, 4058, 4986, 4540
9482, 4510, 5258, 4231
9483, 703, 5053, 4509
9484, 3874, 4930, 4587
9485, 4361, 5567, 5099
9486, 4855, 5022, 4064
9487, 4616, 5057, 3838
9488, 4257, 5455, 5175
9489, 4585, 5565, 4191
9490, 4544, 5674, 3809
9491, 4996, 5064, 3791
9492, 4824, 4965, 3869
9493, 4412, 5667, 4816
9494, 4808, 5571, 3893
9495, 5100, 5565, 4362
9496, 4515, 5224, 3903
9497, 4436, 5203, 4731
9498, 3991, 5614, 4659
9499, 4290, 5064, 4996
9500, 5446, 5701, 746
9501, 653, 5222, 652
9502, 4060, 4901, 4892
9503, 4892, 4901, 4170
9504, 4223, 5583, 5286
9505, 5545, 5576, 4359
9506, 713, 4863, 4439
9507, 4331, 4783, 4725
9508, 4950, 5346, 4203
9509, 4150, 5369, 4611
9510, 701, 5182, 4601
9511, 4894, 5662, 4660
9512, 4513, 5298, 4201
9513, 5213, 5630, 4075
9514, 5238, 5690, 4462
9515, 3981, 5114, 4524
9516, 4845, 4862, 4124
9517, 4468, 5495, 4553
9518, 5030, 5245, 4316
9519, 4489, 5464, 3962
9520, 4207, 5499, 4677
9521, 3976, 5580, 4535
9522, 772, 4983, 4703
9523, 4171, 5501, 4535
9524, 4527, 5405, 3877
9525, 4479, 5422, 5092
9526, 4105, 4916, 4655
9527, 5092, 5422, 4212
9528, 663, 4982, 4555
9529, 4654, 5050, 4251
9530, 4145, 5405, 4527
9531, 4117, 5649, 4632
9532, 4586, 5244, 4192
9533, 4004, 5278, 4521
9534, 4535, 5501, 3863
9535, 4746, 5444, 4240
9536, 4537, 5610, 3861
9537, 643, 4955, 37
9538, 4160, 4982, 4919
9539, 4659, 5614, 4293
9540, 4589, 5356, 3878
9541, 4759, 5240, 4370
9542, 753, 4833, 752
9543, 4405, 5474, 4906
9544, 4527, 5112, 4145
9545, 4906, 5474, 3868
9546, 4070, 5694, 4940
9547, 669, 5426, 4554
9548, 4703, 4983, 4120
9549, 4558, 4997, 658
9550, 4311, 5580, 5054
9551, 5010, 5388, 4060
9552, 4716, 5001, 4054
9553, 669, 5216, 668
9554, 4545, 5038, 3984
9555, 4642, 5214, 4144
9556, 4785, 5431, 4237
9557, 4659, 5115, 4121
9558, 4151, 5102, 4885
9559, 4259, 5586, 4702
9560, 3933, 5214, 4642
9561, 704, 5053, 703
9562, 4524, 5424, 3981
9563, 3881, 5061, 4626
9564, 4765, 5514, 3837
9565, 4141, 5424, 4524
9566, 4229, 5416, 4758
9567, 621, 5323, 33
9568, 4909, 5566, 4217
9569, 4191, 5249, 4585
9570, 4752, 5523, 3799
9571, 33, 5323, 620
9572, 4541, 5594, 3824
9573, 5360, 5547, 4165
9574, 4528, 5485, 3816
9575, 4085, 4843, 4795
9576, 3885, 4990, 4560
9577, 3906, 4972, 4854
9578, 4654, 5349, 3938
9579, 3925, 5682, 4550
9580, 664, 4982, 663
9581, 4169, 5055, 4925
9582, 4311, 5523, 4752
9583, 4927, 4997, 4161
9584, 3864, 4841, 4724
9585, 4632, 5649, 4257
9586, 4186, 5349, 4654
9587, 4189, 5326, 5232
9588, 4336, 5699, 5025
9589, 3873, 4959, 4592
9590, 4854, 4972, 4179
9591, 4559, 5022, 3896
9592, 658, 4997, 657
9593, 4279, 5509, 4531
9594, 4054, 5001, 4732
9595, 4099, 5641, 5161
9596, 4706, 4814, 4063
9597, 4226, 5596, 4674
9598, 4583, 5039, 3797
9599, 3955, 4892, 4886
9600, 34, 5136, 626
9601, 4886, 4892, 4170
9602, 4724, 4841, 4079
9603, 4795, 4843, 4101
9604, 3789, 4862, 4845
9605, 5412, 5690, 4407
9606, 4909, 5191, 3866
9607, 5157, 5519, 4028
9608, 4536, 5226, 4097
9609, 4525, 5233, 3961
9610, 718, 4945, 717
9611, 3912, 5394, 4789
9612, 4944, 5108, 4167
9613, 4417, 5683, 5639
9614, 4253, 5358, 4664
9615, 4080, 5039, 4583
9616, 4828, 5618, 4375
9617, 4094, 5116, 4749
9618, 4706, 4909, 3866
9619, 4610, 5019, 4035
9620, 4623, 4914, 3918
9621, 4058, 4963, 4662
9622, 3803, 5707, 5023
9623, 661, 4831, 660
9624, 662, 5076, 661
9625, 5146, 5385, 4357
9626, 5322, 5436, 3910
9627, 5269, 5518, 4558
9628, 4666, 4876, 3868
9629, 4115, 5015, 4665
9630, 4713, 5455, 4008
9631, 4845, 5421, 3789
9632, 4770, 5632, 4389
9633, 4066, 4876, 4666
9634, 3995, 5247, 4604
9635, 4145, 5654, 5228
9636, 3838, 5057, 4669
9637, 4448, 5696, 5523
9638, 3783, 5201, 4534
9639, 4065, 5600, 4837
9640, 4665, 5015, 3983
9641, 4555, 5076, 662
9642, 3898, 5626, 4552
9643, 4803, 5570, 3978
9644, 731, 5383, 730
9645, 3936, 5245, 5030
9646, 4734, 5296, 4524
9647, 3882, 5115, 4659
9648, 4079, 5248, 4869
9649, 4502, 5479, 4597
9650, 5242, 5622, 3887
9651, 3762, 5081, 5005
9652, 4109, 5118, 4544
9653, 4008, 5455, 4722
9654, 5186, 5678, 4116
9655, 676, 5149, 675
9656, 4543, 5531, 3862
9657, 4011, 5631, 4864
9658, 734, 5055, 733
9659, 4869, 5248, 4267
9660, 4560, 5051, 3885
9661, 4186, 5119, 4548
9662, 4176, 5531, 4543
9663, 3993, 5380, 4529
9664, 4605, 4998, 3839
9665, 4393, 5302, 5185
9666, 4312, 5695, 5640
9667, 4110, 5135, 5072
9668, 705, 5651, 4689
9669, 4809, 5535, 3915
9670, 4096, 5610, 4537
9671, 4132, 5629, 4531
9672, 4535, 5254, 3976
9673, 4140, 4995, 4649
9674, 4575, 5031, 4084
9675, 4168, 5167, 4804
9676, 5005, 5081, 4281
9677, 767, 5219, 4611
9678, 3847, 5178, 4652
9679, 4217, 5566, 5173
9680, 4753, 4808, 4023
9681, 4864, 5631, 4429
9682, 4639, 4990, 4249
9683, 4652, 5178, 4133
9684, 4355, 5535, 4809
9685, 4466, 5547, 5360
9686, 4661, 5193, 3864
9687, 4653, 5174, 3846
9688, 4544, 5356, 4038
9689, 4131, 5174, 4653
9690, 3848, 4895, 4869
9691, 4629, 4991, 3826
9692, 4603, 5562, 4061
9693, 4626, 4937, 3881
9694, 732, 5124, 731
9695, 5384, 5447, 4485
9696, 4236, 5411, 4538
9697, 4685, 5643, 646
9698, 5171, 5176, 4396
9699, 4755, 5597, 4018
9700, 4604, 5711, 3776
9701, 3992, 5609, 4691
9702, 4691, 5609, 4291
9703, 3974, 5585, 4835
9704, 638, 4837, 637
9705, 3997, 5010, 4584
9706, 4111, 5140, 4875
9707, 3981, 5424, 4541
9708, 4541, 5424, 4141
9709, 4710, 5255, 3836
9710, 5066, 5511, 4097
9711, 4152, 5123, 4891
9712, 4587, 5016, 4179
9713, 4088, 5176, 5171
9714, 4556, 5187, 4243
9715, 4182, 5396, 4532
9716, 5013, 5484, 4444
9717, 4570, 5366, 3765
9718, 644, 5213, 643
9719, 4693, 5074, 725
9720, 4540, 5383, 4207
9721, 4361, 5016, 4587
9722, 4615, 5274, 4072
9723, 4037, 4959, 4908
9724, 4300, 5485, 5162
9725, 4013, 5632, 4770
9726, 4226, 5682, 4858
9727, 4707, 5126, 35
9728, 636, 4979, 635
9729, 3930, 5484, 5013
9730, 4547, 5223, 3779
9731, 4951, 5513, 3801
9732, 4766, 5027, 4256
9733, 3889, 5105, 4637
9734, 4696, 5221, 4041
9735, 3765, 5152, 4570
9736, 4637, 5105, 4106
9737, 4563, 5264, 3798
9738, 4154, 5568, 5205
9739, 4570, 5152, 4092
9740, 5013, 5579, 4044
9741, 4688, 4898, 3762
9742, 4757, 5360, 4165
9743, 4142, 5366, 4570
9744, 4556, 5550, 3945
9745, 3963, 5382, 4546
9746, 4739, 4889, 3840
9747, 4284, 5549, 5106
9748, 706, 5651, 705
9749, 4289, 5326, 4792
9750, 4641, 4932, 3849
9751, 4150, 5219, 4740
9752, 4690, 5290, 4157
9753, 4122, 5120, 4655
9754, 5115, 5264, 4121
9755, 4641, 5247, 3995
9756, 3887, 5102, 4947
9757, 4255, 5026, 4776
9758, 4882, 4998, 4449
9759, 4215, 5711, 4604
9760, 4655, 5120, 3843
9761, 4088, 5263, 4979
9762, 5118, 5702, 3878
9763, 5523, 5696, 3799
9764, 4094, 5081, 5006
9765, 691, 4533, 690
9766, 648, 5195, 647
9767, 3782, 5363, 4619
9768, 4089, 4889, 4739
9769, 3849, 5471, 5176
9770, 5185, 5302, 3924
9771, 735, 4925, 734
9772, 4668, 4951, 3801
9773, 4702, 5586, 716
9774, 4042, 4910, 4686
9775, 4553, 5222, 4134
9776, 4677, 5650, 4207
9777, 4562, 5574, 3986
9778, 4033, 5389, 4550
9779, 4827, 5164, 4100
9780, 4135, 5216, 4554
9781, 3868, 4876, 4709
9782, 4435, 5513, 4951
9783, 4907, 5457, 4188
9784, 4586, 5567, 3951
9785, 4988, 5558, 4718
9786, 4011, 5365, 4637
9787, 3969, 5270, 4551
9788, 4553, 5495, 652
9789, 3950, 5565, 4585
9790, 4154, 5205, 5050
9791, 4747, 5026, 4131
9792, 714, 5316, 713
9793, 3979, 5026, 4747
9794, 4530, 5728, 5181
9795, 725, 5074, 724
9796, 4571, 5141, 4085
9797, 3917, 5447, 5384
9798, 4613, 5023, 4027
9799, 4133, 5027, 4748
9800, 4748, 5027, 3977
9801, 5008, 5324, 4146
9802, 4389, 5264, 5115
9803, 4225, 5658, 4548
9804, 4379, 5289, 4751
9805, 3830, 5722, 4864
9806, 657, 4927, 656
9807, 4551, 5340, 3772
9808, 3772, 5390, 4551
9809, 4957, 5514, 4053
9810, 697, 5367, 3784
9811, 5181, 5728, 4103
9812, 675, 5149, 4569
9813, 4553, 5435, 3951
9814, 5257, 5312, 4323
9815, 679, 4912, 678
9816, 5032, 5568, 4154
9817, 4061, 5320, 4716
9818, 4121, 5264, 4563
9819, 3819, 5719, 5553
9820, 760, 4877, 759
9821, 4134, 5435, 4553
9822, 4329, 5642, 5277
9823, 3950, 5438, 4554
9824, 4258, 5003, 4622
9825, 3856, 5368, 4942
9826, 4674, 5163, 4106
9827, 35, 5126, 630
9828, 4564, 5609, 3992
9829, 4662, 5538, 4197
9830, 4992, 5721, 3780
9831, 4554, 5438, 4135
9832, 665, 4919, 664
9833, 3958, 5343, 4555
9834, 4842, 5212, 4071
9835, 744, 5059, 743
9836, 4555, 5589, 3958
9837, 3829, 5691, 4633
9838, 4400, 5719, 4868
9839, 4205, 5130, 5058
9840, 5021, 5518, 4214
9841, 4092, 5217, 4570
9842, 4300, 5512, 4566
9843, 4579, 5504, 3805
9844, 4176, 5504, 4579
9845, 4633, 5691, 4253
9846, 4008, 4893, 4713
9847, 4084, 5316, 4575
9848, 4444, 5579, 5013
9849, 4177, 5666, 4842
9850, 3909, 5621, 4664
9851, 4271, 4991, 4635
9852, 4664, 5621, 4253
9853, 3972, 5487, 4758
9854, 4120, 5302, 4703
9855, 4735, 4890, 4395
9856, 4879, 5390, 4292
9857, 4608, 5059, 744
9858, 3798, 5286, 4563
9859, 4713, 4893, 4175
9860, 4631, 5362, 3781
9861, 4791, 5239, 3927
9862, 4217, 5191, 4909
9863, 4785, 5347, 3876
9864, 5024, 5252, 3924
9865, 4339, 5252, 5024
9866, 4643, 5114, 4368
9867, 4642, 5203, 3933
9868, 4632, 5175, 4314
9869, 4071, 5212, 4866
9870, 3970, 5109, 4593
9871, 4569, 5681, 3976
9872, 727, 5234, 726
9873, 4249, 5561, 5466
9874, 4746, 5486, 3971
9875, 4078, 4941, 4666
9876, 4126, 5203, 4642
9877, 4342, 5632, 5096
9878, 5059, 5258, 743
9879, 5073, 5340, 4321
9880, 5170, 5367, 697
9881, 4237, 5347, 4785
9882, 3929, 5399, 4678
9883, 5008, 5637, 5324
9884, 4810, 5421, 4066
9885, 4611, 5660, 767
9886, 3835, 5274, 4615
9887, 4678, 5399, 4197
9888, 4725, 5635, 3892
9889, 727, 5581, 4572
9890, 5196, 5506, 4096
9891, 3944, 5683, 5413
9892, 4059, 5685, 4630
9893, 4630, 5685, 4244
9894, 3985, 5133, 4588
9895, 4619, 5147, 3972
9896, 3862, 5480, 5021
9897, 5021, 5480, 4431
9898, 4218, 4867, 4861
9899, 4674, 5536, 4226
9900, 637, 5600, 636
9901, 4614, 5476, 4024
9902, 4877, 5548, 4072
9903, 5419, 5582, 3834
9904, 4461, 5563, 4689
9905, 4662, 4963, 3867
9906, 4672, 4944, 4167
9907, 3781, 5362, 4748
9908, 4839, 4917, 4129
9909, 761, 5548, 760
9910, 4269, 5720, 5508
9911, 3812, 5536, 4674
9912, 4063, 4909, 4706
9913, 3792, 5602, 5079
9914, 3826, 5301, 4567
9915, 4677, 5499, 3980
9916, 3811, 4917, 4839
9917, 748, 4920, 747
9918, 4417, 5639, 4833
9919, 617, 5694, 616
9920, 4153, 5234, 4572
9921, 3856, 5128, 4600
9922, 4745, 5075, 4043
9923, 4861, 4867, 4047
9924, 3959, 5670, 5006
9925, 3984, 5462, 4566
9926, 4724, 4895, 4077
9927, 4071, 4920, 4743
9928, 649, 5411, 648
9929, 605, 5511, 604
9930, 4612, 5271, 4108
9931, 4627, 5068, 3905
9932, 4157, 5290, 4888
9933, 3875, 5583, 4865
9934, 3952, 5450, 4572
9935, 4572, 5450, 4153
9936, 3788, 5290, 4690
9937, 4049, 4890, 4735
9938, 3851, 5156, 4849
9939, 4572, 5581, 4473
9940, 4931, 5555, 4009
9941, 3928, 5157, 4597
9942, 4124, 4862, 4841
9943, 3971, 5188, 4631
9944, 4782, 5702, 4109
9945, 4349, 5594, 5080
9946, 4038, 5356, 4589
9947, 3849, 4932, 4771
9948, 4126, 5049, 4731
9949, 5176, 5471, 4396
9950, 3847, 5244, 4586
9951, 4747, 5363, 3782
9952, 4825, 4937, 4050
9953, 4125, 5235, 5201
9954, 4585, 5249, 3846
9955, 4266, 5403, 5323
9956, 4034, 5440, 4591
9957, 3841, 5671, 4588
9958, 5144, 5509, 3768
9959, 4199, 4977, 4965
9960, 4731, 5049, 601
9961, 3818, 5698, 4645
9962, 4182, 5310, 4972
9963, 5368, 5615, 4942
9964, 673, 5717, 672
9965, 3930, 5564, 4640
9966, 4151, 5451, 5357
9967, 4025, 5503, 5067
9968, 4965, 4977, 4083
9969, 733, 5055, 4636
9970, 4356, 5259, 4782
9971, 4395, 5713, 5579
9972, 4743, 4920, 748
9973, 4287, 5482, 4949
9974, 3978, 5530, 4576
9975, 5017, 5456, 4579
9976, 4618, 5098, 762
9977, 4575, 5316, 714
9978, 4681, 5371, 4425
9979, 4673, 5257, 4323
9980, 5312, 5476, 4323
9981, 4595, 5217, 4092
9982, 4692, 5073, 4321
9983, 4640, 5564, 4210
9984, 4577, 5571, 4299
9985, 638, 5473, 4837
9986, 4550, 5536, 4856
9987, 4700, 4938, 4346
9988, 4888, 5539, 4625
9989, 4598, 5707, 3803
9990, 4695, 5463, 4243
9991, 4077, 4970, 4724
9992, 4195, 5108, 5041
9993, 4968, 5303, 4222
9994, 4873, 5041, 4016
9995, 4714, 5498, 4228
9996, 4650, 5556, 4208
9997, 4676, 5354, 4112
9998, 4652, 5188, 3971
9999, 3806, 5498, 4714
10000, 5665, 5720, 3961
10001, 3797, 5502, 4583
10002, 4605, 5200, 3983
10003, 5233, 5666, 4177
10004, 4609, 5464, 4119
10005, 3972, 5147, 4653
10006, 3938, 5050, 4654
10007, 4969, 5703, 4437
10008, 3826, 5275, 4590
10009, 5391, 5712, 5083
10010, 3907, 5545, 5410
10011, 4159, 5391, 5083
10012, 4687, 5044, 4053
10013, 717, 4945, 4702
10014, 4579, 5456, 4176
10015, 4949, 5603, 4090
10016, 4037, 5237, 4592
10017, 5042, 5529, 4390
10018, 3970, 5556, 4650
10019, 4841, 4862, 4079
10020, 5051, 5227, 3885
10021, 4813, 5113, 4030
10022, 4225, 4937, 4825
10023, 4665, 5166, 4115
10024, 4638, 5202, 4320
10025, 3855, 5082, 4647
10026, 4608, 5701, 4224
10027, 4583, 5556, 3970
10028, 4041, 5221, 4846
10029, 4823, 4896, 3857
10030, 3855, 5597, 4755
10031, 3768, 5166, 4665
10032, 4717, 5422, 3937
10033, 713, 5316, 4863
10034, 4968, 5040, 3853
10035, 648, 5411, 5195
10036, 4802, 5408, 4162
10037, 4581, 5450, 3952
10038, 4359, 5576, 4956
10039, 3833, 5593, 4595
10040, 3789, 5248, 4862
10041, 4135, 5438, 4585
10042, 4585, 5438, 3950
10043, 4586, 5435, 4134
10044, 4090, 5603, 4987
10045, 4599, 5614, 3991
10046, 4888, 5290, 4277
10047, 3951, 5435, 4586
10048, 3978, 5570, 4608
10049, 4320, 5458, 5389
10050, 4611, 5219, 4150
10051, 4636, 5124, 732
10052, 4095, 5730, 4607
10053, 3879, 5649, 5111
10054, 4212, 5422, 4717
10055, 4614, 5610, 4096
10056, 4706, 5281, 4073
10057, 4991, 5275, 3826
10058, 4595, 5593, 4193
10059, 618, 4940, 617
10060, 4709, 4961, 4110
10061, 4674, 5103, 3812
10062, 4738, 5142, 4235
10063, 4809, 5036, 4355
10064, 4778, 5597, 3855
10065, 4106, 5103, 4674
10066, 768, 5219, 767
10067, 4237, 5431, 4933
10068, 3772, 5340, 5073
10069, 4273, 5705, 5671
10070, 5174, 5299, 3846
10071, 4616, 5526, 4098
10072, 4155, 5707, 4598
10073, 4221, 5252, 4729
10074, 4358, 4952, 4721
10075, 5413, 5683, 4506
10076, 4930, 5675, 4538
10077, 5088, 5434, 3921
10078, 3867, 5538, 4662
10079, 4110, 5072, 4709
10080, 4729, 5252, 4339
10081, 3801, 5513, 5167
10082, 3850, 5387, 4918
10083, 5141, 5571, 4577
10084, 4762, 5500, 3984
10085, 3805, 5504, 4596
10086, 5167, 5513, 4480
10087, 4709, 5072, 3868
10088, 5139, 5346, 3915
10089, 4257, 5175, 4632
10090, 616, 5331, 615
10091, 3847, 5295, 5178
10092, 4651, 5467, 4162
10093, 3783, 5179, 4634
10094, 4410, 5660, 4611
10095, 3792, 5221, 4696
10096, 4420, 5434, 5088
10097, 4254, 5651, 4966
10098, 4006, 5043, 4715
10099, 3802, 5703, 4969
10100, 4861, 5593, 3833
10101, 4597, 5479, 4379
10102, 4730, 4985, 4195
10103, 4669, 5057, 4128
10104, 3981, 5562, 4603
10105, 4561, 5720, 5665
10106, 678, 5524, 677
10107, 4666, 5474, 4078
10108, 4711, 5372, 3922
10109, 4684, 5036, 4026
10110, 3794, 5592, 5056
10111, 4182, 5619, 5310
10112, 4697, 5488, 719
10113, 4223, 5286, 4887
10114, 4427, 5366, 5184
10115, 4389, 5115, 4770
10116, 5015, 5230, 4385
10117, 3962, 5464, 4609
10118, 5184, 5366, 4142
10119, 3775, 5351, 4883
10120, 4864, 5722, 4337
10121, 721, 5089, 720
10122, 4839, 5292, 3811
10123, 4092, 5036, 4684
10124, 4653, 5147, 4131
10125, 4724, 4970, 3864
10126, 4324, 4896, 4823
10127, 4318, 5349, 4976
10128, 4663, 5145, 4090
10129, 770, 4984, 769
10130, 3840, 5613, 4622
10131, 4831, 5269, 660
10132, 3880, 5272, 4881
10133, 4214, 5269, 4831
10134, 773, 4983, 772
10135, 4881, 5272, 4229
10136, 4770, 5544, 4262
10137, 4346, 5588, 4827
10138, 4787, 5379, 4077
10139, 4856, 5536, 3812
10140, 3861, 5610, 4614
10141, 4976, 5349, 4186
10142, 4219, 5642, 5361
10143, 4137, 5552, 4620
10144, 3872, 5001, 4716
10145, 3912, 5529, 5042
10146, 4890, 5713, 4395
10147, 4799, 5433, 3786
10148, 4993, 5282, 4184
10149, 4751, 5289, 4248
10150, 5318, 5538, 3867
10151, 3776, 5711, 5376
10152, 693, 5253, 4082
10153, 762, 5098, 761
10154, 670, 5426, 669
10155, 4887, 5286, 3798
10156, 3815, 5312, 5257
10157, 4770, 5115, 3882
10158, 4222, 5040, 4968
10159, 4751, 5184, 4142
10160, 4663, 5608, 4059
10161, 690, 4999, 689
10162, 4253, 5621, 4633
10163, 4715, 5043, 4102
10164, 4061, 5562, 4760
10165, 5018, 5120, 4122
10166, 4133, 5188, 4652
10167, 3994, 4985, 4730
10168, 3884, 5184, 4751
10169, 4271, 5275, 4991
10170, 4241, 5120, 5018
10171, 719, 5488, 718
10172, 3882, 5544, 4770
10173, 4214, 5317, 5021
10174, 4171, 5306, 4733
10175, 4208, 5613, 4650
10176, 3909, 5713, 4890
10177, 4089, 5612, 4926
10178, 5052, 5248, 3789
10179, 769, 4984, 4740
10180, 4733, 5306, 3914
10181, 3865, 5145, 4663
10182, 4065, 5247, 4641
10183, 3857, 5253, 4823
10184, 4675, 5089, 721
10185, 4740, 4984, 4091
10186, 5124, 5383, 731
10187, 3838, 5526, 4616
10188, 36, 5473, 638
10189, 4734, 5617, 4658
10190, 4286, 5436, 4851
10191, 5204, 5629, 3899
10192, 4531, 5629, 5204
10193, 3815, 5257, 4644
10194, 5094, 5697, 4391
10195, 4002, 5261, 4628
10196, 4218, 5291, 4867
10197, 4658, 5617, 4378
10198, 4494, 5582, 5419
10199, 3980, 5499, 4636
10200, 4617, 5467, 3965
10201, 3982, 5381, 4624
10202, 4255, 5174, 5026
10203, 5026, 5174, 4131
10204, 4622, 5441, 3966
10205, 4650, 5613, 3840
10206, 4790, 5543, 4213
10207, 5027, 5178, 4256
10208, 4019, 5429, 4633
10209, 5093, 5496, 4205
10210, 4718, 5208, 4080
10211, 4133, 5178, 5027
10212, 4069, 5069, 4756
10213, 4973, 5351, 3775
10214, 4620, 5552, 3852
10215, 4196, 5200, 4878
10216, 4887, 5440, 4223
10217, 4822, 5013, 4044
10218, 3922, 5456, 5017
10219, 4867, 5291, 3876
10220, 4843, 4929, 4101
10221, 4081, 5400, 4807
10222, 4076, 5074, 4693
10223, 5109, 5271, 4593
10224, 4701, 5061, 4251
10225, 4652, 5244, 3847
10226, 4623, 5636, 4239
10227, 743, 5258, 742
10228, 3989, 5397, 4621
10229, 710, 5033, 709
10230, 4630, 5718, 3865
10231, 4613, 5655, 4278
10232, 4035, 5019, 4818
10233, 3846, 5249, 4653
10234, 4241, 5212, 5120
10235, 5166, 5242, 4115
10236, 4243, 5463, 5429
10237, 5246, 5720, 4269
10238, 4188, 5475, 4623
10239, 3773, 5364, 5008
10240, 3957, 5606, 5518
10241, 4637, 5336, 4011
10242, 4458, 5193, 4661
10243, 635, 5263, 634
10244, 3787, 4929, 4843
10245, 4093, 5664, 5137
10246, 4313, 5351, 4973
10247, 4086, 5280, 4759
10248, 3897, 5684, 4700
10249, 4827, 5663, 5164
10250, 5058, 5130, 3889
10251, 3843, 5604, 4655
10252, 4696, 5207, 4330
10253, 4929, 5397, 4254
10254, 5250, 5337, 607
10255, 4068, 5295, 4872
10256, 5008, 5364, 4332
10257, 3889, 5130, 5105
10258, 684, 5723, 683
10259, 4205, 5058, 4934
10260, 4642, 5339, 4126
10261, 4272, 5662, 4894
10262, 4871, 5299, 4067
10263, 5105, 5130, 4275
10264, 682, 5028, 38
10265, 4773, 5146, 3921
10266, 677, 5048, 676
10267, 767, 5660, 766
10268, 4428, 5294, 5293
10269, 601, 5049, 600
10270, 3825, 5664, 4924
10271, 5293, 5294, 4148
10272, 4636, 5676, 3980
10273, 4338, 5470, 4830
10274, 4639, 5482, 3993
10275, 4345, 5626, 4904
10276, 4643, 5377, 3764
10277, 3864, 5193, 4961
10278, 4101, 5415, 4680
10279, 718, 5488, 4945
10280, 713, 4439, 712
10281, 4634, 5627, 3975
10282, 4056, 5215, 4914
10283, 4535, 5580, 4752
10284, 4269, 5508, 4833
10285, 4138, 5146, 4773
10286, 5357, 5451, 4369
10287, 4690, 5071, 3788
10288, 5518, 5606, 4558
10289, 4231, 5258, 5059
10290, 4833, 5508, 752
10291, 5045, 5642, 4219
10292, 604, 5066, 603
10293, 4667, 5321, 4158
10294, 4780, 5004, 4048
10295, 5231, 5572, 4278
10296, 3852, 5552, 4628
10297, 4903, 5295, 4068
10298, 5094, 5274, 4446
10299, 5370, 5593, 4861
10300, 4231, 5570, 4803
10301, 4213, 5056, 5043
10302, 632, 5321, 4667
10303, 4067, 5299, 4900
10304, 4274, 5704, 5442
10305, 5029, 5231, 4278
10306, 755, 5085, 754
10307, 4072, 5274, 5094
10308, 4796, 4995, 4035
10309, 4162, 5408, 4651
10310, 4651, 5620, 4518
10311, 4283, 5022, 4855
10312, 4192, 5486, 4746
10313, 739, 5620, 4651
10314, 4151, 5077, 4947
10315, 4628, 5552, 4137
10316, 4648, 5470, 3996
10317, 4779, 5578, 4087
10318, 5043, 5056, 4102
10319, 3767, 4988, 4897
10320, 4947, 5077, 4190
10321, 4285, 5218, 5070
10322, 5070, 5218, 3808
10323, 4789, 5394, 4172
10324, 5177, 5537, 4202
10325, 4864, 5365, 4011
10326, 4078, 5386, 4941
10327, 5130, 5496, 4275
10328, 5024, 5302, 4120
10329, 4924, 4946, 4180
10330, 4000, 5313, 4850
10331, 4906, 5072, 4268
10332, 3848, 5138, 4708
10333, 4953, 5607, 3895
10334, 629, 5086, 628
10335, 4852, 4989, 4125
10336, 4216, 5038, 4807
10337, 719, 5541, 4697
10338, 4992, 5631, 4011
10339, 641, 5419, 640
10340, 3850, 4989, 4852
10341, 4712, 5148, 4366
10342, 4340, 5068, 4742
10343, 4772, 5070, 4170
10344, 5342, 5656, 4200
10345, 4251, 5724, 4654
10346, 5372, 5456, 3922
10347, 4421, 5631, 4992
10348, 4285, 5070, 4772
10349, 4052, 5292, 4839
10350, 4705, 5311, 4109
10351, 3971, 5486, 4652
10352, 4714, 5132, 3806
10353, 4201, 5699, 5334
10354, 4653, 5487, 3972
10355, 4465, 5546, 4767
10356, 4119, 5126, 4707
10357, 4868, 5686, 4400
10358, 4904, 5626, 3898
10359, 4758, 5487, 4191
10360, 615, 5127, 614
10361, 4561, 5665, 5125
10362, 3887, 5622, 5102
10363, 647, 5195, 4685
10364, 4823, 5253, 694
10365, 4703, 5302, 4393
10366, 5052, 5214, 4267
10367, 4620, 5585, 3974
10368, 4144, 5214, 5052
10369, 3843, 5666, 5604
10370, 750, 5125, 749
10371, 4111, 5413, 5169
10372, 4336, 5693, 5097
10373, 3907, 5576, 5545
10374, 39, 5354, 4676
10375, 4730, 5577, 3763
10376, 4756, 5078, 4069
10377, 4655, 5604, 4105
10378, 4348, 5337, 5250
10379, 5164, 5165, 4100
10380, 4322, 5165, 5164
10381, 3839, 4998, 4882
10382, 4985, 5108, 4195
10383, 35, 5307, 4707
10384, 4844, 5714, 4471
10385, 4279, 5242, 5166
10386, 4814, 5698, 3818
10387, 4339, 5402, 5287
10388, 708, 5415, 707
10389, 720, 5541, 719
10390, 5090, 5111, 4117
10391, 4104, 5480, 4699
10392, 4911, 5253, 3857
10393, 4881, 5292, 4052
10394, 4240, 5111, 5090
10395, 4819, 5155, 4340
10396, 4818, 5019, 4264
10397, 3765, 5366, 5265
10398, 4798, 5452, 4163
10399, 5282, 5718, 4184
10400, 3931, 5208, 4718
10401, 633, 5321, 632
10402, 4204, 5500, 4762
10403, 4677, 5318, 3867
10404, 5265, 5366, 4427
10405, 38, 5028, 681
10406, 614, 5127, 4728
10407, 608, 5250, 607
10408, 4797, 5230, 4115
10409, 4175, 5445, 4713
10410, 4302, 5025, 4815
10411, 698, 5170, 697
10412, 4217, 5377, 4971
10413, 4132, 5239, 4791
10414, 702, 5182, 701
10415, 4255, 5299, 5174
10416, 5492, 5549, 4284
10417, 4699, 5372, 4104
10418, 4713, 5445, 3769
10419, 4448, 5523, 4789
10420, 4594, 5549, 5492
10421, 4664, 5713, 3909
10422, 4026, 5036, 4809
10423, 4189, 5417, 5326
10424, 5120, 5212, 3843
10425, 4214, 5518, 5269
10426, 607, 5337, 606
10427, 4908, 4959, 4232
10428, 5178, 5295, 4256
10429, 4820, 5282, 4178
10430, 4102, 5648, 4715
10431, 4093, 4946, 4924
10432, 4942, 5728, 3856
10433, 3868, 5474, 4666
10434, 4167, 5108, 4985
10435, 4784, 5506, 3913
10436, 4112, 5354, 4934
10437, 624, 5190, 623
10438, 5224, 5679, 3903
10439, 5522, 5710, 4467
10440, 4660, 5662, 3866
10441, 4104, 5372, 4711
10442, 5159, 5279, 4327
10443, 3898, 5641, 4904
10444, 3799, 5134, 5091
10445, 4183, 5191, 4971
10446, 3825, 5409, 4672
10447, 5639, 5683, 3944
10448, 4146, 5279, 5159
10449, 4717, 5225, 4123
10450, 4971, 5191, 4217
10451, 5091, 5134, 4244
10452, 3773, 5159, 4834
10453, 3937, 5225, 4717
10454, 3778, 5243, 4761
10455, 4008, 5341, 4754
10456, 4780, 5194, 4216
10457, 3865, 5282, 4820
10458, 3878, 5356, 5118
10459, 4776, 5315, 3890
10460, 4454, 5315, 4776
10461, 4902, 5232, 4289
10462, 685, 5209, 40
10463, 3870, 5638, 4679
10464, 4263, 5379, 4943
10465, 3891, 5305, 4766
10466, 4761, 5243, 4140
10467, 4766, 5305, 4453
10468, 4054, 5255, 4710
10469, 728, 5581, 727
10470, 4943, 5379, 3794
10471, 4925, 5276, 4169
10472, 4387, 5276, 4925
10473, 764, 5297, 763
10474, 5054, 5681, 4270
10475, 4679, 5638, 4210
10476, 3944, 5413, 4875
10477, 4731, 5203, 4126
10478, 4897, 4988, 4114
10479, 4105, 5710, 4916
10480, 3870, 5232, 4902
10481, 4911, 5407, 4082
10482, 3846, 5299, 4871
10483, 5065, 5688, 3919
10484, 4451, 5688, 5065
10485, 3866, 5281, 4706
10486, 4960, 5725, 3871
10487, 3917, 5697, 5094
10488, 4529, 5380, 4820
10489, 694, 5253, 693
10490, 652, 5495, 651
10491, 683, 5354, 39
10492, 4872, 5295, 3847
10493, 4109, 5311, 4782
10494, 3875, 5628, 4695
10495, 4115, 5242, 4797
10496, 4680, 5415, 708
10497, 626, 4164, 625
10498, 4905, 5018, 3955
10499, 4566, 5512, 4762
10500, 3871, 5543, 4790
10501, 4241, 5018, 4905
10502, 5512, 5708, 3908
10503, 4015, 5677, 5009
10504, 4787, 5592, 3794
10505, 4245, 5555, 4931
10506, 5009, 5677, 4418
10507, 5251, 5646, 4360
10508, 4860, 5272, 3880
10509, 5604, 5666, 4525
10510, 4106, 5105, 5103
10511, 4686, 5551, 4310
10512, 4698, 5629, 4132
10513, 4315, 5272, 4860
10514, 5103, 5105, 4275
10515, 4337, 5722, 4671
10516, 4800, 5275, 4271
10517, 660, 5269, 659
10518, 3823, 5196, 4754
10519, 4745, 5297, 764
10520, 5461, 5653, 3923
10521, 4195, 5041, 4873
10522, 4197, 5538, 4678
10523, 4245, 5592, 4787
10524, 3867, 5650, 4677
10525, 674, 5283, 673
10526, 4733, 5501, 4171
10527, 3768, 5432, 5144
10528, 4716, 5320, 3872
10529, 5065, 5566, 4063
10530, 4866, 5212, 4241
10531, 3925, 5647, 4858
10532, 4689, 5563, 705
10533, 5144, 5432, 4371
10534, 4347, 5113, 4813
10535, 3856, 5728, 5128
10536, 4279, 5622, 5242
10537, 5002, 5710, 4105
10538, 4851, 5643, 4286
10539, 3985, 5705, 4682
10540, 3899, 5311, 5204
10541, 4210, 5564, 4679
10542, 4858, 5647, 4301
10543, 4683, 5546, 3831
10544, 4123, 5338, 4717
10545, 5273, 5368, 3856
10546, 4404, 5368, 5273
10547, 640, 5419, 3834
10548, 4625, 5539, 3854
10549, 3849, 5176, 4817
10550, 4276, 5670, 5355
10551, 4598, 5695, 5428
10552, 3805, 5611, 4855
10553, 4855, 5611, 4283
10554, 4771, 5471, 3849
10555, 4113, 5459, 4849
10556, 4915, 5402, 4120
10557, 642, 4075, 641
10558, 4026, 5689, 4684
10559, 5428, 5695, 4000
10560, 4244, 5306, 5091
10561, 4378, 5566, 5065
10562, 742, 5591, 741
10563, 4722, 5341, 4008
10564, 5086, 5414, 628
10565, 627, 5136, 34
10566, 3998, 5296, 4734
10567, 645, 5643, 4851
10568, 4803, 5327, 3886
10569, 3879, 5256, 4838
10570, 4737, 5314, 4239
10571, 4129, 5304, 4733
10572, 613, 5359, 612
10573, 4309, 5453, 5004
10574, 4838, 5256, 4325
10575, 4485, 5447, 4794
10576, 4220, 5488, 4697
10577, 3956, 5235, 4764
10578, 4785, 5279, 4146
10579, 3876, 5279, 4785
10580, 4181, 5297, 4745
10581, 3902, 5284, 5207
10582, 5207, 5284, 4330
10583, 4816, 5667, 671
10584, 4699, 5480, 3862
10585, 3862, 5531, 4699
10586, 4699, 5531, 4176
10587, 4897, 5133, 4268
10588, 37, 4955, 642
10589, 629, 5659, 5086
10590, 4222, 5644, 4690
10591, 5287, 5402, 3858
10592, 4021, 5155, 4819
10593, 4272, 5035, 4954
10594, 4689, 5651, 4254
10595, 3792, 5079, 4978
10596, 4978, 5079, 4335
10597, 5315, 5490, 4227
10598, 4454, 5490, 5315
10599, 4697, 5541, 4288
10600, 4759, 5280, 3886
10601, 4838, 5706, 3879
10602, 5151, 5270, 3969
10603, 4294, 5270, 5151
10604, 4204, 5387, 4852
10605, 4296, 5706, 4838
10606, 4228, 5498, 5305
10607, 5305, 5498, 4453
10608, 4852, 5387, 3850
10609, 5084, 5634, 4432
10610, 4288, 5653, 4697
10611, 3903, 5679, 4692
10612, 4619, 5363, 5147
10613, 606, 5337, 4736
10614, 4195, 5577, 4730
10615, 4295, 5721, 4992
10616, 4834, 5159, 4327
10617, 3899, 5629, 4698
10618, 3873, 5395, 4956
10619, 4357, 5385, 4880
10620, 4954, 5035, 3845
10621, 4694, 5726, 4233
10622, 5560, 5673, 4274
10623, 3868, 5072, 4906
10624, 4885, 5102, 4127
10625, 697, 3784, 696
10626, 4687, 5678, 610
10627, 5045, 5199, 4185
10628, 4219, 5199, 5045
10629, 4722, 5455, 4257
10630, 4131, 5363, 4747
10631, 693, 4082, 692
10632, 4849, 5156, 4074
10633, 3921, 5434, 4773
10634, 4384, 5656, 5342
10635, 5228, 5319, 4285
10636, 4748, 5362, 4133
10637, 723, 5454, 722
10638, 4880, 5385, 3791
10639, 5241, 5595, 4303
10640, 640, 3834, 639
10641, 4381, 5348, 4834
10642, 628, 5414, 627
10643, 4797, 5242, 3887
10644, 4373, 5414, 5086
10645, 4934, 5058, 4112
10646, 4390, 5529, 5048
10647, 4815, 5215, 4056
10648, 5404, 5533, 4301
10649, 696, 5517, 695
10650, 3791, 5483, 4880
10651, 4863, 5316, 4084
10652, 4120, 5402, 5024
10653, 622, 5472, 621
10654, 4718, 5558, 3931
10655, 5048, 5529, 4270
10656, 4894, 5627, 4107
10657, 5008, 5159, 3773
10658, 4773, 5434, 4175
10659, 3827, 5338, 4774
10660, 752, 5508, 751
10661, 3954, 5710, 5522
10662, 4782, 5311, 3899
10663, 4858, 5533, 4465
10664, 5089, 5541, 720
10665, 4977, 5206, 3842
10666, 705, 5563, 704
10667, 5142, 5601, 3814
10668, 4945, 5488, 4220
10669, 3790, 5709, 4976
10670, 5195, 5411, 4236
10671, 3843, 5212, 4842
10672, 4199, 5206, 4977
10673, 4080, 5208, 5039
10674, 4715, 5648, 3837
10675, 4059, 5608, 4935
10676, 3816, 5194, 4853
10677, 4497, 5394, 5042
10678, 716, 5586, 715
10679, 4719, 5592, 4245
10680, 651, 5584, 650
10681, 5067, 5503, 4261
10682, 4973, 5428, 4313
10683, 646, 5643, 645
10684, 5188, 5362, 4631
10685, 4108, 5267, 4826
10686, 4422, 5601, 5142
10687, 610, 5678, 609
10688, 4095, 5033, 710
10689, 729, 5623, 728
10690, 711, 4095, 710
10691, 740, 5620, 739
10692, 625, 3854, 624
10693, 5042, 5394, 3912
10694, 4792, 5326, 4031
10695, 4773, 5375, 4138
10696, 671, 5667, 670
10697, 4850, 5298, 4513
10698, 4863, 5730, 4439
10699, 3879, 5706, 4722
10700, 4027, 5714, 4844
10701, 4175, 5515, 4773
10702, 4846, 5221, 4352
10703, 4749, 5559, 4094
10704, 4074, 5547, 5060
10705, 4779, 5387, 4204
10706, 4899, 5481, 4230
10707, 3800, 5298, 4850
10708, 5206, 5345, 4302
10709, 3941, 5686, 4868
10710, 4381, 5542, 5348
10711, 5086, 5659, 4489
10712, 3934, 5481, 4899
10713, 3877, 5405, 4772
10714, 3770, 5654, 5112
10715, 4763, 5417, 3785
10716, 4180, 5388, 5010
10717, 4835, 5585, 4198
10718, 3854, 5539, 5190
10719, 5254, 5469, 4173
10720, 4036, 5673, 4836
10721, 4958, 5672, 4017
10722, 4850, 5313, 4408
10723, 4996, 5385, 4138
10724, 4847, 5704, 4274
10725, 5037, 5635, 4516
10726, 3794, 5379, 4787
10727, 5561, 5575, 4406
10728, 3880, 5704, 4847
10729, 4328, 5590, 4919
10730, 4919, 5590, 4160
10731, 4313, 5510, 5351
10732, 4820, 5380, 4287
10733, 5152, 5398, 4355
10734, 5080, 5684, 3897
10735, 4847, 5673, 4036
10736, 4277, 5539, 4888
10737, 3833, 5520, 4861
10738, 3765, 5398, 5152
10739, 3916, 5319, 5228
10740, 5261, 5661, 4168
10741, 4238, 5628, 4865
10742, 4163, 5452, 4764
10743, 4532, 5396, 4913
10744, 4464, 5327, 4803
10745, 4861, 5520, 4218
10746, 3908, 5708, 5276
10747, 3764, 5617, 4734
10748, 4858, 5682, 3925
10749, 630, 5659, 629
10750, 5129, 5404, 4301
10751, 4933, 5460, 4237
10752, 4179, 5266, 4854
10753, 4118, 5471, 4771
10754, 5279, 5291, 4327
10755, 4927, 5587, 4333
10756, 4161, 5587, 4927
10757, 4862, 5248, 4079
10758, 3996, 5460, 4933
10759, 3907, 5332, 4967
10760, 4913, 5396, 3906
10761, 4371, 5432, 5260
10762, 4742, 5691, 3829
10763, 3876, 5291, 5279
10764, 4199, 5345, 5206
10765, 4762, 5512, 3908
10766, 5260, 5432, 4196
10767, 4053, 5514, 4765
10768, 4168, 5430, 5261
10769, 4510, 5692, 5280
10770, 4752, 5580, 4311
10771, 5198, 5395, 3873
10772, 5111, 5256, 3879
10773, 4240, 5256, 5111
10774, 4859, 5339, 3858
10775, 5090, 5266, 3810
10776, 4323, 5476, 4784
10777, 4498, 5544, 4957
10778, 5245, 5520, 4316
10779, 4936, 5206, 4302
10780, 4074, 5433, 4799
10781, 3881, 5724, 5061
10782, 4371, 5239, 5144
10783, 4173, 5717, 5283
10784, 707, 5415, 4966
10785, 5014, 5229, 4158
10786, 4967, 5332, 4326
10787, 4966, 5415, 4101
10788, 4224, 5446, 5401
10789, 5401, 5446, 4440
10790, 4607, 5730, 4863
10791, 5334, 5699, 4336
10792, 4887, 5285, 4156
10793, 4401, 5229, 5014
10794, 4794, 5447, 4282
10795, 4096, 5506, 4784
10796, 4893, 5515, 4175
10797, 4807, 5400, 3888
10798, 3776, 5521, 5083
10799, 4834, 5348, 3773
10800, 4865, 5628, 3875
10801, 4211, 5465, 5189
10802, 4804, 5430, 4168
10803, 3886, 5692, 4803
10804, 4151, 5357, 5077
10805, 4803, 5692, 4231
10806, 4017, 5672, 4768
10807, 3908, 5578, 4779
10808, 3940, 5391, 4828
10809, 4836, 5646, 4233
10810, 4229, 5292, 4881
10811, 3771, 5646, 4836
10812, 3824, 5594, 5063
10813, 4990, 5575, 4249
10814, 5063, 5594, 4349
10815, 5122, 5169, 4409
10816, 3842, 5206, 4936
10817, 3982, 5373, 4891
10818, 4768, 5709, 3790
10819, 4386, 5597, 4778
10820, 4146, 5159, 5008
10821, 4207, 5383, 5124
10822, 3921, 5633, 5494
10823, 3798, 5285, 4887
10824, 4288, 5541, 5089
10825, 5154, 5590, 3890
10826, 5364, 5465, 4211
10827, 3891, 5587, 5158
10828, 4885, 5451, 4151
10829, 4789, 5523, 4311
10830, 4856, 5493, 4033
10831, 5265, 5687, 3765
10832, 4206, 5227, 5139
10833, 4961, 5193, 4110
10834, 5014, 5321, 633
10835, 4437, 5420, 4870
10836, 5071, 5505, 3788
10837, 4812, 5469, 3863
10838, 4198, 5493, 4856
10839, 642, 4955, 4075
10840, 4690, 5644, 5071
10841, 4399, 5505, 5071
10842, 4337, 5365, 4864
10843, 3829, 5463, 4819
10844, 5348, 5542, 4260
10845, 4851, 5436, 4246
10846, 4056, 5314, 4936
10847, 4379, 5479, 5289
10848, 5024, 5402, 4339
10849, 4256, 5295, 4903
10850, 4900, 5299, 4255
10851, 4457, 5458, 4883
10852, 4047, 5370, 4861
10853, 5093, 5723, 684
10854, 5289, 5479, 3819
10855, 4107, 5627, 5179
10856, 5329, 5425, 4374
10857, 4187, 5425, 5329
10858, 4160, 5154, 5153
10859, 5153, 5154, 4227
10860, 4066, 5421, 4845
10861, 4161, 5160, 5158
10862, 5158, 5160, 4228
10863, 4793, 5638, 3870
10864, 3778, 5267, 4926
10865, 4880, 5483, 4455
10866, 5071, 5644, 4070
10867, 4165, 5547, 5156
10868, 4420, 5445, 5434
10869, 4911, 5634, 4143
10870, 5032, 5686, 3941
10871, 3883, 5357, 4922
10872, 3946, 5572, 5231
10873, 4457, 5647, 5458
10874, 5233, 5665, 3961
10875, 3893, 5571, 5141
10876, 4200, 5172, 5168
10877, 5146, 5633, 3921
10878, 5434, 5445, 4175
10879, 4633, 5621, 5020
10880, 4870, 5420, 3910
10881, 4267, 5248, 5052
10882, 4875, 5413, 4111
10883, 5497, 5519, 4476
10884, 4028, 5519, 5497
10885, 4891, 5373, 4152
10886, 4910, 5551, 4686
10887, 5023, 5714, 4027
10888, 4849, 5459, 3851
10889, 5039, 5208, 4447
10890, 5143, 5172, 4200
10891, 3904, 5329, 5137
10892, 4934, 5354, 683
10893, 5137, 5329, 4374
10894, 5064, 5268, 3791
10895, 4980, 5473, 36
10896, 4343, 5268, 5064
10897, 4206, 5535, 5398
10898, 4115, 5230, 5015
10899, 4550, 5682, 5536
10900, 5168, 5180, 4200
10901, 4378, 5617, 5173
10902, 5173, 5617, 3764
10903, 4111, 5169, 5122
10904, 5491, 5605, 4248
10905, 5536, 5682, 4226
10906, 4233, 5726, 4840
10907, 5168, 5172, 3901
10908, 4209, 5180, 5168
10909, 4979, 5263, 635
10910, 4950, 5404, 4166
10911, 4907, 5392, 4419
10912, 4840, 5726, 3872
10913, 5376, 5521, 3776
10914, 4143, 5407, 4911
10915, 4411, 5493, 5288
10916, 4371, 5260, 5009
10917, 4156, 5303, 4968
10918, 4060, 5388, 4901
10919, 5016, 5266, 4179
10920, 4201, 5172, 5143
10921, 4467, 5710, 5002
10922, 4248, 5605, 5309
10923, 4130, 5231, 5029
10924, 3809, 5451, 4885
10925, 4235, 5618, 4828
10926, 5017, 5599, 3922
10927, 5009, 5260, 4015
10928, 4292, 5599, 5017
10929, 3918, 5392, 4907
10930, 4827, 5588, 4317
10931, 4209, 5352, 5030
10932, 4883, 5458, 4320
10933, 3886, 5327, 5199
10934, 4922, 5357, 4369
10935, 5126, 5659, 630
10936, 4160, 5589, 4982
10937, 4178, 5282, 4993
10938, 5322, 5582, 4494
10939, 5268, 5483, 3791
10940, 3765, 5687, 5398
10941, 4445, 5374, 4943
10942, 3810, 5266, 5016
10943, 5030, 5352, 3936
10944, 4972, 5310, 4179
10945, 4608, 5570, 5059
10946, 4242, 5582, 5322
10947, 643, 5213, 4955
10948, 4833, 5639, 4269
10949, 5351, 5510, 4202
10950, 3894, 5656, 5177
10951, 4452, 5516, 5423
10952, 4301, 5533, 4858
10953, 4837, 5600, 637
10954, 3885, 5575, 4990
10955, 5458, 5647, 3925
10956, 4166, 5346, 4950
10957, 5177, 5656, 4384
10958, 4317, 5663, 4827
10959, 4924, 5409, 3825
10960, 3858, 5402, 4915
10961, 4943, 5374, 4263
10962, 5158, 5305, 3891
10963, 4206, 5335, 5227
10964, 4228, 5305, 5158
10965, 5423, 5516, 3931
10966, 4249, 5575, 5561
10967, 4075, 5630, 5419
10968, 4240, 5444, 5256
10969, 4185, 5319, 5045
10970, 5256, 5444, 4325
10971, 3924, 5302, 5024
10972, 4236, 5675, 5278
10973, 4992, 5336, 4295
10974, 3890, 5315, 5154
10975, 5154, 5315, 4227
10976, 4180, 5409, 4924
10977, 4842, 5666, 3843
10978, 760, 5548, 4877
10979, 5190, 5539, 4277
10980, 4158, 5321, 5014
10981, 4997, 5606, 4161
10982, 4972, 5396, 4182
10983, 5264, 5616, 3798
10984, 4011, 5336, 4992
10985, 5021, 5317, 3862
10986, 5406, 5697, 4265
10987, 3935, 5439, 4993
10988, 5054, 5529, 3912
10989, 5494, 5601, 4422
10990, 5139, 5227, 4203
10991, 5149, 5681, 4569
10992, 4963, 5650, 3867
10993, 4956, 5395, 4359
10994, 4063, 5566, 4909
10995, 5272, 5416, 4229
10996, 4270, 5529, 5054
10997, 4274, 5673, 4847
10998, 4315, 5416, 5272
10999, 3854, 5190, 624
11000, 4873, 5577, 4195
11001, 5057, 5353, 4128
11002, 3831, 5404, 4950
11003, 5144, 5239, 4132
11004, 5077, 5357, 3883
11005, 5180, 5342, 4200
11006, 3975, 5627, 4894
11007, 4285, 5319, 5218
11008, 5045, 5319, 3916
11009, 5298, 5699, 4201
11010, 5197, 5510, 4313
11011, 5378, 5461, 4364
11012, 5276, 5578, 3908
11013, 4993, 5534, 3935
11014, 4387, 5578, 5276
11015, 4220, 5461, 5378
11016, 5168, 5489, 4209
11017, 4108, 5271, 5109
11018, 5419, 5630, 4494
11019, 3906, 5396, 4972
11020, 5046, 5598, 4502
11021, 5403, 5505, 4399
11022, 4193, 5519, 5157
11023, 3831, 5533, 5404
11024, 4555, 5343, 5076
11025, 5076, 5343, 4174
11026, 4266, 5505, 5403
11027, 3791, 5385, 4996
11028, 5309, 5427, 3884
11029, 3901, 5334, 5097
11030, 4468, 5584, 5495
11031, 5091, 5306, 4171
11032, 3931, 5558, 5423
11033, 5495, 5584, 651
11034, 4389, 5616, 5264
11035, 5096, 5657, 3911
11036, 4318, 5427, 5309
11037, 4143, 5634, 5084
11038, 5423, 5558, 4433
11039, 3832, 5551, 4910
11040, 4868, 5719, 4303
11041, 4312, 5625, 5313
11042, 5398, 5535, 4355
11043, 5331, 5657, 4334
11044, 4201, 5334, 5172
11045, 5095, 5381, 4403
11046, 4437, 5703, 5420
11047, 5313, 5625, 4408
11048, 5153, 5589, 4160
11049, 5117, 5573, 3795
11050, 4912, 5524, 678
11051, 4881, 5704, 3880
11052, 4130, 5367, 5170
11053, 4166, 5404, 5129
11054, 4169, 5676, 5055
11055, 4415, 5657, 5331
11056, 4636, 5499, 5124
11057, 5097, 5334, 4336
11058, 4967, 5576, 3907
11059, 4993, 5439, 4178
11060, 5441, 5613, 4208
11061, 5166, 5509, 4279
11062, 5029, 5655, 3926
11063, 4986, 5623, 729
11064, 4278, 5655, 5029
11065, 3768, 5509, 5166
11066, 5088, 5494, 4422
11067, 4216, 5462, 5038
11068, 5218, 5319, 4185
11069, 5038, 5462, 3984
11070, 4334, 5657, 5096
11071, 5172, 5334, 3901
11072, 4444, 5484, 5478
11073, 4957, 5544, 3882
11074, 4406, 5575, 5335
11075, 4280, 5601, 5494
11076, 4904, 5641, 4099
11077, 5347, 5460, 4338
11078, 4161, 5606, 5160
11079, 4433, 5558, 4988
11080, 4237, 5460, 5347
11081, 3857, 5634, 4911
11082, 5177, 5510, 3894
11083, 650, 5584, 4981
11084, 4232, 5576, 4967
11085, 4934, 5723, 4205
11086, 5199, 5327, 4185
11087, 5164, 5663, 3896
11088, 5478, 5484, 4194
11089, 5118, 5356, 4544
11090, 5304, 5501, 4733
11091, 5060, 5433, 4074
11092, 5361, 5642, 4329
11093, 4200, 5656, 5143
11094, 5420, 5703, 4326
11095, 4209, 5489, 5352
11096, 5205, 5568, 3774
11097, 4964, 5644, 4222
11098, 3894, 5510, 5197
11099, 5392, 5640, 4419
11100, 4246, 5630, 5213
11101, 5023, 5707, 4155
11102, 4391, 5697, 5406
11103, 5097, 5542, 3901
11104, 4987, 5603, 4470
11105, 5139, 5535, 4206
11106, 5395, 5521, 4359
11107, 5147, 5363, 4131
11108, 4260, 5542, 5097
11109, 4926, 5612, 3778
11110, 4434, 5433, 5060
11111, 4312, 5640, 5392
11112, 5240, 5361, 3813
11113, 5162, 5676, 4169
11114, 3796, 5342, 5180
11115, 4935, 5608, 4360
11116, 4159, 5521, 5395
11117, 4924, 5664, 4093
11118, 3764, 5377, 5173
11119, 4300, 5708, 5512
11120, 4942, 5615, 4335
11121, 5554, 5624, 3994
11122, 5160, 5606, 3957
11123, 4477, 5624, 5554
11124, 3799, 5696, 5134
11125, 3822, 5603, 4949
11126, 4133, 5362, 5188
11127, 4916, 5710, 3954
11128, 3874, 5675, 4930
11129, 4956, 5576, 4232
11130, 4215, 5473, 4980
11131, 4184, 5534, 4993
11132, 4994, 5636, 3766
11133, 5092, 5468, 3923
11134, 4224, 5701, 5446
11135, 5173, 5377, 4217
11136, 5227, 5335, 3885
11137, 5448, 5468, 4212
11138, 4099, 5607, 4953
11139, 3958, 5589, 5153
11140, 4364, 5468, 5448
11141, 4239, 5636, 4994
11142, 5129, 5652, 3953
11143, 683, 5723, 4934
11144, 4301, 5652, 5129
11145, 4252, 5545, 5376
11146, 3814, 5601, 5110
11147, 5125, 5665, 4177
11148, 4939, 5685, 4059
11149, 5296, 5684, 4141
11150, 4070, 5644, 4964
11151, 4206, 5687, 5335
11152, 3923, 5468, 5461
11153, 5011, 5661, 4002
11154, 5291, 5525, 4327
11155, 4407, 5599, 5412
11156, 4450, 5727, 5700
11157, 5412, 5599, 4292
11158, 4454, 5669, 5611
11159, 4212, 5468, 5092
11160, 5061, 5724, 4251
11161, 5245, 5525, 4218
11162, 4982, 5589, 4555
11163, 4242, 5477, 5332
11164, 5437, 5731, 3777
11165, 5110, 5601, 4280
11166, 4377, 5661, 5011
11167, 5335, 5687, 4406
11168, 4940, 5694, 617
11169, 4219, 5361, 5240
11170, 4159, 5395, 5198
11171, 5420, 5477, 3910
11172, 5225, 5637, 4332
11173, 4103, 5728, 4942
11174, 5328, 5330, 4429
11175, 604, 5511, 5066
11176, 3937, 5637, 5225
11177, 4191, 5487, 5249
11178, 5244, 5486, 4192
11179, 5461, 5468, 4364
11180, 5249, 5487, 4653
11181, 3921, 5494, 5088
11182, 4652, 5486, 5244
11183, 4558, 5606, 4997
11184, 4218, 5525, 5291
11185, 5161, 5607, 4099
11186, 4172, 5330, 5328
11187, 4319, 5607, 5161
11188, 4075, 5419, 641
11189, 5581, 5623, 4473
11190, 4305, 5569, 5236
11191, 5236, 5569, 4032
11192, 4094, 5559, 5081
11193, 5332, 5477, 4326
11194, 728, 5623, 5581
11195, 4304, 5568, 5032
11196, 4383, 5560, 5442
11197, 4459, 5731, 5437
11198, 5442, 5560, 4274
11199, 5189, 5465, 4260
11200, 3977, 5668, 5106
11201, 4326, 5477, 5420
11202, 5106, 5668, 4284
11203, 4205, 5496, 5130
11204, 5104, 5669, 3979
11205, 4283, 5669, 5104
11206, 4332, 5637, 5008
11207, 5537, 5652, 4457
11208, 5332, 5410, 4242
11209, 5124, 5499, 4207
11210, 3980, 5676, 5162
11211, 5083, 5521, 4159
11212, 5020, 5621, 3909
11213, 3953, 5652, 5537
11214, 5376, 5545, 4359
11215, 5059, 5570, 4231
11216, 4205, 5723, 5093
11217, 5116, 5670, 4276
11218, 5255, 5658, 4225
11219, 3901, 5489, 5168
11220, 5081, 5559, 4281
11221, 741, 5591, 5047
11222, 4094, 5670, 5116
11223, 5426, 5667, 4412
11224, 670, 5667, 5426
11225, 5390, 5412, 4292
11226, 3772, 5412, 5390
11227, 3920, 5598, 5046
11228, 5006, 5670, 4094
11229, 5460, 5470, 4338
11230, 5220, 5655, 4613
11231, 3892, 5635, 5037
11232, 4773, 5515, 5375
11233, 3996, 5470, 5460
11234, 5611, 5669, 4283
11235, 5128, 5728, 4530
11236, 4303, 5598, 5241
11237, 4202, 5510, 5177
11238, 5494, 5633, 4280
11239, 5241, 5598, 3920
11240, 5099, 5567, 4192
11241, 4191, 5565, 5100
11242, 3915, 5535, 5139
11243, 3901, 5542, 5489
11244, 3916, 5642, 5045
11245, 4155, 5714, 5023
11246, 3773, 5465, 5364
11247, 4154, 5686, 5032
11248, 5162, 5708, 4300
11249, 5489, 5542, 4381
11250, 4169, 5708, 5162
11251, 4230, 5573, 5117
11252, 5156, 5547, 4074
11253, 5344, 5439, 4421
11254, 3907, 5410, 5332
11255, 5142, 5618, 4235
11256, 4178, 5439, 5344
11257, 5055, 5676, 4636
11258, 5083, 5712, 4363
11259, 3798, 5616, 5285
11260, 5163, 5715, 4295
11261, 3947, 5715, 5163
11262, 4190, 5483, 5268
11263, 4260, 5465, 5348
11264, 3910, 5477, 5322
11265, 5102, 5622, 4127
11266, 5134, 5696, 4184
11267, 5173, 5566, 4378
11268, 4519, 5725, 5503
11269, 5322, 5477, 4242
11270, 621, 5472, 5323
11271, 4193, 5593, 5370
11272, 5243, 5612, 4307
11273, 3778, 5612, 5243
11274, 5097, 5693, 4260
11275, 4160, 5590, 5154
11276, 5158, 5587, 4161
11277, 4141, 5684, 5080
11278, 5111, 5649, 4117
11279, 5238, 5569, 4493
11280, 3936, 5525, 5245
11281, 3819, 5553, 5289
11282, 4218, 5520, 5245
11283, 5700, 5727, 4329
11284, 5323, 5472, 4266
11285, 3814, 5618, 5142
11286, 5112, 5654, 4145
11287, 5360, 5532, 4466
11288, 5348, 5465, 3773
11289, 5288, 5493, 4198
11290, 4357, 5633, 5146
11291, 3863, 5501, 5304
11292, 5352, 5489, 4381
11293, 5289, 5553, 4248
11294, 4980, 5711, 4215
11295, 5285, 5616, 4342
11296, 3865, 5718, 5282
11297, 5143, 5656, 3894
11298, 3993, 5482, 5380
11299, 3987, 5700, 5277
11300, 5277, 5700, 4329
11301, 5179, 5627, 4634
11302, 5380, 5482, 4287
11303, 4109, 5702, 5118
11304, 4032, 5569, 5238
11305, 4450, 5700, 5418
11306, 5310, 5619, 3874
11307, 4406, 5687, 5265
11308, 4525, 5666, 5233
11309, 4318, 5605, 5349
11310, 4270, 5681, 5149
11311, 4335, 5615, 5373
11312, 5349, 5605, 3938
11313, 5373, 5615, 4152
11314, 4265, 5697, 5384
11315, 5325, 5716, 4486
11316, 5293, 5645, 4428
11317, 4260, 5693, 5189
11318, 5557, 5640, 3803
11319, 5361, 5727, 3813
11320, 626, 5136, 4164
11321, 5502, 5556, 4583
11322, 5324, 5637, 3937
11323, 4247, 5595, 5241
11324, 5375, 5515, 3861
11325, 4269, 5639, 5246
11326, 609, 5678, 5186
11327, 3804, 5532, 5360
11328, 4419, 5640, 5557
11329, 5189, 5693, 3943
11330, 4359, 5521, 5376
11331, 3866, 5662, 5281
11332, 5475, 5636, 4623
11333, 3938, 5605, 5491
11334, 3926, 5655, 5220
11335, 5246, 5639, 3944
11336, 5335, 5575, 3885
11337, 4233, 5646, 5251
11338, 4152, 5615, 5368
11339, 4454, 5611, 5490
11340, 4177, 5665, 5233
11341, 5309, 5605, 4318
11342, 4054, 5658, 5255
11343, 4002, 5661, 5261
11344, 4248, 5553, 5491
11345, 5313, 5695, 4312
11346, 4000, 5695, 5313
11347, 4329, 5727, 5361
11348, 3939, 5645, 5293
11349, 5308, 5653, 4288
11350, 5281, 5662, 4272
11351, 3923, 5653, 5308
11352, 627, 5414, 5136
11353, 5280, 5692, 3886
11354, 5392, 5625, 4312
11355, 3918, 5625, 5392
11356, 5491, 5553, 4400
11357, 5715, 5721, 4295
11358, 5276, 5708, 4169
11359, 4472, 5721, 5715
11360, 4208, 5556, 5502
11361, 3800, 5699, 5298
11362, 5283, 5717, 673
11363, 5481, 5573, 4230
11364, 5616, 5632, 4342
11365, 4402, 5573, 5481
11366, 4722, 5706, 5341
11367, 4389, 5632, 5616
11368, 4278, 5572, 5557
11369, 5557, 5572, 4419
11370, 3995, 5716, 5325
11371, 4622, 5613, 5441
11372, 5341, 5706, 4296
11373, 4310, 5729, 5449
11374, 4280, 5633, 5527
11375, 5384, 5697, 3917
11376, 3766, 5636, 5475
11377, 5490, 5611, 3805
11378, 5527, 5633, 4357
11379, 5398, 5687, 4206
11380, 4184, 5696, 5534
11381, 3940, 5712, 5391
11382, 5418, 5700, 3987
11383, 4457, 5652, 5647
11384, 5647, 5652, 4301
11385, 5449, 5729, 3940
11386, 5503, 5725, 4261
11387, 5534, 5696, 4448
11388, 5672, 5709, 4768
11389, 3784, 5517, 696
11390, 4234, 5709, 5672
*ELEMENT, type=CPS3, ELSET=Surface13
11391, 777, 337, 776
11392, 319, 794, 795
11393, 777, 336, 337
11394, 794, 319, 320
11395, 796, 43, 5732
11396, 44, 797, 5733
11397, 778, 336, 777
11398, 793, 794, 320
11399, 778, 335, 336
11400, 793, 320, 321
11401, 43, 776, 5732
11402, 795, 44, 5733
11403, 797, 28, 5733
11404, 29, 796, 5732
11405, 28, 319, 5733
11406, 337, 29, 5732
11407, 779, 335, 778
11408, 792, 793, 321
11409, 779, 334, 335
11410, 792, 321, 322
11411, 780, 334, 779
11412, 791, 792, 322
11413, 780, 333, 334
11414, 791, 322, 323
11415, 781, 333, 780
11416, 790, 791, 323
11417, 781, 332, 333
11418, 790, 323, 324
11419, 782, 332, 781
11420, 790, 324, 789
11421, 789, 324, 325
11422, 782, 331, 332
11423, 783, 330, 331
11424, 788, 325, 326
11425, 784, 329, 330
11426, 787, 326, 327
11427, 788, 789, 325
11428, 782, 783, 331
11429, 327, 328, 786
11430, 785, 328, 329
11431, 784, 330, 783
11432, 788, 326, 787
11433, 785, 329, 784
11434, 786, 787, 327
11435, 328, 785, 786
11436, 319, 795, 5733
11437, 776, 337, 5732
*ELEMENT, type=CPS3, ELSET=Surface14
11438, 5788, 5760, 5853
11439, 5790, 5748, 5795
11440, 803, 527, 30
11441, 5747, 5790, 5795
11442, 608, 607, 5783
11443, 5760, 5788, 5864
11444, 5772, 598, 5813
11445, 5745, 5779, 5803
11446, 527, 803, 5810
11447, 33, 620, 804
11448, 804, 620, 5831
11449, 5753, 5784, 5801
11450, 5784, 5742, 5801
11451, 5812, 604, 5859
11452, 776, 43, 5829
11453, 612, 611, 5804
11454, 795, 5835, 5867
11455, 43, 808, 5829
11456, 794, 793, 5793
11457, 5804, 611, 5879
11458, 5780, 5739, 5843
11459, 5843, 5739, 5874
11460, 5746, 5787, 5857
11461, 794, 5793, 5835
11462, 5786, 5742, 5851
11463, 5745, 5803, 5890
11464, 5777, 601, 5854
11465, 5784, 5753, 5837
11466, 5745, 5797, 5805
11467, 5738, 5784, 5837
11468, 5743, 5788, 5853
11469, 5757, 5780, 5843
11470, 5743, 5782, 5899
11471, 5737, 5789, 5825
11472, 601, 5777, 5877
11473, 5789, 5754, 5825
11474, 5742, 5784, 5862
11475, 5775, 5823, 5850
11476, 5783, 607, 5816
11477, 5823, 5754, 5850
11478, 5833, 5737, 5848
11479, 598, 5772, 5849
11480, 5739, 5780, 5864
11481, 795, 794, 5835
11482, 5762, 5827, 5854
11483, 5797, 791, 5805
11484, 5754, 5789, 5850
11485, 778, 777, 5792
11486, 605, 604, 5812
11487, 5817, 5748, 5863
11488, 5827, 5777, 5854
11489, 5786, 5736, 5832
11490, 598, 32, 5813
11491, 5788, 5743, 5899
11492, 800, 5842, 5844
11493, 5746, 5857, 5882
11494, 5735, 5794, 5827
11495, 5802, 5748, 5817
11496, 5752, 5792, 5807
11497, 608, 5783, 5830
11498, 5792, 5756, 5807
11499, 785, 784, 5796
11500, 5768, 5814, 5832
11501, 5814, 5751, 5832
11502, 5744, 5828, 5866
11503, 788, 787, 5798
11504, 5779, 5745, 5926
11505, 31, 532, 5809
11506, 5765, 5812, 5859
11507, 5780, 5760, 5864
11508, 5771, 5821, 5843
11509, 5734, 5803, 5892
11510, 5824, 5744, 5925
11511, 5786, 5851, 5923
11512, 5802, 5769, 5848
11513, 5748, 5802, 5848
11514, 5787, 5746, 5907
11515, 5769, 5833, 5848
11516, 5894, 5834, 5912
11517, 5780, 5757, 5841
11518, 5771, 5843, 5874
11519, 5769, 5818, 5833
11520, 5742, 5786, 5903
11521, 5797, 5755, 5856
11522, 5818, 5752, 5833
11523, 5851, 5742, 5862
11524, 5783, 5851, 5862
11525, 778, 5792, 5898
11526, 5847, 5761, 5902
11527, 5790, 5747, 5888
11528, 5798, 5749, 5924
11529, 5784, 5738, 5915
11530, 5821, 5757, 5843
11531, 5840, 5774, 5886
11532, 5760, 5780, 5844
11533, 5798, 787, 5873
11534, 5739, 5826, 5874
11535, 5804, 5747, 5808
11536, 5866, 5741, 5912
11537, 785, 5796, 5910
11538, 5736, 5786, 5923
11539, 5835, 5773, 5867
11540, 5736, 5787, 5895
11541, 5749, 5806, 5924
11542, 5746, 5794, 5907
11543, 5737, 5795, 5848
11544, 5785, 5834, 5894
11545, 5850, 5789, 5872
11546, 5752, 5789, 5833
11547, 5756, 5846, 5869
11548, 5789, 5737, 5833
11549, 5794, 5735, 5836
11550, 603, 602, 5799
11551, 5770, 5817, 5863
11552, 5789, 5752, 5872
11553, 529, 528, 5821
11554, 5768, 5798, 5873
11555, 5803, 5779, 5892
11556, 5840, 5741, 5866
11557, 5750, 5781, 5815
11558, 5776, 5847, 5902
11559, 5791, 5824, 5925
11560, 5852, 5755, 5878
11561, 781, 780, 5802
11562, 5764, 5806, 5836
11563, 5806, 5749, 5836
11564, 5862, 5784, 5915
11565, 5842, 5760, 5844
11566, 792, 791, 5797
11567, 5860, 5790, 5888
11568, 792, 5797, 5856
11569, 5846, 5776, 5869
11570, 800, 799, 5842
11571, 5786, 5832, 5903
11572, 791, 790, 5805
11573, 5741, 5840, 5886
11574, 5774, 5809, 5886
11575, 5787, 5736, 5857
11576, 5821, 528, 5900
11577, 5747, 5795, 5889
11578, 5766, 5804, 5879
11579, 5828, 5772, 5866
11580, 5800, 5767, 5825
11581, 5785, 5763, 5861
11582, 5745, 5805, 5858
11583, 5796, 5751, 5910
11584, 5749, 5798, 5838
11585, 788, 5798, 5924
11586, 781, 5802, 5817
11587, 5741, 5894, 5912
11588, 5832, 5751, 5903
11589, 531, 530, 5811
11590, 5861, 5782, 5878
11591, 5782, 5743, 5852
11592, 5792, 5752, 5898
11593, 5822, 5770, 5837
11594, 5753, 5822, 5837
11595, 5734, 5861, 5878
11596, 5793, 5743, 5916
11597, 5827, 5794, 5883
11598, 5793, 5755, 5852
11599, 5790, 5738, 5922
11600, 5851, 5758, 5923
11601, 5797, 5745, 5890
11602, 5818, 779, 5898
11603, 5781, 5809, 5815
11604, 5762, 5824, 5827
11605, 5802, 780, 5871
11606, 779, 778, 5898
11607, 5791, 5735, 5824
11608, 5743, 5793, 5852
11609, 5756, 5829, 5913
11610, 5754, 5800, 5825
11611, 527, 5810, 5900
11612, 5755, 5793, 5856
11613, 5836, 5749, 5907
11614, 5846, 5756, 5913
11615, 5769, 5802, 5871
11616, 802, 801, 5841
11617, 5794, 5836, 5907
11618, 5798, 5768, 5838
11619, 5811, 530, 5880
11620, 5801, 5742, 5903
11621, 806, 805, 5847
11622, 5814, 786, 5910
11623, 5755, 5797, 5890
11624, 5751, 5796, 5920
11625, 5738, 5790, 5860
11626, 5749, 5838, 5907
11627, 5748, 5790, 5863
11628, 528, 527, 5900
11629, 5795, 5748, 5848
11630, 5819, 5759, 5845
11631, 5766, 5819, 5845
11632, 5841, 801, 5918
11633, 786, 785, 5910
11634, 607, 606, 5816
11635, 5755, 5803, 5878
11636, 5824, 5735, 5827
11637, 782, 781, 5817
11638, 5781, 5750, 5914
11639, 5800, 5754, 5905
11640, 5813, 32, 5891
11641, 5782, 5861, 5899
11642, 5828, 5762, 5849
11643, 5756, 5792, 5868
11644, 5752, 5807, 5872
11645, 5811, 5750, 5815
11646, 5838, 5787, 5907
11647, 5809, 5781, 5886
11648, 5805, 5764, 5858
11649, 5758, 5812, 5839
11650, 5812, 5765, 5839
11651, 5792, 777, 5868
11652, 31, 5809, 5891
11653, 5794, 5746, 5883
11654, 5782, 5852, 5878
11655, 599, 598, 5849
11656, 5751, 5814, 5910
11657, 603, 5799, 5859
11658, 5834, 5785, 5861
11659, 5806, 789, 5924
11660, 5795, 5737, 5865
11661, 798, 44, 5867
11662, 44, 795, 5867
11663, 5763, 5785, 5896
11664, 619, 618, 5820
11665, 5813, 5774, 5840
11666, 5796, 784, 5881
11667, 5778, 5834, 5892
11668, 5774, 5813, 5891
11669, 5801, 5751, 5920
11670, 5800, 615, 5875
11671, 5866, 5778, 5911
11672, 5850, 5740, 5855
11673, 5787, 5838, 5895
11674, 5775, 5850, 5855
11675, 601, 600, 5854
11676, 5834, 5734, 5892
11677, 5744, 5866, 5911
11678, 5825, 5767, 5865
11679, 531, 5811, 5815
11680, 617, 616, 5823
11681, 5744, 5824, 5828
11682, 5820, 5775, 5855
11683, 5761, 5820, 5855
11684, 5771, 5811, 5880
11685, 5805, 790, 5870
11686, 5795, 5865, 5889
11687, 5764, 5805, 5870
11688, 5849, 5762, 5885
11689, 5735, 5791, 5901
11690, 806, 5847, 5921
11691, 5754, 5823, 5905
11692, 5759, 5830, 5862
11693, 5793, 793, 5856
11694, 5757, 5810, 5909
11695, 609, 608, 5830
11696, 5830, 5783, 5862
11697, 789, 788, 5924
11698, 5752, 5818, 5898
11699, 5760, 5842, 5853
11700, 783, 5822, 5881
11701, 801, 800, 5844
11702, 5739, 5864, 5887
11703, 615, 5800, 5905
11704, 784, 783, 5881
11705, 532, 531, 5815
11706, 5842, 5773, 5853
11707, 5861, 5763, 5899
11708, 777, 776, 5868
11709, 5808, 5747, 5889
11710, 5881, 5753, 5920
11711, 5864, 5788, 5887
11712, 5753, 5801, 5920
11713, 5737, 5825, 5865
11714, 776, 5829, 5868
11715, 5807, 5756, 5869
11716, 5799, 602, 5877
11717, 5803, 5734, 5878
11718, 5783, 5816, 5851
11719, 5836, 5735, 5901
11720, 5803, 5755, 5890
11721, 5750, 5811, 5874
11722, 5808, 5767, 5908
11723, 5835, 5793, 5916
11724, 5767, 5800, 5875
11725, 5809, 5774, 5891
11726, 5791, 5858, 5901
11727, 5810, 5757, 5900
11728, 5796, 5881, 5920
11729, 5751, 5801, 5903
11730, 5823, 5775, 5897
11731, 5759, 5862, 5915
11732, 789, 5806, 5870
11733, 5806, 5764, 5870
11734, 5841, 5757, 5909
11735, 612, 5804, 5917
11736, 5859, 5799, 5882
11737, 615, 614, 5875
11738, 5816, 5758, 5851
11739, 602, 601, 5877
11740, 5822, 5753, 5881
11741, 5738, 5845, 5915
11742, 5819, 610, 5927
11743, 5747, 5804, 5888
11744, 5804, 5766, 5888
11745, 5736, 5839, 5857
11746, 5761, 5855, 5902
11747, 5839, 5765, 5857
11748, 782, 5817, 5884
11749, 5812, 5758, 5876
11750, 605, 5812, 5876
11751, 5839, 5736, 5923
11752, 610, 609, 5927
11753, 5822, 783, 5884
11754, 5740, 5850, 5872
11755, 620, 619, 5904
11756, 5824, 5762, 5828
11757, 5757, 5821, 5900
11758, 5811, 5771, 5874
11759, 5772, 5813, 5840
11760, 5740, 5807, 5869
11761, 610, 5819, 5879
11762, 5758, 5816, 5876
11763, 783, 782, 5884
11764, 5863, 5790, 5922
11765, 617, 5823, 5897
11766, 5807, 5740, 5872
11767, 5831, 5761, 5919
11768, 5831, 620, 5904
11769, 5759, 5819, 5927
11770, 5775, 5820, 5897
11771, 5820, 618, 5897
11772, 5772, 5828, 5849
11773, 616, 615, 5905
11774, 611, 610, 5879
11775, 793, 792, 5856
11776, 807, 806, 5921
11777, 786, 5814, 5873
11778, 5765, 5859, 5882
11779, 5814, 5768, 5873
11780, 5817, 5770, 5884
11781, 5767, 5808, 5889
11782, 606, 605, 5876
11783, 604, 603, 5859
11784, 5829, 5756, 5868
11785, 5804, 5808, 5917
11786, 5830, 5759, 5927
11787, 5761, 5847, 5919
11788, 5882, 5799, 5906
11789, 5746, 5882, 5906
11790, 5808, 613, 5917
11791, 613, 5808, 5908
11792, 5809, 532, 5815
11793, 5820, 5761, 5904
11794, 5826, 5763, 5896
11795, 5845, 5738, 5860
11796, 779, 5818, 5871
11797, 5766, 5845, 5860
11798, 5818, 5769, 5871
11799, 5734, 5834, 5861
11800, 5846, 807, 5921
11801, 801, 5844, 5918
11802, 5816, 606, 5876
11803, 5778, 5866, 5912
11804, 5857, 5765, 5882
11805, 5761, 5831, 5904
11806, 5821, 5771, 5880
11807, 5767, 5875, 5908
11808, 5819, 5766, 5879
11809, 790, 789, 5870
11810, 780, 779, 5871
11811, 5826, 5750, 5874
11812, 5810, 803, 5909
11813, 529, 5821, 5880
11814, 787, 786, 5873
11815, 530, 529, 5880
11816, 5847, 5776, 5921
11817, 619, 5820, 5904
11818, 5770, 5822, 5884
11819, 803, 802, 5909
11820, 600, 599, 5885
11821, 5750, 5826, 5896
11822, 5762, 5854, 5885
11823, 805, 804, 5919
11824, 5745, 5858, 5926
11825, 613, 612, 5917
11826, 5777, 5827, 5883
11827, 799, 798, 5893
11828, 614, 613, 5908
11829, 5763, 5826, 5887
11830, 5858, 5791, 5926
11831, 804, 5831, 5919
11832, 5823, 616, 5905
11833, 618, 617, 5897
11834, 609, 5830, 5927
11835, 5768, 5832, 5895
11836, 5773, 5835, 5916
11837, 808, 807, 5913
11838, 5826, 5739, 5887
11839, 5832, 5736, 5895
11840, 5838, 5768, 5895
11841, 5834, 5778, 5912
11842, 5764, 5836, 5901
11843, 5773, 5842, 5893
11844, 5829, 808, 5913
11845, 5837, 5770, 5922
11846, 5842, 799, 5893
11847, 5853, 5773, 5916
11848, 5738, 5837, 5922
11849, 599, 5849, 5885
11850, 5758, 5839, 5923
11851, 5854, 600, 5885
11852, 5780, 5841, 5918
11853, 5844, 5780, 5918
11854, 5772, 5840, 5866
11855, 5845, 5759, 5915
11856, 807, 5846, 5913
11857, 5766, 5860, 5888
11858, 5867, 5773, 5893
11859, 5776, 5846, 5921
11860, 5763, 5887, 5899
11861, 5847, 805, 5919
11862, 802, 5841, 5909
11863, 5855, 5740, 5902
11864, 5858, 5764, 5901
11865, 5770, 5863, 5922
11866, 5743, 5853, 5916
11867, 5865, 5767, 5889
11868, 798, 5867, 5893
11869, 5887, 5788, 5899
11870, 5740, 5869, 5902
11871, 5869, 5776, 5902
11872, 5741, 5886, 5894
11873, 5799, 5877, 5906
11874, 5877, 5777, 5906
11875, 5875, 614, 5908
11876, 5777, 5883, 5906
11877, 5886, 5781, 5894
11878, 5883, 5746, 5906
11879, 5892, 5779, 5911
11880, 5778, 5892, 5911
11881, 5894, 5781, 5914
11882, 5911, 5779, 5925
11883, 5896, 5785, 5914
11884, 5750, 5896, 5914
11885, 5785, 5894, 5914
11886, 5744, 5911, 5925
11887, 5925, 5779, 5926
11888, 32, 31, 5891
11889, 5791, 5925, 5926
*ELEMENT, type=CPS3, ELSET=Surface15
11890, 6, 5928, 815
11891, 46, 5929, 816
11892, 816, 5929, 8
11893, 815, 5928, 45
11894, 140, 5928, 6
11895, 8, 5929, 135
11896, 814, 5929, 46
11897, 45, 5928, 809
11898, 139, 5934, 140
11899, 138, 5933, 139
11900, 137, 5932, 138
11901, 136, 5931, 137
11902, 135, 5930, 136
11903, 5933, 5934, 139
11904, 813, 5930, 814
11905, 5932, 5933, 138
11906, 812, 5931, 813
11907, 5931, 5932, 137
11908, 811, 5932, 812
11909, 813, 5931, 5930
11910, 5930, 5931, 136
11911, 810, 5933, 811
11912, 812, 5932, 5931
11913, 809, 5934, 810
11914, 811, 5933, 5932
11915, 810, 5934, 5933
11916, 140, 5934, 5928
11917, 5928, 5934, 809
11918, 814, 5930, 5929
11919, 5929, 5930, 135
*ELEMENT, type=CPS3, ELSET=Surface16
11920, 5936, 5944, 5942
11921, 5942, 5969, 5936
11922, 5944, 5954, 812
11923, 813, 5944, 812
11924, 820, 5943, 821
11925, 5962, 5963, 5949
11926, 820, 5955, 5943
11927, 5945, 5963, 5958
11928, 811, 5945, 810
11929, 5938, 5954, 5944
11930, 818, 5946, 819
11931, 5935, 5963, 5962
11932, 5943, 5955, 5937
11933, 5936, 5969, 5943
11934, 5945, 5958, 5939
11935, 5958, 5963, 5935
11936, 5936, 5965, 5944
11937, 5943, 5966, 5936
11938, 5958, 5967, 5947
11939, 5947, 5967, 5940
11940, 5945, 5959, 810
11941, 5943, 5969, 5941
11942, 818, 5960, 5946
11943, 5939, 5959, 5945
11944, 5946, 5960, 5940
11945, 809, 5951, 45
11946, 47, 5950, 817
11947, 45, 5951, 823
11948, 825, 5950, 47
11949, 5945, 5954, 5938
11950, 811, 5954, 5945
11951, 5946, 5955, 819
11952, 5937, 5955, 5946
11953, 5948, 5969, 5942
11954, 5943, 5957, 821
11955, 813, 5956, 5944
11956, 5941, 5957, 5943
11957, 5944, 5956, 5942
11958, 5937, 5966, 5943
11959, 48, 5953, 826
11960, 828, 5952, 46
11961, 5944, 5965, 5938
11962, 822, 5953, 48
11963, 5938, 5963, 5945
11964, 46, 5952, 814
11965, 5946, 5962, 5937
11966, 5940, 5967, 5946
11967, 5937, 5962, 5949
11968, 5949, 5963, 5938
11969, 5940, 5964, 5947
11970, 5947, 5961, 5939
11971, 824, 5964, 825
11972, 823, 5961, 824
11973, 827, 5970, 828
11974, 826, 5968, 827
11975, 5939, 5958, 5947
11976, 812, 5954, 811
11977, 819, 5955, 820
11978, 814, 5956, 813
11979, 821, 5957, 822
11980, 810, 5959, 809
11981, 817, 5960, 818
11982, 5947, 5964, 824
11983, 824, 5961, 5947
11984, 5935, 5967, 5958
11985, 5948, 5970, 827
11986, 827, 5968, 5948
11987, 5941, 5969, 5948
11988, 5948, 5968, 5941
11989, 5942, 5970, 5948
11990, 5950, 5964, 5940
11991, 5939, 5961, 5951
11992, 5949, 5966, 5937
11993, 5938, 5965, 5949
11994, 5949, 5965, 5936
11995, 5936, 5966, 5949
11996, 5952, 5956, 814
11997, 822, 5957, 5953
11998, 5942, 5956, 5952
11999, 5953, 5957, 5941
12000, 5950, 5960, 817
12001, 809, 5959, 5951
12002, 5940, 5960, 5950
12003, 5951, 5959, 5939
12004, 5941, 5968, 5953
12005, 5952, 5970, 5942
12006, 5951, 5961, 823
12007, 825, 5964, 5950
12008, 5962, 5967, 5935
12009, 5953, 5968, 826
12010, 828, 5970, 5952
12011, 5946, 5967, 5962
*ELEMENT, type=CPS3, ELSET=Surface17
12012, 829, 46, 5971
12013, 13, 829, 5971
12014, 46, 816, 5971
12015, 189, 13, 5971
12016, 8, 189, 5971
12017, 816, 8, 5971
*ELEMENT, type=CPS3, ELSET=Surface18
12018, 195, 830, 15
12019, 830, 16, 49
12020, 195, 16, 830
*ELEMENT, type=CPS3, ELSET=Surface19
12021, 51, 831, 5972
12022, 833, 832, 5972
12023, 53, 52, 5973
12024, 832, 833, 5973
12025, 50, 833, 5972
12026, 832, 51, 5972
12027, 52, 832, 5973
12028, 833, 53, 5973
12029, 831, 50, 5972
*ELEMENT, type=CPS3, ELSET=Surface20
12030, 837, 834, 52
12031, 55, 835, 5974
12032, 835, 54, 5974
12033, 834, 837, 5974
12034, 53, 837, 52
12035, 54, 834, 5974
12036, 836, 55, 5974
12037, 837, 836, 5974
*ELEMENT, type=CPS3, ELSET=Surface21
12038, 840, 56, 5976
12039, 54, 835, 5977
12040, 835, 55, 5977
12041, 57, 840, 5976
12042, 56, 839, 5976
12043, 838, 54, 5977
12044, 841, 57, 5976
12045, 55, 842, 5977
12046, 839, 838, 5975
12047, 842, 841, 5975
12048, 839, 5975, 5976
12049, 5975, 838, 5977
12050, 5975, 841, 5976
12051, 842, 5975, 5977
*ELEMENT, type=CPS3, ELSET=Surface22
12052, 842, 6009, 841
12053, 6048, 6051, 5979
12054, 823, 6057, 45
12055, 53, 6058, 837
12056, 5989, 6043, 6014
12057, 6033, 6037, 6002
12058, 5989, 6037, 6033
12059, 5979, 6051, 6008
12060, 6043, 6055, 6014
12061, 6, 6059, 110
12062, 6009, 6034, 844
12063, 5983, 6025, 6010
12064, 6017, 6067, 104
12065, 6012, 6060, 5990
12066, 6011, 6048, 5979
12067, 94, 6003, 93
12068, 94, 6073, 6003
12069, 96, 6030, 6023
12070, 53, 6062, 6058
12071, 105, 6017, 104
12072, 6020, 6061, 836
12073, 5990, 6050, 6006
12074, 5999, 6046, 6029
12075, 5988, 6041, 6039
12076, 6039, 6041, 6002
12077, 6006, 6031, 5990
12078, 6003, 6040, 93
12079, 5990, 6060, 6045
12080, 842, 6082, 6009
12081, 5991, 6057, 6025
12082, 6029, 6046, 5985
12083, 6040, 6090, 93
12084, 5988, 6060, 6012
12085, 6011, 6042, 5983
12086, 6020, 6094, 6061
12087, 815, 6007, 6
12088, 45, 6007, 815
12089, 6005, 6063, 6027
12090, 6019, 6070, 98
12091, 858, 6027, 6001
12092, 5994, 6051, 6048
12093, 5985, 6068, 6034
12094, 6008, 6064, 5979
12095, 6034, 6068, 6006
12096, 6027, 6063, 5986
12097, 99, 6019, 98
12098, 5986, 6036, 6001
12099, 5990, 6045, 6026
12100, 6065, 6076, 5987
12101, 6026, 6045, 6000
12102, 6028, 6043, 5989
12103, 5997, 6043, 6028
12104, 6008, 6076, 6065
12105, 110, 6085, 6015
12106, 5980, 6098, 6013
12107, 6039, 6060, 5988
12108, 103, 6028, 102
12109, 6028, 6033, 102
12110, 6001, 6054, 858
12111, 5994, 6048, 6047
12112, 6047, 6048, 6005
12113, 6012, 6031, 5978
12114, 6010, 6077, 5983
12115, 6001, 6027, 5986
12116, 6011, 6063, 6048
12117, 5990, 6031, 6012
12118, 5978, 6032, 6012
12119, 6023, 6030, 5984
12120, 6012, 6032, 5988
12121, 844, 6034, 845
12122, 6025, 6089, 5991
12123, 5997, 6067, 6017
12124, 6013, 6098, 6035
12125, 110, 6015, 109
12126, 5998, 6070, 6019
12127, 6014, 6055, 5992
12128, 6016, 6038, 5995
12129, 6009, 6082, 5985
12130, 5983, 6077, 6011
12131, 5983, 6089, 6025
12132, 97, 6030, 96
12133, 102, 6033, 101
12134, 837, 6020, 836
12135, 5987, 6076, 6013
12136, 6021, 6046, 5999
12137, 5986, 6077, 6036
12138, 47, 6075, 825
12139, 5985, 6082, 6029
12140, 858, 6054, 58
12141, 6017, 6072, 5987
12142, 6014, 6044, 5981
12143, 5992, 6044, 6014
12144, 6040, 6093, 6086
12145, 6033, 6091, 101
12146, 6000, 6044, 6022
12147, 5979, 6042, 6011
12148, 6013, 6035, 5987
12149, 6036, 6077, 6010
12150, 6022, 6044, 5992
12151, 6044, 6045, 5981
12152, 853, 6018, 854
12153, 6000, 6045, 6044
12154, 6042, 6097, 5983
12155, 6019, 6032, 5998
12156, 5987, 6072, 6024
12157, 5981, 6037, 6014
12158, 6009, 6092, 841
12159, 6014, 6037, 5989
12160, 5978, 6046, 6021
12161, 6013, 6079, 5980
12162, 6061, 6094, 5999
12163, 6023, 6102, 96
12164, 6064, 6081, 5979
12165, 5979, 6081, 6042
12166, 5985, 6034, 6009
12167, 93, 6090, 5
12168, 857, 6027, 858
12169, 849, 6022, 850
12170, 5978, 6068, 6046
12171, 5992, 6055, 6038
12172, 824, 6099, 6025
12173, 57, 6092, 844
12174, 847, 6026, 848
12175, 5988, 6032, 6019
12176, 6031, 6068, 5978
12177, 5992, 6038, 6016
12178, 844, 6092, 6009
12179, 5987, 6035, 6017
12180, 6017, 6035, 5997
12181, 96, 6102, 95
12182, 6019, 6095, 5988
12183, 6025, 6099, 6010
12184, 6016, 6066, 851
12185, 824, 6025, 823
12186, 6026, 6050, 5990
12187, 6016, 6069, 5992
12188, 95, 6102, 6073
12189, 851, 6069, 6016
12190, 855, 6052, 6047
12191, 846, 6080, 6050
12192, 95, 6073, 94
12193, 106, 6078, 6024
12194, 5989, 6033, 6028
12195, 6038, 6079, 5995
12196, 50, 6086, 833
12197, 6015, 6087, 109
12198, 6004, 6087, 6015
12199, 6025, 6057, 823
12200, 6023, 6084, 5996
12201, 5991, 6059, 6007
12202, 860, 6040, 859
12203, 107, 6078, 106
12204, 6007, 6057, 5991
12205, 5988, 6095, 6041
12206, 6029, 6082, 55
12207, 6050, 6080, 6006
12208, 846, 6050, 847
12209, 6003, 6093, 6040
12210, 5992, 6069, 6022
12211, 6027, 6083, 6005
12212, 6018, 6052, 854
12213, 853, 6053, 6018
12214, 6047, 6052, 5994
12215, 108, 6049, 107
12216, 5999, 6094, 6021
12217, 847, 6050, 6026
12218, 6037, 6039, 6002
12219, 6002, 6091, 6033
12220, 6021, 6094, 5984
12221, 5981, 6039, 6037
12222, 55, 6082, 842
12223, 5995, 6066, 6016
12224, 851, 6066, 852
12225, 6015, 6097, 6004
12226, 6022, 6074, 6000
12227, 849, 6074, 6022
12228, 837, 6058, 6020
12229, 854, 6052, 855
12230, 852, 6053, 853
12231, 45, 6057, 6007
12232, 6007, 6059, 6
12233, 850, 6069, 851
12234, 105, 6072, 6017
12235, 6058, 6062, 5996
12236, 5982, 6071, 6018
12237, 6018, 6096, 5982
12238, 6056, 6076, 5982
12239, 5982, 6076, 6051
12240, 6013, 6076, 6056
12241, 6051, 6076, 6008
12242, 99, 6095, 6019
12243, 6000, 6074, 6026
12244, 6026, 6074, 848
12245, 6056, 6079, 6013
12246, 6024, 6065, 5987
12247, 5993, 6065, 6024
12248, 6032, 6088, 5998
12249, 855, 6047, 856
12250, 6006, 6080, 6034
12251, 833, 6093, 53
12252, 55, 6061, 6029
12253, 5996, 6084, 6058
12254, 5984, 6100, 6021
12255, 6022, 6069, 850
12256, 825, 6075, 6036
12257, 5996, 6102, 6023
12258, 5984, 6084, 6023
12259, 6021, 6088, 5978
12260, 6036, 6075, 6001
12261, 6024, 6072, 106
12262, 6086, 6093, 833
12263, 6005, 6083, 6047
12264, 6024, 6078, 5993
12265, 6047, 6083, 856
12266, 101, 6091, 100
12267, 58, 6054, 843
12268, 6006, 6068, 6031
12269, 6021, 6100, 5998
12270, 103, 6067, 6028
12271, 6029, 6061, 5999
12272, 100, 6095, 99
12273, 6063, 6077, 5986
12274, 6011, 6077, 6063
12275, 857, 6083, 6027
12276, 852, 6066, 6053
12277, 6004, 6097, 6042
12278, 100, 6091, 6041
12279, 6049, 6078, 107
12280, 6028, 6067, 5997
12281, 5998, 6088, 6021
12282, 6048, 6063, 6005
12283, 6038, 6055, 5980
12284, 6041, 6095, 100
12285, 5980, 6055, 6043
12286, 5991, 6085, 6059
12287, 6040, 6086, 859
12288, 104, 6067, 103
12289, 106, 6072, 105
12290, 5981, 6060, 6039
12291, 836, 6061, 55
12292, 860, 6090, 6040
12293, 6030, 6100, 5984
12294, 6030, 6070, 5998
12295, 6045, 6060, 5981
12296, 6049, 6081, 5993
12297, 6004, 6081, 6049
12298, 98, 6070, 97
12299, 97, 6070, 6030
12300, 845, 6080, 846
12301, 6020, 6084, 5984
12302, 5980, 6079, 6038
12303, 5984, 6094, 6020
12304, 5998, 6100, 6030
12305, 848, 6074, 849
12306, 5978, 6088, 6032
12307, 6046, 6068, 5985
12308, 108, 6087, 6049
12309, 6049, 6087, 6004
12310, 856, 6083, 857
12311, 6035, 6098, 5997
12312, 109, 6087, 108
12313, 6053, 6066, 5995
12314, 825, 6099, 824
12315, 6073, 6102, 5996
12316, 6034, 6080, 845
12317, 5994, 6071, 6051
12318, 6008, 6065, 6064
12319, 6064, 6065, 5993
12320, 6042, 6081, 6004
12321, 6052, 6071, 5994
12322, 6010, 6099, 6036
12323, 859, 6086, 50
12324, 5997, 6098, 6043
12325, 6041, 6091, 6002
12326, 6036, 6099, 825
12327, 5, 6090, 860
12328, 841, 6092, 57
12329, 5993, 6078, 6049
12330, 6062, 6073, 5996
12331, 5995, 6096, 6053
12332, 6051, 6071, 5982
12333, 6043, 6098, 5980
12334, 6018, 6071, 6052
12335, 843, 6101, 47
12336, 5993, 6081, 6064
12337, 6056, 6096, 5995
12338, 6003, 6073, 6062
12339, 5991, 6089, 6085
12340, 5982, 6096, 6056
12341, 6053, 6096, 6018
12342, 6089, 6097, 6015
12343, 5995, 6079, 6056
12344, 6001, 6101, 6054
12345, 6075, 6101, 6001
12346, 53, 6093, 6062
12347, 6058, 6084, 6020
12348, 47, 6101, 6075
12349, 5983, 6097, 6089
12350, 6054, 6101, 843
12351, 6085, 6089, 6015
12352, 6059, 6085, 110
12353, 6062, 6093, 6003
*ELEMENT, type=CPS3, ELSET=Surface23
12354, 821, 6107, 6105
12355, 6105, 6107, 864
12356, 58, 6106, 861
12357, 59, 6106, 868
12358, 864, 6107, 863
12359, 822, 6107, 821
12360, 819, 6104, 818
12361, 867, 6104, 866
12362, 821, 6105, 820
12363, 865, 6105, 864
12364, 6104, 6108, 866
12365, 865, 6108, 6105
12366, 819, 6115, 6104
12367, 6105, 6115, 820
12368, 817, 6111, 47
12369, 6104, 6110, 818
12370, 867, 6114, 6104
12371, 843, 6109, 58
12372, 817, 6110, 6103
12373, 6104, 6115, 6108
12374, 866, 6108, 865
12375, 6108, 6115, 6105
12376, 6106, 6114, 868
12377, 6103, 6111, 817
12378, 6103, 6114, 6106
12379, 818, 6110, 817
12380, 822, 6113, 6107
12381, 6107, 6112, 863
12382, 58, 6109, 6106
12383, 862, 6113, 48
12384, 60, 6112, 862
12385, 48, 6113, 822
12386, 863, 6112, 60
12387, 868, 6114, 867
12388, 6109, 6111, 6103
12389, 820, 6115, 819
12390, 47, 6111, 843
12391, 6104, 6114, 6110
12392, 843, 6111, 6109
12393, 6110, 6114, 6103
12394, 6107, 6113, 6112
12395, 6112, 6113, 862
12396, 6106, 6109, 6103
12397, 861, 6106, 59
*ELEMENT, type=CPS3, ELSET=Surface24
12398, 840, 57, 6118
12399, 61, 869, 6117
12400, 57, 871, 6118
12401, 870, 61, 6117
12402, 56, 840, 6118
12403, 869, 62, 6117
12404, 872, 56, 6118
12405, 62, 873, 6117
12406, 873, 872, 6116
12407, 871, 870, 6116
12408, 6116, 870, 6117
12409, 871, 6116, 6118
12410, 873, 6116, 6117
12411, 6116, 872, 6118
*ELEMENT, type=CPS3, ELSET=Surface25
12412, 213, 6119, 3
12413, 6119, 6121, 3
12414, 87, 6121, 4
12415, 63, 6124, 876
12416, 4, 6121, 874
12417, 877, 6120, 64
12418, 19, 6125, 211
12419, 213, 6123, 6119
12420, 6119, 6123, 876
12421, 64, 6120, 875
12422, 875, 6125, 19
12423, 212, 6123, 213
12424, 876, 6123, 877
12425, 876, 6124, 6119
12426, 6119, 6124, 6121
12427, 211, 6122, 212
12428, 6122, 6125, 6120
12429, 877, 6123, 6122
12430, 874, 6124, 63
12431, 6121, 6124, 874
12432, 6120, 6125, 875
12433, 6122, 6123, 212
12434, 3, 6121, 87
12435, 211, 6125, 6122
12436, 877, 6122, 6120
*ELEMENT, type=CPS3, ELSET=Surface26
12437, 2, 6126, 203
12438, 2, 6128, 6126
12439, 1, 6128, 81
12440, 881, 6131, 66
12441, 879, 6128, 1
12442, 65, 6127, 880
12443, 205, 6132, 18
12444, 6126, 6130, 203
12445, 881, 6130, 6126
12446, 878, 6127, 65
12447, 18, 6132, 878
12448, 203, 6130, 204
12449, 880, 6130, 881
12450, 6126, 6131, 881
12451, 6128, 6131, 6126
12452, 204, 6129, 205
12453, 6127, 6132, 6129
12454, 6129, 6130, 880
12455, 66, 6131, 879
12456, 879, 6131, 6128
12457, 878, 6132, 6127
12458, 204, 6130, 6129
12459, 81, 6128, 2
12460, 6129, 6132, 205
12461, 6127, 6129, 880
*ELEMENT, type=CPS3, ELSET=Surface27
12462, 885, 884, 282
12463, 282, 281, 885
12464, 67, 882, 6134
12465, 885, 281, 886
12466, 886, 281, 280
12467, 279, 830, 6133
12468, 886, 280, 887
12469, 887, 280, 279
12470, 882, 23, 6134
12471, 883, 67, 6134
12472, 23, 283, 6134
12473, 830, 49, 6133
12474, 887, 279, 6133
12475, 884, 883, 6135
12476, 283, 282, 6135
12477, 282, 884, 6135
12478, 883, 6134, 6135
12479, 6134, 283, 6135
12480, 49, 887, 6133
12481, 15, 830, 279
*ELEMENT, type=CPS3, ELSET=Surface28
12482, 900, 24, 6137
12483, 23, 882, 6136
12484, 889, 285, 888
12485, 899, 295, 898
12486, 888, 285, 284
12487, 296, 295, 899
12488, 890, 286, 889
12489, 898, 294, 897
12490, 889, 286, 285
12491, 295, 294, 898
12492, 882, 67, 6136
12493, 60, 900, 6137
12494, 897, 293, 896
12495, 891, 287, 890
12496, 294, 293, 897
12497, 890, 287, 286
12498, 24, 296, 6137
12499, 284, 23, 6136
12500, 896, 292, 895
12501, 892, 288, 891
12502, 293, 292, 896
12503, 891, 288, 287
12504, 895, 291, 894
12505, 893, 289, 892
12506, 893, 894, 290
12507, 899, 60, 6137
12508, 67, 888, 6136
12509, 292, 291, 895
12510, 892, 289, 288
12511, 291, 290, 894
12512, 893, 290, 289
12513, 888, 284, 6136
12514, 296, 899, 6137
*ELEMENT, type=CPS3, ELSET=Surface29
12515, 862, 6140, 6138
12516, 6139, 6140, 862
12517, 24, 6138, 297
12518, 297, 6139, 25
12519, 25, 6139, 901
12520, 900, 6138, 24
12521, 6138, 6140, 297
12522, 297, 6140, 6139
12523, 862, 48, 901
12524, 60, 862, 900
12525, 862, 6138, 900
12526, 901, 6139, 862
*ELEMENT, type=CPS3, ELSET=Surface30
12527, 829, 6142, 46
12528, 901, 6141, 25
12529, 13, 6142, 829
12530, 48, 6141, 901
12531, 25, 6141, 298
12532, 300, 6142, 13
12533, 46, 6142, 828
12534, 826, 6141, 48
12535, 6143, 6144, 827
12536, 299, 6144, 6143
12537, 299, 6143, 300
12538, 298, 6144, 299
12539, 827, 6144, 826
12540, 828, 6143, 827
12541, 826, 6144, 6141
12542, 6141, 6144, 298
12543, 300, 6143, 6142
12544, 6142, 6143, 828
*ELEMENT, type=CPS3, ELSET=Surface31
12545, 16, 318, 49
12546, 902, 313, 27
12547, 318, 903, 49
12548, 68, 908, 902
12549, 907, 314, 313
12550, 902, 908, 313
12551, 907, 313, 908
12552, 906, 315, 314
12553, 906, 314, 907
12554, 905, 316, 315
12555, 905, 315, 906
12556, 317, 316, 904
12557, 316, 905, 904
12558, 318, 317, 903
12559, 903, 317, 904
*ELEMENT, type=CPS3, ELSET=Surface32
12560, 920, 6156, 909
12561, 911, 6154, 912
12562, 913, 6153, 914
12563, 915, 6152, 916
12564, 917, 6151, 918
12565, 920, 909, 69
12566, 909, 6156, 6150
12567, 6149, 6154, 911
12568, 6148, 6153, 913
12569, 6147, 6152, 915
12570, 6146, 6151, 917
12571, 912, 6154, 6148
12572, 914, 6153, 6147
12573, 916, 6152, 6146
12574, 918, 6151, 6145
12575, 6149, 6150, 922
12576, 910, 6150, 6149
12577, 922, 6150, 921
12578, 910, 6149, 911
12579, 912, 6148, 913
12580, 914, 6147, 915
12581, 916, 6146, 917
12582, 918, 6145, 919
12583, 931, 6145, 930
12584, 929, 6146, 928
12585, 927, 6147, 926
12586, 925, 6148, 924
12587, 923, 6149, 922
12588, 909, 6150, 910
12589, 6145, 6151, 930
12590, 929, 6151, 6146
12591, 6146, 6152, 928
12592, 927, 6152, 6147
12593, 6147, 6153, 926
12594, 925, 6153, 6148
12595, 6148, 6154, 924
12596, 923, 6154, 6149
12597, 930, 6151, 929
12598, 928, 6152, 927
12599, 926, 6153, 925
12600, 924, 6154, 923
12601, 931, 6157, 6145
12602, 6145, 6155, 919
12603, 52, 6155, 832
12604, 919, 6155, 52
12605, 6150, 6156, 921
12606, 70, 6156, 920
12607, 921, 6156, 70
12608, 832, 6157, 51
12609, 51, 6157, 931
12610, 6145, 6157, 6155
12611, 6155, 6157, 832
*ELEMENT, type=CPS3, ELSET=Surface33
12612, 941, 69, 909
12613, 834, 919, 52
12614, 940, 909, 910
12615, 932, 911, 912
12616, 932, 912, 933
12617, 933, 912, 913
12618, 934, 933, 913
12619, 934, 913, 914
12620, 934, 914, 935
12621, 935, 914, 915
12622, 54, 6158, 834
12623, 935, 915, 936
12624, 936, 915, 916
12625, 937, 936, 916
12626, 937, 916, 917
12627, 937, 917, 938
12628, 938, 917, 918
12629, 938, 918, 939
12630, 71, 940, 910
12631, 940, 941, 909
12632, 834, 6158, 919
12633, 939, 6158, 54
12634, 71, 6159, 932
12635, 910, 6159, 71
12636, 919, 6158, 918
12637, 918, 6158, 939
12638, 932, 6159, 911
12639, 911, 6159, 910
*ELEMENT, type=CPS3, ELSET=Surface34
12640, 942, 6165, 6163
12641, 6163, 6175, 942
12642, 56, 6162, 839
12643, 938, 6170, 6162
12644, 873, 6163, 872
12645, 948, 6168, 947
12646, 943, 6165, 942
12647, 933, 6168, 932
12648, 6162, 6169, 938
12649, 939, 54, 838
12650, 6164, 6171, 935
12651, 56, 6166, 6162
12652, 935, 6171, 934
12653, 6167, 6172, 936
12654, 945, 6171, 6164
12655, 6163, 6166, 872
12656, 6163, 6165, 6160
12657, 939, 6170, 938
12658, 6162, 6170, 839
12659, 6162, 6166, 6160
12660, 937, 6167, 936
12661, 946, 6171, 945
12662, 873, 6175, 6163
12663, 6160, 6166, 6163
12664, 6161, 6172, 6167
12665, 6160, 6169, 6162
12666, 942, 6175, 62
12667, 872, 6166, 56
12668, 838, 6170, 939
12669, 839, 6170, 838
12670, 932, 6168, 948
12671, 6164, 6176, 945
12672, 935, 6172, 6164
12673, 6161, 6176, 6164
12674, 62, 6175, 873
12675, 6164, 6172, 6161
12676, 938, 6169, 937
12677, 6167, 6169, 6160
12678, 936, 6172, 935
12679, 934, 6174, 933
12680, 945, 6176, 944
12681, 944, 6173, 943
12682, 937, 6169, 6167
12683, 6168, 6174, 947
12684, 933, 6174, 6168
12685, 943, 6173, 6165
12686, 947, 6174, 946
12687, 6165, 6177, 6160
12688, 6173, 6177, 6165
12689, 6161, 6177, 6173
12690, 6171, 6174, 934
12691, 6160, 6177, 6167
12692, 946, 6174, 6171
12693, 6167, 6177, 6161
12694, 6173, 6176, 6161
12695, 944, 6176, 6173
12696, 932, 948, 71
*ELEMENT, type=CPS3, ELSET=Surface35
12697, 6180, 6196, 6246
12698, 6188, 6200, 6218
12699, 6200, 6181, 6218
12700, 889, 888, 6229
12701, 6196, 6180, 6227
12702, 888, 6212, 6229
12703, 6251, 6209, 6272
12704, 6198, 6190, 6209
12705, 6203, 951, 6233
12706, 6201, 890, 6229
12707, 6198, 6209, 6251
12708, 6211, 6193, 6226
12709, 6185, 6211, 6226
12710, 6182, 6199, 6224
12711, 6219, 961, 6240
12712, 956, 6220, 6225
12713, 962, 961, 6219
12714, 951, 950, 6233
12715, 949, 6207, 6233
12716, 6201, 6183, 6238
12717, 6220, 6192, 6221
12718, 6186, 6220, 6221
12719, 898, 897, 6208
12720, 960, 958, 6217
12721, 890, 889, 6229
12722, 6183, 6204, 6238
12723, 6181, 6251, 6272
12724, 957, 956, 6225
12725, 950, 949, 6233
12726, 6202, 6180, 6246
12727, 6191, 6223, 6256
12728, 6190, 6198, 6254
12729, 892, 891, 6204
12730, 6199, 6182, 6269
12731, 956, 955, 6220
12732, 898, 6208, 6239
12733, 6206, 6182, 6215
12734, 6196, 6214, 6246
12735, 6205, 6184, 6257
12736, 6203, 6185, 6213
12737, 6223, 6195, 6256
12738, 6184, 6210, 6257
12739, 6220, 955, 6241
12740, 6189, 6203, 6213
12741, 6214, 6196, 6270
12742, 6185, 6207, 6260
12743, 6195, 6225, 6227
12744, 6211, 6185, 6260
12745, 958, 960, 73
12746, 6225, 6186, 6227
12747, 6214, 6183, 6246
12748, 6181, 6200, 6251
12749, 6205, 899, 6239
12750, 960, 6217, 6240
12751, 892, 6204, 6234
12752, 6200, 6188, 6258
12753, 6178, 6213, 6226
12754, 6183, 6201, 6253
12755, 6222, 963, 6245
12756, 6216, 6178, 6226
12757, 6204, 6190, 6234
12758, 6178, 6216, 6242
12759, 6187, 6212, 6267
12760, 6184, 6205, 6239
12761, 964, 963, 6222
12762, 6218, 6181, 6244
12763, 6197, 6218, 6244
12764, 6200, 895, 6236
12765, 865, 864, 6210
12766, 6201, 6187, 6253
12767, 895, 6200, 6258
12768, 867, 866, 6211
12769, 890, 6201, 6238
12770, 6190, 6204, 6265
12771, 6185, 6203, 6233
12772, 6189, 6206, 6261
12773, 6216, 6228, 6242
12774, 6187, 6201, 6229
12775, 899, 898, 6239
12776, 951, 6203, 6232
12777, 6208, 6184, 6239
12778, 6222, 6187, 6267
12779, 6184, 6208, 6228
12780, 6236, 894, 6254
12781, 961, 960, 6240
12782, 6187, 6202, 6253
12783, 6208, 6188, 6228
12784, 6179, 6221, 6224
12785, 6207, 6185, 6233
12786, 6221, 6179, 6250
12787, 6182, 6224, 6248
12788, 6217, 959, 6223
12789, 899, 6205, 6263
12790, 6250, 6179, 6270
12791, 6179, 6224, 6268
12792, 6182, 6206, 6237
12793, 6220, 6186, 6225
12794, 6194, 6222, 6245
12795, 6206, 6189, 6237
12796, 6207, 949, 6266
12797, 958, 959, 6217
12798, 6196, 6227, 6250
12799, 6198, 6236, 6254
12800, 6191, 6217, 6223
12801, 6180, 6202, 6249
12802, 6203, 6189, 6232
12803, 6234, 6190, 6254
12804, 6204, 6183, 6265
12805, 6194, 6219, 6235
12806, 6204, 891, 6238
12807, 6215, 6182, 6248
12808, 6202, 6187, 6259
12809, 6213, 6178, 6230
12810, 6208, 897, 6231
12811, 6188, 6231, 6258
12812, 6189, 6213, 6230
12813, 6232, 6189, 6261
12814, 6257, 863, 6263
12815, 868, 6260, 6266
12816, 6192, 6220, 6241
12817, 6188, 6208, 6231
12818, 865, 6210, 6243
12819, 6211, 866, 6243
12820, 6213, 6185, 6226
12821, 954, 6215, 6241
12822, 6212, 6187, 6229
12823, 6194, 6235, 6249
12824, 6224, 6199, 6268
12825, 6210, 6193, 6243
12826, 6193, 6211, 6243
12827, 6193, 6216, 6226
12828, 6221, 6192, 6224
12829, 959, 72, 6223
12830, 952, 951, 6232
12831, 6205, 6257, 6263
12832, 6260, 6207, 6266
12833, 6209, 6190, 6247
12834, 6216, 6184, 6228
12835, 6191, 6219, 6240
12836, 6183, 6214, 6265
12837, 6210, 6184, 6255
12838, 955, 954, 6241
12839, 6230, 6197, 6237
12840, 6212, 888, 6271
12841, 864, 863, 6257
12842, 868, 867, 6260
12843, 891, 890, 6238
12844, 6190, 6214, 6247
12845, 897, 896, 6231
12846, 6210, 864, 6257
12847, 867, 6211, 6260
12848, 6219, 6191, 6235
12849, 894, 893, 6254
12850, 6195, 6223, 6252
12851, 6227, 6186, 6250
12852, 6237, 6197, 6269
12853, 6214, 6190, 6265
12854, 6215, 6192, 6241
12855, 6188, 6218, 6242
12856, 6215, 954, 6262
12857, 6193, 6210, 6255
12858, 6223, 72, 6252
12859, 6206, 6215, 6262
12860, 6235, 6191, 6256
12861, 6267, 6212, 6271
12862, 895, 894, 6236
12863, 6192, 6215, 6248
12864, 965, 6267, 6271
12865, 893, 892, 6234
12866, 896, 895, 6258
12867, 6216, 6193, 6255
12868, 962, 6219, 6245
12869, 6184, 6216, 6255
12870, 72, 957, 6252
12871, 953, 6261, 6262
12872, 949, 59, 6266
12873, 60, 899, 6263
12874, 6235, 6180, 6249
12875, 6217, 6191, 6240
12876, 6218, 6197, 6264
12877, 6219, 6194, 6245
12878, 6187, 6222, 6259
12879, 6179, 6247, 6270
12880, 6247, 6214, 6270
12881, 863, 60, 6263
12882, 6222, 6194, 6259
12883, 59, 868, 6266
12884, 963, 962, 6245
12885, 953, 952, 6261
12886, 965, 964, 6267
12887, 6189, 6230, 6237
12888, 866, 865, 6243
12889, 6261, 6206, 6262
12890, 6186, 6221, 6250
12891, 67, 965, 6271
12892, 954, 953, 6262
12893, 6228, 6188, 6242
12894, 6246, 6183, 6253
12895, 957, 6225, 6252
12896, 6202, 6246, 6253
12897, 888, 67, 6271
12898, 6195, 6227, 6256
12899, 6224, 6192, 6248
12900, 6244, 6199, 6269
12901, 6227, 6180, 6256
12902, 964, 6222, 6267
12903, 6182, 6237, 6269
12904, 6230, 6178, 6264
12905, 6197, 6230, 6264
12906, 6225, 6195, 6252
12907, 6196, 6250, 6270
12908, 6200, 6236, 6251
12909, 6236, 6198, 6251
12910, 893, 6234, 6254
12911, 6231, 896, 6258
12912, 6249, 6202, 6259
12913, 952, 6232, 6261
12914, 6180, 6235, 6256
12915, 6209, 6268, 6272
12916, 6268, 6199, 6272
12917, 6242, 6218, 6264
12918, 6178, 6242, 6264
12919, 6244, 6181, 6272
12920, 6199, 6244, 6272
12921, 6197, 6244, 6269
12922, 6194, 6249, 6259
12923, 6209, 6247, 6268
12924, 6247, 6179, 6268
*ELEMENT, type=CPS3, ELSET=Surface36
12925, 977, 6311, 6301
12926, 6275, 6286, 6278
12927, 954, 6289, 953
12928, 6295, 6330, 6279
12929, 6292, 6295, 974
12930, 975, 6292, 974
12931, 6286, 6326, 952
12932, 952, 6326, 951
12933, 6297, 6315, 6280
12934, 6286, 6307, 6278
12935, 949, 857, 858
12936, 6292, 6330, 6295
12937, 6278, 6287, 6275
12938, 977, 6301, 976
12939, 952, 6307, 6286
12940, 6283, 6312, 6290
12941, 950, 6326, 6285
12942, 846, 6293, 6282
12943, 954, 6305, 6289
12944, 6301, 6311, 6281
12945, 6285, 6326, 6286
12946, 974, 6295, 973
12947, 6276, 6303, 6291
12948, 6289, 6307, 953
12949, 950, 6316, 949
12950, 6285, 6316, 950
12951, 854, 6322, 6275
12952, 6274, 6312, 6283
12953, 870, 6311, 61
12954, 6275, 6317, 854
12955, 6274, 6318, 6296
12956, 6291, 6304, 6276
12957, 975, 6313, 6292
12958, 951, 6326, 950
12959, 61, 6311, 977
12960, 6296, 6309, 6274
12961, 6288, 6315, 6297
12962, 949, 6316, 857
12963, 6290, 6310, 6283
12964, 6276, 6304, 6298
12965, 956, 6300, 955
12966, 6314, 6315, 6288
12967, 6295, 6318, 6283
12968, 967, 6306, 966
12969, 6295, 6310, 973
12970, 6280, 6315, 6273
12971, 968, 6300, 967
12972, 6278, 6307, 6289
12973, 845, 6281, 844
12974, 6291, 6332, 970
12975, 6277, 6304, 6291
12976, 970, 6308, 6291
12977, 6286, 6322, 6285
12978, 6298, 6304, 6280
12979, 6285, 6322, 856
12980, 6289, 6327, 6278
12981, 6283, 6310, 6295
12982, 6283, 6318, 6274
12983, 856, 6322, 855
12984, 6287, 6317, 6275
12985, 968, 6323, 6300
12986, 6276, 6328, 6303
12987, 6293, 6330, 6282
12988, 6282, 6330, 6292
12989, 957, 6306, 956
12990, 6291, 6308, 6277
12991, 955, 6321, 954
12992, 956, 6306, 6300
12993, 6290, 6334, 6310
12994, 6274, 6299, 6297
12995, 6300, 6306, 967
12996, 6278, 6327, 6298
12997, 954, 6321, 6305
12998, 6282, 6302, 846
12999, 852, 6314, 6288
13000, 6300, 6321, 955
13001, 845, 6302, 6281
13002, 6279, 6318, 6295
13003, 6274, 6309, 6299
13004, 844, 6319, 57
13005, 6289, 6328, 6327
13006, 57, 6319, 871
13007, 852, 6288, 851
13008, 6305, 6328, 6289
13009, 6303, 6328, 6284
13010, 855, 6322, 854
13011, 6292, 6313, 6282
13012, 971, 6308, 970
13013, 953, 6307, 952
13014, 6277, 6308, 6290
13015, 6300, 6323, 6284
13016, 6281, 6302, 6301
13017, 847, 6293, 846
13018, 976, 6313, 975
13019, 849, 6331, 848
13020, 851, 6299, 850
13021, 6301, 6313, 976
13022, 6297, 6299, 6288
13023, 6298, 6327, 6276
13024, 6301, 6302, 6282
13025, 6273, 6298, 6280
13026, 6275, 6322, 6286
13027, 6280, 6324, 6297
13028, 6290, 6312, 6277
13029, 966, 6306, 957
13030, 6277, 6324, 6304
13031, 6310, 6334, 972
13032, 6308, 6334, 6290
13033, 973, 6310, 972
13034, 6304, 6324, 6280
13035, 6288, 6299, 851
13036, 969, 6323, 968
13037, 6298, 6320, 6278
13038, 6317, 6329, 6314
13039, 6278, 6320, 6287
13040, 6303, 6323, 969
13041, 6294, 6315, 6314
13042, 6297, 6312, 6274
13043, 6281, 6319, 844
13044, 6314, 6329, 6294
13045, 850, 6309, 849
13046, 6273, 6320, 6298
13047, 971, 6334, 6308
13048, 6284, 6321, 6300
13049, 6282, 6313, 6301
13050, 846, 6302, 845
13051, 854, 6317, 853
13052, 848, 6325, 847
13053, 853, 6317, 6314
13054, 6284, 6323, 6303
13055, 6296, 6331, 849
13056, 857, 6316, 856
13057, 970, 6332, 969
13058, 853, 6314, 852
13059, 6299, 6309, 850
13060, 972, 6334, 971
13061, 6327, 6328, 6276
13062, 6281, 6333, 6319
13063, 6311, 6333, 6281
13064, 969, 6332, 6303
13065, 6287, 6329, 6317
13066, 6312, 6324, 6277
13067, 871, 6333, 870
13068, 6303, 6332, 6291
13069, 6279, 6330, 6325
13070, 6284, 6328, 6305
13071, 849, 6309, 6296
13072, 6305, 6321, 6284
13073, 870, 6333, 6311
13074, 6294, 6329, 6287
13075, 856, 6316, 6285
13076, 6287, 6320, 6294
13077, 6273, 6315, 6294
13078, 6325, 6331, 6279
13079, 6297, 6324, 6312
13080, 847, 6325, 6293
13081, 848, 6331, 6325
13082, 6319, 6333, 871
13083, 6279, 6331, 6318
13084, 6325, 6330, 6293
13085, 6294, 6320, 6273
13086, 6318, 6331, 6296
13087, 58, 861, 858
13088, 861, 59, 858
13089, 949, 858, 59
13090, 957, 72, 966
*ELEMENT, type=CPS3, ELSET=Surface37
13091, 869, 61, 978
13092, 978, 6335, 869
13093, 62, 6335, 979
13094, 869, 6335, 62
13095, 979, 6335, 41
13096, 41, 6335, 978
*ELEMENT, type=CPS3, ELSET=Surface38
13097, 6346, 6365, 980
13098, 6336, 6361, 982
13099, 6339, 6362, 6349
13100, 6342, 6374, 6350
13101, 6353, 6357, 6340
13102, 6349, 6363, 6339
13103, 6338, 6346, 980
13104, 6349, 6369, 6341
13105, 6352, 6362, 6339
13106, 6352, 6381, 6340
13107, 6340, 6381, 6353
13108, 6350, 6389, 6342
13109, 6341, 6379, 6349
13110, 982, 6370, 6336
13111, 6338, 6380, 6346
13112, 68, 6367, 908
13113, 964, 6374, 6366
13114, 6354, 6376, 6338
13115, 6350, 6374, 964
13116, 981, 6338, 980
13117, 6339, 6368, 6352
13118, 6371, 6385, 6351
13119, 6339, 6385, 6371
13120, 6365, 6367, 68
13121, 6347, 6372, 908
13122, 6340, 6383, 6355
13123, 6340, 6362, 6352
13124, 6355, 6383, 963
13125, 6353, 6370, 6343
13126, 6343, 6377, 6353
13127, 6357, 6383, 6340
13128, 6338, 6361, 6354
13129, 961, 6357, 6348
13130, 981, 6361, 6338
13131, 961, 6383, 6357
13132, 963, 6383, 962
13133, 6344, 6358, 6356
13134, 6357, 6377, 6348
13135, 6354, 6368, 6345
13136, 6359, 6374, 6342
13137, 962, 6383, 961
13138, 6353, 6381, 6370
13139, 982, 6361, 981
13140, 6370, 6381, 6336
13141, 6349, 6379, 6375
13142, 6353, 6377, 6357
13143, 908, 6367, 6347
13144, 908, 6372, 907
13145, 6356, 6387, 6344
13146, 6355, 6369, 6340
13147, 6355, 6366, 6341
13148, 6341, 6369, 6355
13149, 6347, 6376, 6345
13150, 963, 6366, 6355
13151, 6362, 6369, 6349
13152, 907, 6360, 906
13153, 6345, 6376, 6354
13154, 6349, 6375, 6363
13155, 6345, 6372, 6347
13156, 6343, 6382, 6377
13157, 6387, 6388, 903
13158, 6354, 6386, 6368
13159, 6375, 6379, 6337
13160, 6344, 6387, 6364
13161, 6351, 6385, 6364
13162, 6354, 6361, 6336
13163, 6359, 6379, 6341
13164, 905, 6364, 904
13165, 907, 6372, 6360
13166, 6364, 6390, 6351
13167, 6356, 6388, 6387
13168, 6342, 6373, 6359
13169, 6363, 6385, 6339
13170, 6346, 6367, 6365
13171, 964, 6366, 963
13172, 6342, 6389, 883
13173, 6344, 6375, 6358
13174, 6359, 6373, 6337
13175, 983, 6370, 982
13176, 6378, 6384, 6358
13177, 886, 6384, 6378
13178, 6364, 6385, 6344
13179, 904, 6387, 903
13180, 6341, 6374, 6359
13181, 985, 6365, 68
13182, 6340, 6369, 6362
13183, 6360, 6372, 6345
13184, 6345, 6371, 6360
13185, 905, 6390, 6364
13186, 6366, 6374, 6341
13187, 6360, 6371, 6351
13188, 6346, 6380, 6367
13189, 885, 6373, 884
13190, 6360, 6390, 906
13191, 6358, 6375, 6337
13192, 49, 6388, 887
13193, 984, 6382, 6343
13194, 6337, 6379, 6359
13195, 6336, 6386, 6354
13196, 886, 6378, 885
13197, 6351, 6390, 6360
13198, 6337, 6378, 6358
13199, 6377, 6382, 6348
13200, 6363, 6375, 6344
13201, 6384, 6388, 6356
13202, 6368, 6371, 6345
13203, 6358, 6384, 6356
13204, 887, 6388, 6384
13205, 903, 6388, 49
13206, 887, 6384, 886
13207, 6368, 6386, 6352
13208, 6339, 6371, 6368
13209, 965, 6350, 964
13210, 883, 6389, 67
13211, 6373, 6378, 6337
13212, 961, 6348, 960
13213, 884, 6342, 883
13214, 984, 6343, 983
13215, 73, 6382, 984
13216, 960, 6382, 73
13217, 885, 6378, 6373
13218, 6367, 6380, 6347
13219, 67, 6389, 965
13220, 906, 6390, 905
13221, 6376, 6380, 6338
13222, 6344, 6385, 6363
13223, 884, 6373, 6342
13224, 6364, 6387, 904
13225, 6347, 6380, 6376
13226, 6343, 6370, 983
13227, 6381, 6386, 6336
13228, 6352, 6386, 6381
13229, 6348, 6382, 960
13230, 965, 6389, 6350
13231, 980, 6365, 74
13232, 74, 6365, 985
*ELEMENT, type=CPS3, ELSET=Surface39
13233, 76, 6391, 988
13234, 881, 6392, 880
13235, 880, 6392, 989
13236, 991, 6391, 76
13237, 880, 989, 65
13238, 986, 75, 988
13239, 991, 6393, 6391
13240, 988, 6391, 986
13241, 990, 6393, 991
13242, 66, 6392, 881
13243, 987, 6393, 66
13244, 986, 6391, 987
13245, 989, 6392, 990
13246, 6391, 6393, 987
13247, 66, 6393, 6392
13248, 6392, 6393, 990
*ELEMENT, type=CPS3, ELSET=Surface40
13249, 995, 6394, 874
13250, 992, 6395, 994
13251, 77, 6395, 992
13252, 874, 6394, 4
13253, 4, 6394, 993
13254, 993, 6395, 77
13255, 994, 6394, 995
13256, 994, 6395, 6394
13257, 6394, 6395, 993
13258, 874, 63, 995
13259, 994, 78, 992
*ELEMENT, type=CPS3, ELSET=Surface41
13260, 879, 6396, 987
13261, 986, 6397, 997
13262, 997, 6397, 79
13263, 1, 6396, 879
13264, 996, 6396, 1
13265, 79, 6397, 996
13266, 987, 6396, 986
13267, 6396, 6397, 986
13268, 996, 6397, 6396
13269, 987, 66, 879
13270, 997, 75, 986
*ELEMENT, type=CPS3, ELSET=Surface42
13271, 79, 6399, 997
13272, 999, 6399, 6398
13273, 6398, 6399, 1000
13274, 998, 6398, 1001
13275, 1000, 6399, 79
13276, 999, 6398, 998
13277, 1001, 6398, 1000
13278, 1001, 35, 998
13279, 997, 6399, 75
13280, 75, 6399, 999
*ELEMENT, type=CPS3, ELSET=Surface43
13281, 1005, 6400, 80
13282, 877, 6401, 876
13283, 1004, 6401, 877
13284, 80, 6400, 1002
13285, 877, 64, 1004
13286, 78, 994, 1005
13287, 6400, 6402, 1002
13288, 994, 6400, 1005
13289, 1002, 6402, 1003
13290, 876, 6401, 63
13291, 63, 6402, 995
13292, 995, 6400, 994
13293, 1003, 6401, 1004
13294, 995, 6402, 6400
13295, 6401, 6402, 63
13296, 1003, 6402, 6401
*ELEMENT, type=CPS3, ELSET=Surface44
13297, 992, 6404, 77
13298, 6403, 6404, 1006
13299, 1009, 6404, 6403
13300, 1008, 6403, 1007
13301, 77, 6404, 1009
13302, 1007, 6403, 1006
13303, 1009, 6403, 1008
13304, 1007, 36, 1008
13305, 78, 6404, 992
13306, 1006, 6404, 78
*ELEMENT, type=CPS3, ELSET=Surface45
13307, 1010, 682, 38
13308, 920, 69, 39
13309, 682, 920, 39
13310, 920, 1010, 70
13311, 920, 682, 1010
*ELEMENT, type=CPS3, ELSET=Surface46
13312, 940, 684, 941
13313, 940, 71, 6405
13314, 1011, 40, 6405
13315, 684, 940, 6405
13316, 40, 684, 6405
13317, 683, 39, 69
13318, 941, 683, 69
13319, 71, 1011, 6405
13320, 684, 683, 941
*ELEMENT, type=CPS3, ELSET=Surface47
13321, 62, 979, 6407
13322, 1011, 71, 6406
13323, 979, 41, 6407
13324, 40, 1011, 6406
13325, 41, 691, 6407
13326, 685, 40, 6406
13327, 71, 948, 6406
13328, 942, 62, 6407
13329, 686, 6412, 6413
13330, 945, 6409, 6411
13331, 946, 945, 6411
13332, 943, 942, 6410
13333, 944, 943, 6408
13334, 6412, 947, 6413
13335, 6411, 687, 6413
13336, 687, 686, 6413
13337, 689, 688, 6409
13338, 6409, 688, 6411
13339, 686, 685, 6412
13340, 690, 689, 6408
13341, 946, 6411, 6413
13342, 944, 6408, 6409
13343, 6408, 943, 6410
13344, 945, 944, 6409
13345, 947, 946, 6413
13346, 948, 947, 6412
13347, 688, 687, 6411
13348, 6408, 689, 6409
13349, 691, 690, 6410
13350, 690, 6408, 6410
13351, 942, 6407, 6410
13352, 6406, 948, 6412
13353, 6407, 691, 6410
13354, 685, 6406, 6412
*ELEMENT, type=CPS3, ELSET=Surface48
13355, 704, 703, 72
13356, 693, 976, 975
13357, 694, 693, 975
13358, 978, 61, 6414
13359, 694, 975, 974
13360, 974, 695, 694
13361, 704, 72, 959
13362, 41, 978, 6414
13363, 974, 973, 695
13364, 973, 696, 695
13365, 61, 977, 6414
13366, 692, 41, 6414
13367, 972, 696, 973
13368, 972, 697, 696
13369, 971, 697, 972
13370, 971, 698, 697
13371, 971, 970, 698
13372, 970, 699, 698
13373, 72, 703, 966
13374, 969, 699, 970
13375, 700, 699, 969
13376, 701, 700, 968
13377, 968, 700, 969
13378, 702, 701, 967
13379, 967, 701, 968
13380, 703, 702, 966
13381, 966, 702, 967
13382, 693, 692, 6415
13383, 977, 976, 6415
13384, 976, 693, 6415
13385, 6414, 977, 6415
13386, 692, 6414, 6415
13387, 711, 1012, 42
13388, 707, 706, 73
13389, 711, 980, 74
13390, 711, 74, 1012
13391, 705, 958, 706
13392, 708, 707, 983
13393, 709, 708, 982
13394, 982, 708, 983
13395, 709, 981, 710
13396, 709, 982, 981
13397, 980, 711, 710
13398, 981, 980, 710
13399, 958, 73, 706
13400, 707, 73, 984
13401, 705, 704, 959
13402, 705, 959, 958
13403, 983, 707, 984
*ELEMENT, type=CPS3, ELSET=Surface49
13404, 597, 42, 27
13405, 27, 42, 985
13406, 42, 597, 712
13407, 42, 1012, 985
13408, 540, 539, 769
13409, 539, 770, 769
13410, 541, 540, 768
13411, 540, 769, 768
13412, 541, 767, 542
13413, 541, 768, 767
13414, 543, 542, 766
13415, 542, 767, 766
13416, 544, 543, 765
13417, 543, 766, 765
13418, 545, 544, 764
13419, 544, 765, 764
13420, 545, 763, 546
13421, 545, 764, 763
13422, 546, 762, 547
13423, 546, 763, 762
13424, 548, 547, 761
13425, 547, 762, 761
13426, 548, 760, 549
13427, 548, 761, 760
13428, 549, 759, 550
13429, 549, 760, 759
13430, 551, 550, 758
13431, 550, 759, 758
13432, 551, 757, 552
13433, 551, 758, 757
13434, 552, 756, 553
13435, 552, 757, 756
13436, 554, 553, 755
13437, 553, 756, 755
13438, 554, 754, 555
13439, 554, 755, 754
13440, 556, 555, 753
13441, 555, 754, 753
13442, 556, 752, 557
13443, 556, 753, 752
13444, 558, 557, 751
13445, 557, 752, 751
13446, 558, 750, 559
13447, 558, 751, 750
13448, 560, 559, 749
13449, 559, 750, 749
13450, 560, 748, 561
13451, 560, 749, 748
13452, 562, 561, 747
13453, 561, 748, 747
13454, 562, 746, 563
13455, 562, 747, 746
13456, 564, 563, 745
13457, 563, 746, 745
13458, 564, 744, 565
13459, 564, 745, 744
13460, 566, 565, 743
13461, 565, 744, 743
13462, 567, 566, 742
13463, 566, 743, 742
13464, 567, 741, 568
13465, 567, 742, 741
13466, 568, 740, 569
13467, 568, 741, 740
13468, 570, 569, 739
13469, 569, 740, 739
13470, 571, 570, 738
13471, 570, 739, 738
13472, 572, 571, 737
13473, 571, 738, 737
13474, 572, 736, 573
13475, 572, 737, 736
13476, 573, 735, 574
13477, 573, 736, 735
13478, 575, 574, 734
13479, 574, 735, 734
13480, 575, 733, 576
13481, 575, 734, 733
13482, 576, 732, 577
13483, 576, 733, 732
13484, 577, 731, 578
13485, 577, 732, 731
13486, 579, 578, 730
13487, 578, 731, 730
13488, 579, 729, 580
13489, 579, 730, 729
13490, 581, 580, 728
13491, 580, 729, 728
13492, 581, 727, 582
13493, 581, 728, 727
13494, 582, 726, 583
13495, 582, 727, 726
13496, 583, 725, 584
13497, 583, 726, 725
13498, 585, 584, 724
13499, 584, 725, 724
13500, 586, 585, 723
13501, 585, 724, 723
13502, 586, 722, 587
13503, 586, 723, 722
13504, 588, 587, 721
13505, 587, 722, 721
13506, 588, 720, 589
13507, 588, 721, 720
13508, 590, 589, 719
13509, 589, 720, 719
13510, 590, 718, 591
13511, 590, 719, 718
13512, 592, 591, 717
13513, 591, 718, 717
13514, 593, 592, 716
13515, 592, 717, 716
13516, 593, 715, 594
13517, 593, 716, 715
13518, 595, 594, 714
13519, 594, 715, 714
13520, 595, 713, 596
13521, 595, 714, 713
13522, 597, 596, 712
13523, 596, 713, 712
13524, 27, 985, 902
13525, 533, 31, 32
13526, 533, 32, 775
13527, 902, 985, 68
13528, 1012, 74, 985
13529, 534, 533, 775
13530, 534, 774, 535
13531, 534, 775, 774
13532, 536, 535, 773
13533, 535, 774, 773
13534, 536, 772, 537
13535, 536, 773, 772
13536, 538, 537, 771
13537, 537, 772, 771
13538, 538, 770, 539
13539, 538, 771, 770
*ELEMENT, type=CPS3, ELSET=Surface50
13540, 34, 1013, 6416
13541, 1013, 76, 6416
13542, 76, 988, 6416
13543, 75, 999, 6418
13544, 627, 34, 6416
13545, 999, 629, 6418
13546, 629, 628, 6418
13547, 988, 75, 6417
13548, 628, 627, 6417
13549, 6416, 988, 6417
13550, 6417, 75, 6418
13551, 627, 6416, 6417
13552, 628, 6417, 6418
13553, 35, 630, 998
13554, 630, 629, 998
13555, 629, 999, 998
*ELEMENT, type=CPS3, ELSET=Surface51
13556, 6425, 6419, 6429
13557, 92, 91, 6425
13558, 6431, 6419, 6436
13559, 6420, 6424, 6430
13560, 6423, 6420, 6430
13561, 6423, 6431, 6436
13562, 6424, 6420, 6438
13563, 90, 89, 6426
13564, 6420, 6423, 6436
13565, 6426, 6422, 6439
13566, 6428, 77, 6435
13567, 6421, 6426, 6439
13568, 6419, 6425, 6436
13569, 92, 6425, 6429
13570, 6425, 6420, 6436
13571, 6420, 6425, 6432
13572, 6425, 91, 6432
13573, 89, 6422, 6426
13574, 6428, 6435, 6439
13575, 6426, 6421, 6438
13576, 6426, 6420, 6432
13577, 6420, 6426, 6438
13578, 90, 6426, 6432
13579, 1009, 6427, 6435
13580, 88, 4, 6428
13581, 6427, 1009, 6433
13582, 1000, 6419, 6431
13583, 6434, 635, 6440
13584, 1, 92, 6429
13585, 636, 635, 6434
13586, 1001, 631, 35
13587, 1008, 36, 638
13588, 6419, 79, 6429
13589, 6427, 6421, 6435
13590, 6421, 6427, 6443
13591, 77, 1009, 6435
13592, 6438, 6421, 6443
13593, 4, 993, 6428
13594, 91, 90, 6432
13595, 6424, 6434, 6440
13596, 638, 637, 6433
13597, 632, 631, 6437
13598, 996, 1, 6429
13599, 1009, 1008, 6433
13600, 6422, 88, 6428
13601, 1008, 638, 6433
13602, 6435, 6421, 6439
13603, 1001, 1000, 6437
13604, 79, 996, 6429
13605, 1000, 6431, 6437
13606, 6431, 632, 6437
13607, 6422, 6428, 6439
13608, 6427, 6433, 6444
13609, 6430, 634, 6441
13610, 634, 6430, 6440
13611, 6427, 6434, 6443
13612, 993, 77, 6428
13613, 6433, 637, 6444
13614, 1000, 79, 6419
13615, 6423, 6430, 6441
13616, 6430, 6424, 6440
13617, 634, 633, 6441
13618, 635, 634, 6440
13619, 631, 1001, 6437
13620, 632, 6431, 6442
13621, 6431, 6423, 6442
13622, 6424, 6438, 6443
13623, 633, 632, 6442
13624, 89, 88, 6422
13625, 637, 636, 6444
13626, 6434, 6427, 6444
13627, 636, 6434, 6444
13628, 6434, 6424, 6443
13629, 6423, 6441, 6442
13630, 6441, 633, 6442
*ELEMENT, type=CPS3, ELSET=Surface52
13631, 1014, 37, 6445
13632, 80, 1014, 6445
13633, 1005, 80, 6445
13634, 1006, 78, 6447
13635, 37, 642, 6445
13636, 640, 1006, 6447
13637, 641, 640, 6447
13638, 78, 1005, 6446
13639, 642, 641, 6446
13640, 1005, 6445, 6446
13641, 78, 6446, 6447
13642, 6445, 642, 6446
13643, 6446, 641, 6447
13644, 1007, 639, 36
13645, 1007, 640, 639
13646, 1006, 640, 1007
*ELEMENT, type=CPS3, ELSET=Surface53
13647, 6564, 6918, 6839
13648, 6550, 7154, 7019
13649, 6532, 6826, 6673
13650, 6582, 6878, 6674
13651, 6841, 7096, 6513
13652, 7030, 7151, 6457
13653, 6640, 6978, 6762
13654, 6762, 6978, 6514
13655, 6503, 6726, 6699
13656, 6512, 6960, 6803
13657, 26, 6929, 462
13658, 6644, 7032, 6783
13659, 6704, 6761, 6539
13660, 6783, 7032, 6519
13661, 6701, 6730, 6551
13662, 6633, 7008, 6738
13663, 6738, 7008, 6486
13664, 6530, 6761, 6704
13665, 231, 6691, 10
13666, 6665, 7096, 6841
13667, 6657, 7060, 6811
13668, 6533, 6930, 6708
13669, 6683, 7075, 6578
13670, 6717, 6929, 306
13671, 6462, 6730, 6701
13672, 6652, 7015, 6780
13673, 6516, 6747, 6710
13674, 6514, 7018, 6762
13675, 6762, 7018, 6653
13676, 6780, 7015, 6517
13677, 6699, 7104, 6610
13678, 28, 7097, 461
13679, 7029, 7170, 6523
13680, 6793, 7160, 6456
13681, 6803, 6960, 6626
13682, 6465, 6786, 6669
13683, 6690, 6879, 6495
13684, 6730, 7106, 6516
13685, 6682, 7172, 6536
13686, 6597, 6900, 6680
13687, 6709, 7068, 6977
13688, 6456, 6994, 6793
13689, 6811, 7060, 6490
13690, 464, 6696, 465
13691, 6709, 6977, 6462
13692, 6545, 6757, 6734
13693, 6658, 7043, 6795
13694, 462, 6929, 6798
13695, 231, 7007, 6691
13696, 6670, 7280, 6886
13697, 6885, 7277, 6671
13698, 302, 6704, 303
13699, 6977, 7106, 6730
13700, 6886, 7203, 6670
13701, 6663, 7087, 6820
13702, 6494, 7075, 6683
13703, 6671, 7204, 6885
13704, 6490, 7013, 6678
13705, 6795, 7043, 6521
13706, 6523, 7170, 6728
13707, 6726, 7104, 6699
13708, 6726, 6865, 6450
13709, 6615, 6865, 6726
13710, 6621, 7046, 6760
13711, 6515, 6980, 6792
13712, 6552, 7161, 7009
13713, 6527, 7023, 6679
13714, 6679, 7077, 6459
13715, 6745, 7319, 6667
13716, 6484, 6991, 6963
13717, 6490, 7076, 6680
13718, 6678, 7076, 6490
13719, 6680, 7076, 6597
13720, 6457, 6946, 6707
13721, 6707, 6946, 6566
13722, 6777, 7084, 6549
13723, 306, 6929, 26
13724, 6802, 6930, 6533
13725, 443, 7188, 6809
13726, 6820, 7087, 6492
13727, 798, 7123, 44
13728, 6739, 6982, 803
13729, 6792, 6980, 6632
13730, 6637, 7151, 7030
13731, 801, 6982, 6732
13732, 6527, 7052, 6676
13733, 6711, 7244, 6510
13734, 7179, 7319, 6745
13735, 6607, 6906, 6688
13736, 6949, 7210, 6479
13737, 6502, 7237, 6744
13738, 6492, 7038, 6686
13739, 6467, 6951, 6841
13740, 6679, 7052, 6527
13741, 6495, 7107, 6690
13742, 469, 6703, 470
13743, 7244, 7261, 6510
13744, 6691, 6782, 10
13745, 6676, 6973, 6527
13746, 7019, 7154, 6627
13747, 406, 6702, 405
13748, 6537, 7322, 6930
13749, 6544, 6845, 6700
13750, 6526, 6853, 6678
13751, 6841, 6951, 6665
13752, 6786, 7119, 6669
13753, 6619, 7119, 6786
13754, 6680, 6811, 6490
13755, 6517, 7014, 6780
13756, 6459, 7052, 6679
13757, 6780, 7014, 6645
13758, 6756, 6845, 6544
13759, 6673, 6875, 6532
13760, 6542, 6885, 6693
13761, 6674, 7287, 6582
13762, 6694, 6886, 6543
13763, 6669, 7143, 6465
13764, 6737, 6918, 6564
13765, 6687, 7039, 6493
13766, 6707, 7030, 6457
13767, 6695, 6875, 6498
13768, 6490, 7060, 7013
13769, 6519, 7020, 6783
13770, 6687, 7130, 6460
13771, 6492, 7128, 6688
13772, 803, 6982, 802
13773, 6744, 7139, 6502
13774, 441, 7054, 6766
13775, 6686, 7128, 6492
13776, 6688, 7128, 6607
13777, 6783, 7020, 6641
13778, 6578, 6976, 6683
13779, 404, 6956, 6801
13780, 6721, 6819, 6545
13781, 6515, 6804, 6748
13782, 6700, 6845, 6466
13783, 302, 6777, 6704
13784, 6690, 6938, 6879
13785, 6681, 6866, 6541
13786, 6536, 6830, 6677
13787, 278, 7005, 14
13788, 6522, 7224, 6731
13789, 6678, 7013, 6526
13790, 6751, 6835, 6468
13791, 436, 6731, 435
13792, 6567, 6850, 6770
13793, 6598, 6802, 6719
13794, 6770, 6850, 6547
13795, 6529, 7079, 6685
13796, 7007, 7255, 6691
13797, 441, 6766, 440
13798, 411, 6713, 410
13799, 802, 6982, 801
13800, 6532, 6823, 6689
13801, 6689, 7045, 6532
13802, 6513, 7148, 6841
13803, 6687, 7079, 6529
13804, 6614, 6911, 6695
13805, 474, 6714, 475
13806, 6649, 7174, 6800
13807, 6493, 7198, 6687
13808, 6685, 7002, 6529
13809, 6688, 6820, 6492
13810, 6679, 7190, 7077
13811, 6528, 6882, 6686
13812, 6823, 7153, 6689
13813, 6461, 7153, 6823
13814, 6633, 7160, 6793
13815, 6674, 7086, 6853
13816, 6578, 6845, 6756
13817, 6460, 7079, 6687
13818, 6677, 7069, 6536
13819, 6760, 7046, 6518
13820, 6553, 6835, 6751
13821, 6712, 7088, 6500
13822, 6731, 7224, 6817
13823, 6492, 7087, 7038
13824, 6497, 7061, 6692
13825, 6839, 6979, 6564
13826, 6484, 7317, 6991
13827, 6839, 7064, 6979
13828, 6541, 6908, 6681
13829, 10, 6782, 148
13830, 6554, 7155, 7003
13831, 6536, 7172, 6830
13832, 6895, 6926, 6595
13833, 6706, 7175, 6498
13834, 6704, 6860, 303
13835, 6809, 7188, 6655
13836, 6693, 6852, 6542
13837, 6517, 6794, 6753
13838, 6551, 7180, 6697
13839, 6536, 7034, 6682
13840, 6797, 6942, 6620
13841, 6495, 6879, 6691
13842, 6790, 6841, 6570
13843, 6839, 6918, 6473
13844, 147, 6983, 6698
13845, 6695, 7175, 6614
13846, 6700, 6953, 6544
13847, 6498, 7175, 6695
13848, 6483, 6942, 6797
13849, 6686, 7038, 6528
13850, 6467, 6841, 6790
13851, 504, 6759, 505
13852, 6853, 7086, 6459
13853, 6930, 7322, 6708
13854, 6585, 6874, 6781
13855, 6549, 7201, 6777
13856, 6781, 6874, 6550
13857, 479, 6720, 480
13858, 464, 6818, 6696
13859, 6687, 7198, 7130
13860, 6529, 7039, 6687
13861, 6704, 6777, 6530
13862, 6521, 7024, 6795
13863, 6537, 6930, 6849
13864, 6795, 7024, 6638
13865, 514, 7165, 6932
13866, 416, 6723, 415
13867, 6734, 6757, 6525
13868, 6465, 6799, 6708
13869, 443, 6809, 442
13870, 6707, 6797, 6522
13871, 510, 7158, 6912
13872, 6759, 7063, 505
13873, 6683, 6984, 6494
13874, 6878, 6973, 6676
13875, 6733, 6846, 6538
13876, 6489, 6973, 6878
13877, 7039, 7132, 6493
13878, 6732, 6790, 6570
13879, 6823, 7171, 6461
13880, 6680, 7145, 6882
13881, 455, 7172, 6981
13882, 6695, 7171, 6823
13883, 6557, 7028, 6918
13884, 17, 7084, 301
13885, 6534, 6790, 6732
13886, 6531, 6905, 6692
13887, 6733, 7137, 6846
13888, 6981, 7172, 6682
13889, 6813, 7189, 507
13890, 6464, 6936, 6718
13891, 522, 6747, 523
13892, 7009, 7161, 6631
13893, 266, 6962, 6684
13894, 6468, 6822, 6724
13895, 6705, 6836, 6524
13896, 6684, 7207, 266
13897, 6828, 6994, 6456
13898, 1016, 6742, 1017
13899, 1018, 6744, 1019
13900, 6731, 6817, 435
13901, 6721, 7248, 6819
13902, 6708, 6799, 6533
13903, 6498, 7034, 6706
13904, 404, 6801, 403
13905, 6449, 6844, 6821
13906, 6696, 6891, 465
13907, 6821, 6844, 6604
13908, 6642, 7234, 6742
13909, 6744, 7237, 6643
13910, 6800, 7174, 6488
13911, 6688, 7153, 6905
13912, 6712, 7270, 7088
13913, 484, 6735, 485
13914, 6545, 7115, 6757
13915, 6793, 6994, 6605
13916, 6882, 7145, 6460
13917, 6634, 7210, 6949
13918, 6521, 6788, 6765
13919, 421, 6736, 420
13920, 6991, 7317, 6705
13921, 6696, 6939, 6496
13922, 7207, 7244, 6541
13923, 6664, 6994, 6828
13924, 6692, 7061, 6531
13925, 6719, 6802, 6533
13926, 6539, 6860, 6704
13927, 6760, 7090, 6621
13928, 14, 6784, 202
13929, 406, 6825, 6702
13930, 6900, 7002, 6685
13931, 6491, 7002, 6900
13932, 6614, 7175, 6706
13933, 6543, 7187, 6694
13934, 6905, 7153, 6461
13935, 6608, 6890, 6814
13936, 6761, 6856, 6465
13937, 460, 7329, 6749
13938, 6932, 7165, 6660
13939, 6600, 6949, 6945
13940, 6847, 7203, 262
13941, 6814, 6890, 6450
13942, 6520, 6789, 6738
13943, 6505, 7252, 6743
13944, 143, 7204, 6848
13945, 6827, 6864, 6587
13946, 6518, 7046, 6828
13947, 6837, 7028, 6557
13948, 7013, 7060, 6651
13949, 6878, 7086, 6674
13950, 6728, 6805, 6523
13951, 6536, 7229, 6706
13952, 6755, 6927, 6555
13953, 6692, 6911, 6497
13954, 7234, 7326, 6742
13955, 489, 6746, 490
13956, 6912, 7158, 6651
13957, 6709, 7229, 6536
13958, 6503, 7241, 6726
13959, 6612, 7194, 7057
13960, 7111, 7269, 6629
13961, 6560, 7149, 6992
13962, 6809, 7194, 6612
13963, 6610, 7178, 6699
13964, 6801, 6956, 6586
13965, 6766, 7054, 6612
13966, 7130, 7198, 6607
13967, 6716, 6928, 6548
13968, 506, 6813, 507
13969, 6743, 7238, 6505
13970, 6465, 6856, 6799
13971, 6749, 7096, 6629
13972, 461, 7329, 460
13973, 524, 6763, 525
13974, 7077, 7190, 6597
13975, 6545, 7191, 6700
13976, 6463, 7239, 6741
13977, 44, 6675, 797
13978, 6513, 7096, 6749
13979, 6724, 6822, 6525
13980, 797, 6675, 28
13981, 6546, 6835, 6798
13982, 6618, 7139, 6744
13983, 6628, 7164, 7072
13984, 6533, 7225, 6719
13985, 6731, 6959, 6522
13986, 6487, 6928, 6716
13987, 6963, 6991, 6622
13988, 6559, 6959, 6731
13989, 6462, 7229, 6709
13990, 6701, 7185, 6462
13991, 6836, 7047, 6524
13992, 6601, 6958, 6774
13993, 6471, 6864, 6827
13994, 6702, 6956, 405
13995, 6510, 7240, 6711
13996, 6496, 7078, 6696
13997, 6600, 6945, 6771
13998, 277, 6715, 278
13999, 6629, 7269, 6824
14000, 6517, 7015, 6794
14001, 6708, 7322, 6465
14002, 6595, 6926, 6767
14003, 6697, 6970, 6551
14004, 6628, 7072, 6868
14005, 6718, 7276, 6464
14006, 6742, 7173, 1017
14007, 1018, 7173, 6744
14008, 6846, 7137, 6473
14009, 6515, 7070, 6804
14010, 6555, 6927, 6902
14011, 6747, 7025, 523
14012, 469, 6859, 6703
14013, 411, 6834, 6713
14014, 6866, 7207, 6541
14015, 202, 6784, 17
14016, 6458, 6993, 6728
14017, 6728, 6993, 6572
14018, 7041, 7180, 519
14019, 6542, 7277, 6885
14020, 7038, 7087, 6660
14021, 6886, 7280, 6543
14022, 6706, 7185, 6614
14023, 6703, 6872, 470
14024, 6596, 6966, 6779
14025, 474, 6838, 6714
14026, 6803, 7196, 6512
14027, 6503, 7316, 6702
14028, 6601, 6987, 6958
14029, 6697, 7180, 7041
14030, 521, 6916, 6710
14031, 6739, 7192, 6534
14032, 6940, 7119, 6487
14033, 6589, 7255, 7007
14034, 6649, 7189, 6813
14035, 6591, 6867, 6821
14036, 7003, 7155, 6635
14037, 6977, 7068, 6602
14038, 6592, 6955, 6778
14039, 6527, 7288, 7023
14040, 6743, 7252, 6646
14041, 501, 6855, 502
14042, 6691, 7255, 6495
14043, 6706, 7034, 6536
14044, 6613, 7063, 6759
14045, 6536, 7069, 6709
14046, 6700, 7115, 6545
14047, 6698, 7042, 147
14048, 438, 6773, 437
14049, 6807, 6881, 6451
14050, 431, 6758, 430
14051, 6906, 7045, 6689
14052, 6508, 7275, 6750
14053, 6606, 6881, 6807
14054, 6493, 7045, 6906
14055, 6584, 6943, 6776
14056, 6486, 6819, 6738
14057, 6751, 7121, 6939
14058, 6534, 6861, 6790
14059, 6577, 6925, 6772
14060, 6821, 6867, 6449
14061, 6573, 6913, 6768
14062, 6823, 6875, 6695
14063, 6639, 7047, 6836
14064, 271, 6760, 272
14065, 6814, 7227, 7064
14066, 6900, 7145, 6680
14067, 6691, 6879, 6782
14068, 6684, 7261, 7244
14069, 6699, 7056, 6503
14070, 6798, 6835, 6553
14071, 6583, 6883, 6812
14072, 6812, 6883, 6552
14073, 6477, 6926, 6895
14074, 6625, 6944, 6773
14075, 6670, 7203, 6847
14076, 6848, 7204, 6671
14077, 6800, 7283, 6649
14078, 275, 6791, 276
14079, 6831, 7286, 6448
14080, 6595, 7040, 6895
14081, 6826, 7253, 6673
14082, 6741, 7239, 6636
14083, 6748, 6980, 6515
14084, 6516, 7112, 6747
14085, 6466, 7115, 6700
14086, 6580, 6980, 6748
14087, 6551, 6970, 6701
14088, 6693, 7254, 6852
14089, 6853, 7077, 6678
14090, 6534, 7192, 6763
14091, 6714, 6876, 475
14092, 6459, 7077, 6853
14093, 7040, 7196, 6895
14094, 416, 6843, 6723
14095, 6497, 7245, 7061
14096, 6741, 6938, 6463
14097, 6814, 7064, 6608
14098, 6618, 7173, 6742
14099, 6744, 7173, 6618
14100, 6879, 6938, 6540
14101, 6613, 7174, 6813
14102, 261, 6847, 262
14103, 6831, 7325, 7286
14104, 143, 6848, 142
14105, 6479, 7210, 6832
14106, 6725, 7007, 230
14107, 6674, 6853, 6800
14108, 6719, 7225, 274
14109, 7049, 7174, 6613
14110, 6509, 7258, 6852
14111, 6610, 6890, 6733
14112, 6852, 7258, 6718
14113, 6732, 6982, 6534
14114, 230, 6904, 6725
14115, 6713, 6898, 410
14116, 6661, 7132, 7039
14117, 6467, 6861, 6752
14118, 6750, 7275, 6659
14119, 6565, 6873, 6769
14120, 6710, 6916, 6551
14121, 6702, 7026, 6503
14122, 6706, 7229, 7185
14123, 6572, 6993, 6705
14124, 6499, 7033, 6703
14125, 479, 6858, 6720
14126, 6718, 6936, 6852
14127, 6766, 7029, 6523
14128, 6612, 7029, 6766
14129, 6751, 6939, 6553
14130, 6703, 6979, 6499
14131, 7022, 7222, 6827
14132, 6791, 7225, 6533
14133, 6734, 6851, 6448
14134, 6579, 7025, 6747
14135, 6722, 7187, 6543
14136, 6500, 6908, 6712
14137, 6766, 6887, 440
14138, 6750, 7267, 6508
14139, 301, 6777, 302
14140, 6524, 6991, 6705
14141, 504, 6869, 6759
14142, 6596, 7017, 6966
14143, 6811, 7307, 6657
14144, 6705, 7317, 6572
14145, 6916, 7180, 6551
14146, 6566, 6998, 6707
14147, 6656, 7093, 6941
14148, 426, 7044, 6748
14149, 6551, 7134, 6710
14150, 6522, 7030, 6707
14151, 6534, 6982, 6739
14152, 6710, 7308, 521
14153, 6725, 6904, 6544
14154, 6852, 7254, 6509
14155, 6759, 7047, 6613
14156, 6756, 6976, 6578
14157, 6524, 7047, 6759
14158, 6546, 6931, 6716
14159, 6720, 6884, 480
14160, 6732, 6985, 801
14161, 6780, 6948, 6652
14162, 6716, 6931, 6487
14163, 6800, 6853, 6526
14164, 6828, 7046, 6664
14165, 6941, 7093, 6583
14166, 6833, 7323, 401
14167, 6710, 7134, 6516
14168, 6538, 7146, 6733
14169, 402, 6833, 401
14170, 494, 7059, 6753
14171, 6765, 7272, 6593
14172, 459, 6824, 458
14173, 6795, 6954, 6658
14174, 6733, 7146, 6610
14175, 6740, 7053, 799
14176, 421, 6854, 6736
14177, 7037, 7211, 6842
14178, 459, 7129, 6824
14179, 6520, 7293, 6764
14180, 6882, 7130, 6686
14181, 6669, 7119, 6940
14182, 484, 6871, 6735
14183, 6713, 7094, 6504
14184, 6460, 7130, 6882
14185, 6764, 7293, 6672
14186, 6680, 6882, 6811
14187, 526, 7192, 6739
14188, 148, 6983, 147
14189, 6592, 7011, 6955
14190, 501, 7124, 6855
14191, 6627, 7154, 7035
14192, 6714, 6969, 6505
14193, 6715, 7116, 6609
14194, 6672, 6849, 6764
14195, 6452, 6964, 6810
14196, 6810, 6964, 6624
14197, 6733, 6890, 6608
14198, 6650, 7170, 7029
14199, 6810, 6901, 6452
14200, 306, 7074, 6717
14201, 6782, 6983, 148
14202, 6992, 7149, 6640
14203, 6617, 6901, 6810
14204, 7185, 7229, 6462
14205, 6523, 7236, 6766
14206, 6718, 7258, 6972
14207, 7083, 7319, 6466
14208, 6596, 7315, 6794
14209, 6504, 7022, 6713
14210, 6716, 7242, 6546
14211, 7045, 7305, 6532
14212, 6521, 7043, 6788
14213, 508, 6796, 509
14214, 6594, 7037, 6842
14215, 6820, 7330, 6663
14216, 6451, 6947, 6807
14217, 6737, 7036, 467
14218, 6587, 7022, 6827
14219, 6545, 7235, 6721
14220, 6764, 6849, 6469
14221, 6906, 7153, 6688
14222, 6828, 7205, 6518
14223, 6807, 6947, 6623
14224, 6987, 7184, 6481
14225, 6794, 7015, 6596
14226, 6548, 7058, 6716
14227, 6790, 6861, 6467
14228, 6588, 7014, 6753
14229, 6543, 7051, 6722
14230, 6753, 7014, 6517
14231, 6723, 6923, 415
14232, 301, 7084, 6777
14233, 6505, 7062, 6714
14234, 6740, 7228, 6570
14235, 7080, 7315, 6596
14236, 6731, 6965, 6559
14237, 6885, 7312, 6693
14238, 6546, 6929, 6717
14239, 6735, 6893, 485
14240, 6972, 7258, 6636
14241, 6525, 6996, 6724
14242, 6627, 7035, 6897
14243, 436, 6965, 6731
14244, 277, 7116, 6715
14245, 6730, 7134, 6551
14246, 6939, 7121, 6496
14247, 6773, 6965, 437
14248, 6694, 7314, 6886
14249, 6615, 6997, 6922
14250, 435, 6817, 434
14251, 6717, 6931, 6546
14252, 6777, 7201, 6530
14253, 6803, 6919, 6453
14254, 6646, 7055, 6974
14255, 6509, 7217, 6741
14256, 6626, 6919, 6803
14257, 6715, 7298, 278
14258, 6465, 7322, 6786
14259, 6636, 7258, 6741
14260, 6741, 7258, 6509
14261, 6448, 7235, 6734
14262, 6844, 6846, 6604
14263, 803, 7289, 6739
14264, 6598, 7157, 6802
14265, 445, 6806, 444
14266, 6455, 6948, 6780
14267, 6600, 7327, 6804
14268, 6538, 6846, 6844
14269, 6717, 7074, 6647
14270, 6509, 7254, 7217
14271, 6734, 7235, 6545
14272, 489, 6877, 6746
14273, 6743, 7019, 6627
14274, 6451, 7019, 6743
14275, 512, 6808, 513
14276, 6616, 7167, 6745
14277, 6752, 6861, 6579
14278, 413, 7091, 6755
14279, 6792, 6933, 6454
14280, 6588, 7257, 6778
14281, 6743, 6974, 6451
14282, 423, 7081, 6771
14283, 6580, 7256, 6774
14284, 6811, 6882, 6528
14285, 6632, 6933, 6792
14286, 6593, 7024, 6765
14287, 6765, 7024, 6521
14288, 6557, 6918, 6737
14289, 6739, 7289, 526
14290, 6915, 7101, 6576
14291, 6749, 7279, 6513
14292, 6688, 6905, 6820
14293, 6646, 6974, 6743
14294, 6584, 7027, 6943
14295, 7081, 7327, 6600
14296, 6656, 6941, 6754
14297, 6647, 7246, 6717
14298, 6518, 7110, 6760
14299, 6736, 6921, 420
14300, 6534, 7268, 6861
14301, 6905, 7171, 6692
14302, 6745, 7167, 6449
14303, 497, 7080, 6779
14304, 6461, 7171, 6905
14305, 6540, 7217, 6983
14306, 6788, 7124, 500
14307, 6720, 6999, 6508
14308, 6559, 6965, 6773
14309, 6587, 6864, 6787
14310, 6865, 6922, 6547
14311, 6530, 6856, 6761
14312, 6719, 6990, 6598
14313, 6684, 7244, 7207
14314, 6746, 6899, 490
14315, 6615, 6922, 6865
14316, 6593, 7272, 7071
14317, 6726, 7241, 6615
14318, 522, 7308, 6747
14319, 6516, 7134, 6730
14320, 6792, 7294, 6515
14321, 6747, 7308, 6710
14322, 6974, 7055, 6567
14323, 6683, 7323, 6833
14324, 274, 6990, 6719
14325, 6630, 7196, 6803
14326, 6779, 7071, 497
14327, 6750, 7009, 6631
14328, 418, 7127, 6767
14329, 6667, 7282, 6745
14330, 6544, 6953, 6725
14331, 6452, 7009, 6750
14332, 6760, 6862, 272
14333, 6550, 7019, 6881
14334, 6749, 7329, 7279
14335, 449, 6815, 448
14336, 6847, 7237, 6670
14337, 6700, 7191, 6953
14338, 6737, 7197, 6557
14339, 6723, 7152, 6507
14340, 6935, 7105, 6571
14341, 6738, 7160, 6633
14342, 6508, 7131, 6720
14343, 6540, 6938, 6741
14344, 6507, 7037, 6723
14345, 6756, 6904, 21
14346, 6659, 7089, 6989
14347, 6908, 7215, 6681
14348, 6671, 7234, 6848
14349, 6525, 7309, 6734
14350, 7237, 7292, 6670
14351, 516, 6816, 517
14352, 6462, 6977, 6730
14353, 467, 7197, 6737
14354, 6728, 7170, 6458
14355, 6576, 6888, 6832
14356, 6832, 6888, 6554
14357, 7048, 7092, 6481
14358, 440, 6887, 439
14359, 6570, 6985, 6732
14360, 6510, 7187, 6972
14361, 6829, 7215, 6621
14362, 6671, 7296, 7234
14363, 6824, 7129, 6629
14364, 6972, 7187, 6722
14365, 6738, 7248, 6520
14366, 6450, 7104, 6726
14367, 6945, 6949, 6479
14368, 6750, 6989, 6452
14369, 6572, 7182, 6728
14370, 6769, 6873, 6558
14371, 6659, 6989, 6750
14372, 6454, 6975, 6792
14373, 6973, 7274, 6527
14374, 463, 6818, 464
14375, 6792, 6975, 6634
14376, 6465, 7143, 6761
14377, 457, 6830, 456
14378, 6598, 7110, 6775
14379, 6820, 6905, 6531
14380, 428, 7113, 6774
14381, 6638, 6946, 6795
14382, 6589, 7007, 6725
14383, 6602, 7068, 6951
14384, 6795, 6946, 6457
14385, 6754, 7003, 6635
14386, 503, 6869, 504
14387, 6453, 7003, 6754
14388, 6724, 7095, 6468
14389, 7085, 7252, 6558
14390, 7068, 7249, 6951
14391, 6763, 7192, 525
14392, 6608, 7137, 6733
14393, 6577, 7031, 6925
14394, 271, 7090, 6760
14395, 472, 7147, 6769
14396, 477, 7140, 6768
14397, 6544, 6904, 6756
14398, 6574, 7135, 6948
14399, 6928, 6967, 6548
14400, 6946, 7100, 6566
14401, 6645, 6935, 6780
14402, 407, 6825, 406
14403, 6780, 6935, 6455
14404, 6911, 7171, 6695
14405, 6457, 6954, 6795
14406, 482, 7142, 6772
14407, 6788, 7043, 6603
14408, 6922, 6997, 6471
14409, 6742, 7199, 6642
14410, 6643, 7200, 6744
14411, 6798, 6929, 6546
14412, 487, 7141, 6776
14413, 6762, 6992, 6640
14414, 6653, 7101, 6915
14415, 492, 7138, 6778
14416, 6989, 7089, 6585
14417, 6621, 7215, 7103
14418, 6995, 7050, 6479
14419, 453, 6826, 452
14420, 6874, 7154, 6550
14421, 6770, 6922, 6471
14422, 6724, 7324, 6591
14423, 6487, 7246, 6940
14424, 6755, 7109, 413
14425, 6766, 7236, 6887
14426, 6819, 7191, 6545
14427, 6787, 6864, 6556
14428, 6564, 7036, 6737
14429, 6768, 7114, 477
14430, 431, 6910, 6758
14431, 6983, 7217, 6698
14432, 6881, 6896, 6550
14433, 6772, 7118, 482
14434, 6653, 6915, 6762
14435, 6606, 6896, 6881
14436, 493, 7059, 494
14437, 408, 7181, 6787
14438, 6488, 7287, 6800
14439, 6762, 6915, 6454
14440, 427, 7044, 426
14441, 269, 6829, 270
14442, 6924, 7239, 6463
14443, 6776, 7120, 487
14444, 6591, 7095, 6724
14445, 6800, 7287, 6674
14446, 6758, 6917, 430
14447, 6625, 7251, 6944
14448, 6771, 7108, 423
14449, 6725, 7262, 6589
14450, 6454, 6992, 6762
14451, 6711, 7239, 6924
14452, 6594, 6927, 6755
14453, 6799, 6856, 6609
14454, 6629, 7129, 6749
14455, 6767, 7102, 418
14456, 6453, 7006, 6803
14457, 6550, 6896, 6781
14458, 6803, 7006, 6630
14459, 6500, 7215, 6908
14460, 6472, 7178, 6857
14461, 6775, 7157, 6598
14462, 6781, 6896, 6474
14463, 6543, 7280, 7051
14464, 6744, 7200, 1019
14465, 1016, 7199, 6742
14466, 6512, 7040, 6736
14467, 6768, 6913, 6568
14468, 500, 7124, 501
14469, 6936, 7277, 6542
14470, 6526, 7283, 6800
14471, 6729, 7277, 6936
14472, 6801, 6863, 6562
14473, 6511, 7183, 6735
14474, 6735, 7266, 6511
14475, 6769, 7125, 472
14476, 6741, 7217, 6540
14477, 412, 6834, 411
14478, 274, 7225, 275
14479, 6736, 7195, 6512
14480, 6532, 6875, 6823
14481, 6754, 6941, 6453
14482, 7088, 7270, 6605
14483, 6586, 6863, 6801
14484, 473, 6838, 474
14485, 6857, 7178, 7146
14486, 7217, 7254, 6698
14487, 6757, 7115, 6466
14488, 6474, 6927, 6842
14489, 6573, 7035, 6913
14490, 6818, 6939, 6696
14491, 6842, 6927, 6594
14492, 6547, 6922, 6770
14493, 7002, 7301, 6529
14494, 6767, 6926, 6561
14495, 6763, 7025, 6579
14496, 6950, 7010, 6477
14497, 6552, 7009, 6901
14498, 6804, 7070, 6600
14499, 141, 7122, 9
14500, 799, 7228, 6740
14501, 524, 7025, 6763
14502, 6749, 7129, 460
14503, 6754, 7321, 6656
14504, 6609, 7213, 6715
14505, 6627, 7238, 6743
14506, 22, 7126, 260
14507, 21, 7320, 6756
14508, 417, 6843, 416
14509, 468, 6859, 469
14510, 7059, 7257, 6588
14511, 6645, 7105, 6935
14512, 6773, 7166, 6625
14513, 275, 7225, 6791
14514, 6772, 6925, 6575
14515, 438, 7166, 6773
14516, 424, 7081, 423
14517, 9, 7122, 1015
14518, 470, 6872, 471
14519, 6541, 7244, 6924
14520, 1020, 7126, 22
14521, 6540, 6983, 6782
14522, 496, 7080, 497
14523, 6924, 7244, 6711
14524, 6570, 7148, 6740
14525, 6821, 7121, 6591
14526, 6468, 7058, 6822
14527, 7056, 7316, 6503
14528, 478, 6858, 479
14529, 6748, 7250, 426
14530, 6817, 7136, 434
14531, 7044, 7256, 6580
14532, 475, 6876, 476
14533, 6513, 7279, 6740
14534, 525, 7192, 526
14535, 6466, 6961, 6757
14536, 422, 6854, 421
14537, 6623, 7222, 6807
14538, 6631, 7267, 6750
14539, 6606, 6902, 6896
14540, 6896, 6902, 6474
14541, 6740, 7148, 6513
14542, 6555, 7109, 6755
14543, 6455, 6988, 6783
14544, 6771, 6945, 6569
14545, 6624, 7211, 6810
14546, 6783, 6988, 6644
14547, 497, 7071, 498
14548, 483, 6871, 484
14549, 6742, 7326, 6618
14550, 6773, 6944, 6559
14551, 457, 7299, 6830
14552, 7163, 7275, 6568
14553, 7051, 7280, 6727
14554, 799, 7053, 798
14555, 6776, 6943, 6581
14556, 480, 6884, 481
14557, 410, 6898, 409
14558, 6448, 6967, 6831
14559, 272, 6862, 273
14560, 230, 7007, 231
14561, 6631, 7161, 7031
14562, 414, 7091, 413
14563, 6466, 7319, 6961
14564, 6948, 7135, 6652
14565, 6495, 6920, 6793
14566, 488, 6877, 489
14567, 6793, 6920, 6633
14568, 6469, 6930, 6802
14569, 6558, 7252, 6969
14570, 6619, 6967, 6928
14571, 520, 6916, 521
14572, 6590, 7099, 6954
14573, 6748, 7044, 6580
14574, 485, 6893, 486
14575, 6747, 7112, 6579
14576, 6875, 7186, 6498
14577, 6745, 7168, 6616
14578, 7279, 7329, 6535
14579, 6673, 7186, 6875
14580, 6644, 7184, 6987
14581, 6635, 7306, 6754
14582, 6514, 7218, 6746
14583, 6746, 7264, 6514
14584, 6783, 7001, 6455
14585, 6638, 7100, 6946
14586, 6449, 7179, 6745
14587, 6759, 7331, 6524
14588, 6833, 6984, 6683
14589, 419, 7127, 418
14590, 6641, 7001, 6783
14591, 6787, 7098, 408
14592, 508, 7189, 6796
14593, 490, 6899, 491
14594, 6774, 6958, 6580
14595, 415, 6923, 414
14596, 6778, 6955, 6588
14597, 6504, 7222, 7022
14598, 6782, 6879, 6540
14599, 6681, 7332, 6866
14600, 420, 6921, 419
14601, 6901, 6950, 6552
14602, 6757, 7333, 6525
14603, 6949, 7070, 6634
14604, 6494, 6984, 6785
14605, 6468, 7095, 6751
14606, 6798, 7082, 462
14607, 6617, 6950, 6901
14608, 6631, 7031, 6934
14609, 6696, 7078, 6891
14610, 6902, 6927, 6474
14611, 6789, 7160, 6738
14612, 409, 7181, 408
14613, 432, 6910, 431
14614, 303, 6860, 304
14615, 430, 6917, 429
14616, 6830, 7299, 6677
14617, 6806, 7188, 444
14618, 6836, 7169, 6639
14619, 445, 7193, 6806
14620, 6458, 7169, 6836
14621, 429, 7113, 428
14622, 7068, 7069, 6506
14623, 6851, 6967, 6448
14624, 6797, 6998, 6483
14625, 6775, 7110, 6518
14626, 6709, 7069, 7068
14627, 6883, 7161, 6552
14628, 6528, 7307, 6811
14629, 6558, 7125, 6769
14630, 6753, 7243, 494
14631, 801, 6985, 800
14632, 6840, 7313, 433
14633, 267, 6866, 268
14634, 6779, 6966, 6593
14635, 6563, 7319, 7179
14636, 6547, 7328, 6865
14637, 512, 7220, 6808
14638, 433, 7313, 432
14639, 6579, 7112, 6752
14640, 6561, 7102, 6767
14641, 6554, 7003, 6919
14642, 6821, 7177, 7121
14643, 6752, 7271, 6467
14644, 6752, 7112, 6516
14645, 7001, 7073, 6574
14646, 467, 7036, 468
14647, 6753, 7059, 6588
14648, 510, 6912, 511
14649, 6571, 6892, 6870
14650, 6870, 6892, 6560
14651, 6751, 7095, 6591
14652, 6609, 7116, 6791
14653, 491, 7138, 492
14654, 6516, 7106, 6752
14655, 6590, 6952, 6889
14656, 6621, 7090, 6829
14657, 486, 7141, 487
14658, 471, 7147, 472
14659, 7211, 7304, 6810
14660, 481, 7142, 482
14661, 6620, 7136, 6817
14662, 14, 7005, 6784
14663, 476, 7140, 477
14664, 6805, 7182, 6485
14665, 6755, 7091, 6594
14666, 6829, 7090, 270
14667, 6954, 7099, 6658
14668, 6968, 7117, 6485
14669, 6812, 6950, 6477
14670, 6568, 7114, 6768
14671, 6763, 7268, 6534
14672, 6769, 7147, 6565
14673, 6785, 6984, 6562
14674, 6483, 7073, 7066
14675, 6815, 7209, 448
14676, 449, 7216, 6815
14677, 7220, 7307, 6808
14678, 6569, 7108, 6771
14679, 6958, 6987, 6481
14680, 7064, 7227, 6499
14681, 6531, 7330, 6820
14682, 7070, 7294, 6634
14683, 514, 6932, 515
14684, 6768, 7140, 6573
14685, 6556, 7026, 6825
14686, 145, 6885, 144
14687, 6591, 7121, 6751
14688, 6568, 7275, 6999
14689, 6760, 7110, 6862
14690, 6590, 6968, 6952
14691, 263, 6886, 264
14692, 6785, 7168, 6494
14693, 6786, 7297, 6619
14694, 487, 7120, 488
14695, 6816, 7202, 517
14696, 6589, 7008, 6920
14697, 6865, 7328, 7016
14698, 516, 7233, 6816
14699, 6805, 7251, 7236
14700, 482, 7118, 483
14701, 6862, 6990, 273
14702, 6575, 7118, 6772
14703, 7222, 7291, 6807
14704, 477, 7114, 478
14705, 465, 6891, 466
14706, 6761, 7143, 6539
14707, 423, 7108, 422
14708, 6772, 7142, 6577
14709, 6570, 7228, 6985
14710, 6565, 7072, 6873
14711, 6758, 7260, 6519
14712, 6519, 7278, 6758
14713, 6791, 7116, 276
14714, 6918, 7028, 6473
14715, 6548, 7309, 6822
14716, 6553, 6939, 6818
14717, 6734, 7309, 6851
14718, 7055, 7085, 6470
14719, 6767, 7127, 6595
14720, 6581, 7120, 6776
14721, 447, 6907, 446
14722, 6920, 7008, 6633
14723, 6579, 7268, 6763
14724, 6616, 7168, 6785
14725, 6971, 7169, 6582
14726, 21, 6904, 230
14727, 7061, 7245, 6668
14728, 6556, 7098, 6787
14729, 451, 6909, 450
14730, 418, 7102, 417
14731, 6549, 7084, 6784
14732, 6776, 7141, 6584
14733, 6826, 7219, 452
14734, 7067, 7074, 305
14735, 6491, 7190, 7023
14736, 6481, 7184, 6870
14737, 453, 7253, 6826
14738, 6552, 6950, 6812
14739, 6793, 7107, 6495
14740, 6598, 6990, 6862
14741, 472, 7125, 473
14742, 413, 7109, 412
14743, 6771, 7081, 6600
14744, 6764, 7206, 6520
14745, 6819, 7248, 6738
14746, 6855, 6963, 6622
14747, 7189, 7283, 6796
14748, 6603, 6963, 6855
14749, 6774, 7113, 6601
14750, 7233, 7330, 6816
14751, 6664, 7103, 7088
14752, 6778, 7138, 6592
14753, 462, 7082, 463
14754, 6617, 7010, 6950
14755, 6469, 7214, 6764
14756, 455, 6981, 454
14757, 6539, 7143, 6940
14758, 6574, 6914, 6894
14759, 6611, 7214, 6775
14760, 509, 7158, 510
14761, 6880, 6997, 6615
14762, 6560, 6992, 6933
14763, 6770, 7265, 6567
14764, 6829, 7332, 6681
14765, 6471, 7221, 6770
14766, 265, 6962, 266
14767, 6485, 7117, 6944
14768, 6940, 7143, 6669
14769, 513, 7165, 514
14770, 6919, 6995, 6554
14771, 6676, 7086, 6878
14772, 6548, 6967, 6851
14773, 6626, 6995, 6919
14774, 6775, 7214, 6469
14775, 7236, 7251, 6625
14776, 6593, 7071, 6779
14777, 6707, 6998, 6797
14778, 6774, 7256, 428
14779, 6562, 7021, 6801
14780, 269, 7332, 6829
14781, 6775, 7205, 6611
14782, 6778, 7257, 492
14783, 408, 7098, 407
14784, 6563, 6996, 6961
14785, 6779, 7080, 6596
14786, 6840, 6942, 6599
14787, 6620, 6942, 6840
14788, 521, 7308, 522
14789, 6626, 7050, 6995
14790, 6605, 7107, 6793
14791, 6924, 7334, 6712
14792, 6888, 7155, 6554
14793, 7089, 7163, 6475
14794, 6851, 7309, 6548
14795, 147, 7042, 146
14796, 304, 7067, 305
14797, 6546, 7242, 6835
14798, 6602, 7106, 6977
14799, 7193, 7288, 6806
14800, 6469, 7157, 6775
14801, 6463, 7334, 6924
14802, 6832, 6995, 6479
14803, 6632, 7092, 7048
14804, 7144, 7178, 6472
14805, 6850, 7328, 6547
14806, 400, 7320, 21
14807, 6891, 7078, 6557
14808, 6908, 6924, 6712
14809, 6880, 7026, 6556
14810, 6450, 7016, 6814
14811, 6801, 7021, 403
14812, 6822, 7058, 6548
14813, 6864, 6997, 6556
14814, 6451, 6974, 6947
14815, 266, 7207, 267
14816, 466, 7197, 467
14817, 6606, 6903, 6902
14818, 6518, 7205, 6775
14819, 6620, 7224, 6797
14820, 7216, 7303, 6815
14821, 6902, 6903, 6555
14822, 6553, 7082, 6798
14823, 6787, 7181, 6587
14824, 6805, 7236, 6523
14825, 6728, 7182, 6805
14826, 6852, 6936, 6542
14827, 6705, 6993, 6836
14828, 6541, 6924, 6908
14829, 7023, 7190, 6679
14830, 6849, 6930, 6469
14831, 6556, 6997, 6880
14832, 6894, 6914, 6566
14833, 7093, 7162, 6476
14834, 518, 7041, 519
14835, 6789, 7206, 6611
14836, 6781, 7295, 6585
14837, 6667, 7319, 7083
14838, 6635, 7155, 7027
14839, 6806, 7274, 7188
14840, 6474, 7226, 6781
14841, 6533, 7273, 6791
14842, 6611, 7311, 6789
14843, 6785, 7232, 6616
14844, 6641, 7073, 7001
14845, 6866, 7332, 268
14846, 6501, 7326, 7234
14847, 6815, 7301, 7209
14848, 6940, 7246, 6647
14849, 6838, 6969, 6714
14850, 456, 7172, 455
14851, 6797, 7224, 6522
14852, 6948, 7001, 6574
14853, 6603, 7124, 6788
14854, 6699, 7178, 7144
14855, 6685, 7145, 6900
14856, 405, 6956, 404
14857, 305, 7074, 306
14858, 6825, 7098, 6556
14859, 6996, 7333, 6961
14860, 6557, 7197, 6891
14861, 6834, 7109, 6555
14862, 6764, 7214, 7206
14863, 447, 7209, 6907
14864, 6507, 7211, 7037
14865, 6814, 7016, 6628
14866, 6791, 7273, 6609
14867, 6571, 6988, 6935
14868, 6966, 7017, 6482
14869, 451, 7219, 6909
14870, 6837, 7078, 6496
14871, 6809, 7054, 442
14872, 6677, 7299, 6824
14873, 6818, 7082, 6553
14874, 7206, 7214, 6611
14875, 6824, 7299, 458
14876, 6635, 7027, 6957
14877, 7101, 7156, 6478
14878, 6634, 7294, 6792
14879, 273, 6990, 274
14880, 6470, 7085, 6873
14881, 6582, 7169, 6986
14882, 6784, 7005, 6549
14883, 506, 7063, 6813
14884, 6907, 7209, 6662
14885, 437, 6965, 436
14886, 6813, 7063, 6613
14887, 6846, 7028, 6604
14888, 6885, 7204, 144
14889, 6909, 7219, 6666
14890, 263, 7203, 6886
14891, 6933, 7048, 6560
14892, 6831, 6967, 6619
14893, 6473, 7028, 6846
14894, 500, 7247, 6788
14895, 7072, 7164, 6470
14896, 145, 7312, 6885
14897, 6788, 7247, 6765
14898, 6632, 7048, 6933
14899, 6483, 6998, 6914
14900, 6886, 7314, 264
14901, 6612, 7054, 6809
14902, 6826, 7305, 7219
14903, 6571, 7184, 6988
14904, 6558, 6969, 6838
14905, 6520, 7206, 6789
14906, 6802, 7157, 6469
14907, 6870, 7048, 6481
14908, 6955, 7011, 6480
14909, 6796, 7158, 509
14910, 6452, 6989, 6964
14911, 6892, 7149, 6560
14912, 6794, 7243, 6753
14913, 6562, 7310, 6785
14914, 6564, 6979, 6859
14915, 6859, 6979, 6703
14916, 6838, 7125, 6558
14917, 6477, 7010, 6926
14918, 6970, 7212, 6701
14919, 6825, 7026, 6702
14920, 6816, 7300, 7202
14921, 6784, 7084, 17
14922, 6869, 7331, 6759
14923, 6789, 7311, 7160
14924, 7105, 7150, 6480
14925, 6497, 7212, 6970
14926, 6833, 7021, 6562
14927, 7066, 7073, 6641
14928, 6554, 6995, 6832
14929, 6562, 6984, 6833
14930, 6485, 7182, 6952
14931, 6889, 6952, 6572
14932, 6561, 7152, 6843
14933, 6807, 7291, 6606
14934, 6555, 7094, 6834
14935, 7160, 7311, 6456
14936, 7002, 7065, 6662
14937, 6576, 6975, 6915
14938, 6491, 7065, 7002
14939, 6836, 6993, 6458
14940, 468, 7036, 6859
14941, 6654, 7193, 6907
14942, 6690, 7334, 6938
14943, 6907, 7193, 446
14944, 6479, 7050, 6945
14945, 7164, 7328, 6850
14946, 7100, 7159, 6482
14947, 6868, 7033, 6499
14948, 6610, 7104, 6890
14949, 6583, 7006, 6941
14950, 6646, 7085, 7055
14951, 7075, 7083, 6578
14952, 6808, 7165, 513
14953, 6697, 7245, 6970
14954, 6661, 7216, 6909
14955, 6843, 7102, 6561
14956, 6970, 7245, 6497
14957, 6909, 7216, 450
14958, 6858, 6999, 6720
14959, 6865, 7016, 6450
14960, 6702, 7316, 6956
14961, 6855, 7124, 6603
14962, 6672, 7325, 6849
14963, 6488, 7049, 6971
14964, 6971, 7049, 6639
14965, 6938, 7334, 6463
14966, 6657, 7307, 7220
14967, 6567, 7055, 6850
14968, 519, 7180, 520
14969, 6481, 7092, 6958
14970, 6952, 6968, 6485
14971, 6804, 7250, 6748
14972, 6799, 7273, 6533
14973, 6566, 7100, 6894
14974, 7088, 7103, 6500
14975, 403, 7021, 402
14976, 6849, 7325, 6537
14977, 7045, 7132, 6666
14978, 6475, 7163, 6913
14979, 6609, 7273, 6799
14980, 6859, 7036, 6564
14981, 6582, 7287, 6971
14982, 6689, 7153, 6906
14983, 6485, 7251, 6805
14984, 6484, 7176, 7099
14985, 463, 7082, 6818
14986, 6569, 7195, 6854
14987, 6953, 7191, 6486
14988, 6655, 7194, 6809
14989, 6972, 7276, 6718
14990, 6477, 7263, 6812
14991, 402, 7021, 6833
14992, 6943, 7027, 6478
14993, 7035, 7154, 6475
14994, 6648, 7139, 7004
14995, 6506, 7269, 7111
14996, 6979, 7064, 6499
14997, 6867, 7324, 6563
14998, 6571, 7105, 6892
14999, 6504, 7094, 6903
15000, 6604, 7028, 6837
15001, 6810, 7304, 6617
15002, 7187, 7261, 6694
15003, 6675, 7097, 28
15004, 523, 7025, 524
15005, 6813, 7174, 6649
15006, 6471, 6997, 6864
15007, 6582, 7000, 6878
15008, 6476, 7162, 6925
15009, 6568, 6999, 6858
15010, 6894, 7135, 6574
15011, 6923, 7091, 414
15012, 7286, 7325, 6672
15013, 44, 7123, 6675
15014, 6647, 7074, 7067
15015, 6623, 7221, 6827
15016, 6827, 7221, 6471
15017, 407, 7098, 6825
15018, 442, 7054, 441
15019, 6478, 7156, 6943
15020, 7000, 7057, 6489
15021, 6650, 7057, 7000
15022, 6926, 7010, 6561
15023, 6858, 7114, 6568
15024, 6854, 7108, 6569
15025, 7023, 7288, 6654
15026, 6604, 7177, 6821
15027, 6812, 7223, 6583
15028, 6576, 7101, 6888
15029, 6878, 7000, 6489
15030, 6872, 7147, 471
15031, 6459, 7086, 7052
15032, 6578, 7083, 6845
15033, 6659, 7163, 7089
15034, 6561, 7010, 6937
15035, 7052, 7086, 6676
15036, 6912, 7220, 511
15037, 6657, 7220, 6912
15038, 6876, 7140, 476
15039, 412, 7109, 6834
15040, 6921, 7127, 419
15041, 6480, 7150, 6955
15042, 503, 7133, 6869
15043, 6915, 6975, 6454
15044, 6572, 7317, 6889
15045, 6628, 7227, 6814
15046, 6869, 7133, 6622
15047, 6897, 7062, 6505
15048, 7051, 7276, 6722
15049, 6464, 7276, 7051
15050, 6914, 7073, 6483
15051, 6565, 7147, 6872
15052, 6493, 7132, 7045
15053, 6581, 7264, 6877
15054, 473, 7125, 6838
15055, 478, 7114, 6858
15056, 417, 7102, 6843
15057, 6575, 7266, 6871
15058, 6884, 7142, 481
15059, 6925, 7031, 6476
15060, 6457, 7151, 6954
15061, 6583, 7093, 6883
15062, 6903, 7094, 6555
15063, 433, 7136, 6840
15064, 6486, 7191, 6819
15065, 6898, 7181, 409
15066, 6655, 7274, 6973
15067, 422, 7108, 6854
15068, 483, 7118, 6871
15069, 434, 7136, 433
15070, 6871, 7118, 6575
15071, 6893, 7141, 486
15072, 6608, 7064, 6839
15073, 6817, 7224, 6620
15074, 6881, 7019, 6451
15075, 6482, 7159, 6966
15076, 505, 7063, 506
15077, 6585, 7089, 6874
15078, 6937, 7152, 6561
15079, 6917, 7113, 429
15080, 6703, 7033, 6872
15081, 6898, 7022, 6587
15082, 6713, 7022, 6898
15083, 6872, 7033, 6565
15084, 488, 7120, 6877
15085, 6591, 7324, 6867
15086, 6664, 7088, 6994
15087, 6863, 7144, 6472
15088, 7031, 7161, 6476
15089, 6573, 7140, 6876
15090, 6899, 7138, 491
15091, 6822, 7309, 6525
15092, 6667, 7083, 7075
15093, 6565, 7033, 6868
15094, 6850, 7055, 6470
15095, 7057, 7194, 6489
15096, 6503, 7026, 6880
15097, 6914, 6998, 6566
15098, 6557, 7078, 6837
15099, 6868, 7072, 6565
15100, 6473, 7137, 6839
15101, 6535, 7123, 7053
15102, 6663, 7330, 7233
15103, 6959, 7117, 6637
15104, 6640, 7149, 7011
15105, 6839, 7137, 6608
15106, 6488, 7174, 7049
15107, 6841, 7148, 6570
15108, 6901, 7009, 6452
15109, 6559, 7117, 6959
15110, 526, 7289, 30
15111, 6692, 7171, 6911
15112, 6834, 7094, 6713
15113, 6947, 6974, 6567
15114, 7023, 7065, 6491
15115, 6889, 7099, 6590
15116, 6932, 7233, 515
15117, 6678, 7077, 7076
15118, 6654, 7065, 7023
15119, 6663, 7233, 6932
15120, 6876, 7062, 6573
15121, 7076, 7077, 6597
15122, 6935, 6988, 6455
15123, 6919, 7003, 6453
15124, 6666, 7305, 7045
15125, 6877, 7120, 6581
15126, 6717, 7246, 6931
15127, 270, 7090, 271
15128, 7185, 7212, 6614
15129, 800, 7228, 799
15130, 6933, 6992, 6454
15131, 6656, 7162, 7093
15132, 6987, 7032, 6644
15133, 6483, 7066, 6942
15134, 6560, 7048, 6870
15135, 6640, 7011, 6978
15136, 30, 7289, 803
15137, 6844, 7318, 6538
15138, 6913, 7035, 6475
15139, 6577, 7142, 6884
15140, 502, 7133, 503
15141, 6845, 7083, 6466
15142, 6830, 7172, 456
15143, 6599, 7313, 6840
15144, 6884, 7131, 6577
15145, 6988, 7184, 6644
15146, 6649, 7283, 7189
15147, 6498, 7186, 7034
15148, 6837, 7177, 6604
15149, 7034, 7186, 6682
15150, 276, 7116, 277
15151, 6827, 7222, 6623
15152, 7029, 7057, 6650
15153, 6824, 7269, 6677
15154, 6860, 7067, 304
15155, 460, 7129, 459
15156, 6840, 7136, 6620
15157, 6828, 7311, 6611
15158, 6460, 7145, 7079
15159, 6612, 7057, 7029
15160, 6625, 7166, 6887
15161, 7079, 7145, 6685
15162, 6574, 7073, 6914
15163, 6893, 7183, 6584
15164, 6648, 7284, 7139
15165, 6887, 7166, 439
15166, 6573, 7062, 6897
15167, 6960, 7195, 6569
15168, 6897, 7035, 6573
15169, 6959, 7030, 6522
15170, 6616, 7232, 6857
15171, 6899, 7218, 6592
15172, 6681, 7215, 6829
15173, 6611, 7205, 6828
15174, 6507, 7304, 7211
15175, 6867, 7179, 6449
15176, 6646, 7252, 7085
15177, 6923, 7037, 6594
15178, 6532, 7305, 6826
15179, 6723, 7037, 6923
15180, 6455, 7001, 6948
15181, 6599, 7260, 6910
15182, 7046, 7103, 6664
15183, 6941, 7006, 6453
15184, 6890, 7104, 6450
15185, 6648, 7285, 7281
15186, 6584, 7141, 6893
15187, 6937, 7010, 6617
15188, 6456, 7311, 6828
15189, 7027, 7155, 6478
15190, 6714, 7062, 6876
15191, 6835, 7242, 6468
15192, 6496, 7177, 6837
15193, 6964, 6989, 6585
15194, 6624, 7226, 6842
15195, 439, 7166, 438
15196, 6662, 7301, 7002
15197, 6842, 7226, 6474
15198, 6843, 7152, 6723
15199, 6861, 7268, 6579
15200, 6963, 7176, 6484
15201, 1017, 7173, 1018
15202, 6855, 7133, 502
15203, 6862, 7110, 6598
15204, 6873, 7072, 6470
15205, 6808, 7307, 7290
15206, 6917, 7278, 6601
15207, 6449, 7167, 6844
15208, 6653, 7156, 7101
15209, 6701, 7212, 7185
15210, 6934, 7131, 6508
15211, 6563, 7324, 6996
15212, 6796, 7283, 7259
15213, 7259, 7283, 6526
15214, 142, 7231, 141
15215, 260, 7230, 261
15216, 6507, 7152, 6937
15217, 6832, 7210, 6576
15218, 6900, 7190, 6491
15219, 7290, 7307, 6528
15220, 6986, 7000, 6582
15221, 6873, 7085, 6558
15222, 6736, 7040, 6921
15223, 6592, 7138, 6899
15224, 1015, 7199, 1016
15225, 6686, 7130, 7128
15226, 6470, 7164, 6850
15227, 1019, 7200, 1020
15228, 7121, 7177, 6496
15229, 6874, 7089, 6475
15230, 444, 7188, 443
15231, 6621, 7103, 7046
15232, 7128, 7130, 6607
15233, 6934, 7031, 6577
15234, 6622, 7133, 6855
15235, 6619, 7297, 6831
15236, 6495, 7255, 6920
15237, 507, 7189, 508
15238, 6637, 7117, 6968
15239, 6666, 7132, 6909
15240, 6587, 7181, 6898
15241, 261, 7230, 6847
15242, 6945, 7050, 6569
15243, 6921, 7040, 6595
15244, 6962, 7314, 6694
15245, 6848, 7231, 142
15246, 265, 7314, 6962
15247, 6577, 7131, 6934
15248, 446, 7193, 445
15249, 6510, 7261, 7187
15250, 6912, 7060, 6657
15251, 6856, 7213, 6609
15252, 6654, 7288, 7193
15253, 6586, 7144, 6863
15254, 432, 7313, 6910
15255, 6662, 7065, 6907
15256, 6883, 7093, 6476
15257, 7274, 7288, 6527
15258, 6651, 7060, 6912
15259, 6563, 7179, 6867
15260, 6806, 7288, 7274
15261, 517, 7202, 518
15262, 6907, 7065, 6654
15263, 262, 7203, 263
15264, 7250, 7327, 425
15265, 144, 7204, 143
15266, 7011, 7149, 6480
15267, 6639, 7169, 6971
15268, 6842, 7211, 6624
15269, 6512, 7196, 7040
15270, 6857, 7146, 6538
15271, 6863, 7310, 6562
15272, 448, 7209, 447
15273, 6804, 7327, 7250
15274, 6539, 7302, 6860
15275, 6650, 7000, 6986
15276, 6499, 7227, 6868
15277, 6537, 7325, 6831
15278, 7099, 7176, 6658
15279, 6868, 7227, 6628
15280, 6847, 7230, 6643
15281, 6957, 7027, 6584
15282, 6831, 7297, 6537
15283, 6622, 7331, 6869
15284, 450, 7216, 449
15285, 6569, 7050, 6960
15286, 6642, 7231, 6848
15287, 452, 7219, 451
15288, 511, 7220, 512
15289, 6645, 7150, 7105
15290, 6590, 7151, 6968
15291, 401, 7323, 400
15292, 6888, 7101, 6478
15293, 6968, 7151, 6637
15294, 6484, 7099, 6889
15295, 6675, 7123, 6535
15296, 7047, 7049, 6613
15297, 6594, 7091, 6923
15298, 6894, 7100, 6482
15299, 6720, 7131, 6884
15300, 6637, 7030, 6959
15301, 6639, 7049, 7047
15302, 6458, 7170, 6986
15303, 6892, 7105, 6480
15304, 7015, 7017, 6596
15305, 6475, 7154, 6874
15306, 6986, 7170, 6650
15307, 6652, 7017, 7015
15308, 6601, 7113, 6917
15309, 515, 7233, 516
15310, 6978, 7011, 6592
15311, 6502, 7292, 7237
15312, 426, 7250, 425
15313, 6595, 7127, 6921
15314, 499, 7247, 500
15315, 6535, 7097, 6675
15316, 6584, 7183, 6957
15317, 6576, 7210, 6975
15318, 494, 7243, 495
15319, 428, 7256, 427
15320, 7018, 7264, 6581
15321, 7017, 7135, 6482
15322, 6652, 7135, 7017
15323, 6906, 7198, 6493
15324, 454, 7253, 453
15325, 6489, 7194, 6973
15326, 6482, 7135, 6894
15327, 6973, 7194, 6655
15328, 6854, 7195, 6736
15329, 6928, 7119, 6619
15330, 7234, 7296, 6501
15331, 6476, 7161, 6883
15332, 492, 7257, 493
15333, 6606, 7291, 6903
15334, 6870, 7184, 6571
15335, 6661, 7303, 7216
15336, 6638, 7159, 7100
15337, 6504, 7291, 7222
15338, 7243, 7315, 495
15339, 7012, 7266, 6575
15340, 6794, 7315, 7243
15341, 6530, 7213, 6856
15342, 6480, 7149, 6892
15343, 6478, 7155, 6888
15344, 498, 7272, 499
15345, 6910, 7313, 6599
15346, 6932, 7087, 6663
15347, 6487, 7119, 6928
15348, 6942, 7066, 6599
15349, 458, 7299, 457
15350, 6857, 7318, 6616
15351, 6592, 7218, 6978
15352, 268, 7332, 269
15353, 6960, 7050, 6626
15354, 6643, 7237, 6847
15355, 6848, 7234, 6642
15356, 146, 7312, 145
15357, 264, 7314, 265
15358, 6909, 7132, 6661
15359, 425, 7327, 424
15360, 495, 7315, 496
15361, 6957, 7183, 6511
15362, 499, 7272, 7247
15363, 6660, 7087, 6932
15364, 7301, 7303, 6529
15365, 267, 7207, 6866
15366, 7247, 7272, 6765
15367, 6601, 7032, 6987
15368, 6512, 7195, 6960
15369, 6815, 7303, 7301
15370, 6472, 7310, 6863
15371, 6600, 7070, 6949
15372, 6583, 7223, 7006
15373, 7020, 7260, 6599
15374, 6615, 7241, 6880
15375, 6486, 7262, 6953
15376, 6694, 7261, 6962
15377, 6659, 7275, 7163
15378, 7281, 7285, 6729
15379, 6673, 7253, 6981
15380, 6981, 7253, 454
15381, 6735, 7183, 6893
15382, 6614, 7212, 6911
15383, 6913, 7163, 6568
15384, 6857, 7232, 6472
15385, 7188, 7274, 6655
15386, 6601, 7278, 7032
15387, 7146, 7178, 6610
15388, 6891, 7197, 466
15389, 6895, 7196, 6630
15390, 6816, 7330, 7300
15391, 6597, 7190, 6900
15392, 7300, 7330, 6531
15393, 6944, 7117, 6559
15394, 6936, 7281, 6729
15395, 6958, 7092, 6580
15396, 7209, 7301, 6662
15397, 6511, 7266, 7012
15398, 6925, 7162, 6575
15399, 520, 7180, 6916
15400, 6880, 7241, 6503
15401, 6871, 7266, 6735
15402, 7020, 7066, 6641
15403, 6607, 7198, 6906
15404, 6467, 7271, 6951
15405, 6599, 7066, 7020
15406, 6943, 7156, 6581
15407, 6887, 7236, 6625
15408, 7008, 7262, 6486
15409, 6740, 7279, 7053
15410, 6746, 7218, 6899
15411, 6538, 7318, 6857
15412, 6877, 7264, 6746
15413, 7041, 7245, 6697
15414, 6668, 7245, 7041
15415, 6722, 7276, 6972
15416, 6618, 7326, 7004
15417, 6505, 7238, 6897
15418, 6975, 7210, 6634
15419, 6580, 7092, 6980
15420, 6954, 7151, 6590
15421, 6955, 7150, 6588
15422, 6897, 7238, 6627
15423, 6978, 7218, 6514
15424, 6911, 7212, 6497
15425, 6617, 7304, 6937
15426, 518, 7202, 7041
15427, 6994, 7088, 6605
15428, 7103, 7215, 6500
15429, 6980, 7092, 6632
15430, 7041, 7202, 6668
15431, 6464, 7281, 6936
15432, 7219, 7305, 6666
15433, 6575, 7162, 7012
15434, 7012, 7162, 6656
15435, 6630, 7263, 6895
15436, 6895, 7263, 6477
15437, 6514, 7264, 7018
15438, 6966, 7159, 6593
15439, 6952, 7182, 6572
15440, 7053, 7123, 798
15441, 6581, 7156, 7018
15442, 7018, 7156, 6653
15443, 6944, 7251, 6485
15444, 6589, 7262, 7008
15445, 6603, 7176, 6963
15446, 6588, 7150, 7014
15447, 6567, 7265, 6947
15448, 7014, 7150, 6645
15449, 6991, 7331, 6622
15450, 6682, 7186, 6981
15451, 6981, 7186, 6673
15452, 6889, 7317, 6484
15453, 6910, 7260, 6758
15454, 6920, 7255, 6589
15455, 6951, 7271, 6602
15456, 6593, 7159, 7024
15457, 7024, 7159, 6638
15458, 6903, 7291, 6504
15459, 6727, 7284, 7208
15460, 7004, 7139, 6618
15461, 7208, 7284, 6648
15462, 7005, 7298, 6549
15463, 7202, 7300, 6668
15464, 6986, 7169, 6458
15465, 6585, 7295, 6964
15466, 6758, 7278, 6917
15467, 7043, 7176, 6603
15468, 6699, 7144, 7056
15469, 6658, 7176, 7043
15470, 7056, 7144, 6586
15471, 6693, 7312, 7042
15472, 7042, 7312, 146
15473, 6931, 7246, 6487
15474, 7167, 7318, 6844
15475, 7297, 7322, 6537
15476, 6934, 7267, 6631
15477, 6786, 7322, 7297
15478, 6519, 7260, 7020
15479, 6508, 7267, 6934
15480, 6860, 7302, 7067
15481, 6956, 7316, 6586
15482, 7032, 7278, 6519
15483, 6951, 7249, 6665
15484, 6940, 7302, 6539
15485, 6647, 7302, 6940
15486, 7096, 7111, 6629
15487, 6665, 7111, 7096
15488, 6953, 7262, 6725
15489, 6947, 7265, 6623
15490, 6605, 7270, 7107
15491, 6937, 7304, 6507
15492, 6636, 7240, 6972
15493, 6972, 7240, 6510
15494, 7006, 7223, 6630
15495, 6448, 7286, 7235
15496, 6506, 7249, 7068
15497, 6985, 7228, 800
15498, 7107, 7270, 6690
15499, 6962, 7261, 6684
15500, 6756, 7320, 6976
15501, 7235, 7286, 6721
15502, 6969, 7252, 6505
15503, 6957, 7306, 6635
15504, 7069, 7269, 6506
15505, 6648, 7281, 7208
15506, 6468, 7242, 7058
15507, 6677, 7269, 7069
15508, 6535, 7329, 7097
15509, 6721, 7293, 7248
15510, 141, 7231, 7122
15511, 7051, 7208, 6464
15512, 7126, 7230, 260
15513, 7248, 7293, 6520
15514, 6727, 7208, 7051
15515, 6964, 7295, 6624
15516, 6511, 7306, 6957
15517, 6651, 7259, 7013
15518, 7013, 7259, 6526
15519, 400, 7323, 6976
15520, 6971, 7287, 6488
15521, 7075, 7282, 6667
15522, 6961, 7333, 6757
15523, 6698, 7254, 7042
15524, 6812, 7263, 7223
15525, 7122, 7199, 1015
15526, 1020, 7200, 7126
15527, 6711, 7240, 7239
15528, 7285, 7296, 6729
15529, 7004, 7285, 6648
15530, 7239, 7240, 6636
15531, 6602, 7271, 7106
15532, 6501, 7285, 7004
15533, 6494, 7282, 7075
15534, 278, 7298, 7005
15535, 6999, 7275, 6508
15536, 7058, 7242, 6716
15537, 6727, 7292, 7284
15538, 6642, 7199, 7122
15539, 7126, 7200, 6643
15540, 6515, 7294, 7070
15541, 7139, 7284, 6502
15542, 6976, 7320, 400
15543, 6961, 7319, 6563
15544, 7016, 7328, 6628
15545, 6501, 7296, 7285
15546, 6525, 7333, 6996
15547, 6665, 7249, 7111
15548, 7042, 7254, 6693
15549, 7284, 7292, 6502
15550, 7111, 7249, 6506
15551, 427, 7256, 7044
15552, 7071, 7272, 498
15553, 6976, 7323, 6683
15554, 6549, 7298, 7201
15555, 6660, 7290, 7038
15556, 7038, 7290, 6528
15557, 493, 7257, 7059
15558, 6524, 7331, 6991
15559, 6616, 7318, 7167
15560, 6643, 7230, 7126
15561, 7122, 7231, 6642
15562, 6668, 7300, 7061
15563, 7004, 7326, 6501
15564, 7061, 7300, 6531
15565, 6656, 7321, 7012
15566, 6996, 7324, 6724
15567, 7012, 7321, 6511
15568, 6529, 7303, 7039
15569, 7039, 7303, 6661
15570, 496, 7315, 7080
15571, 7053, 7279, 6535
15572, 424, 7327, 7081
15573, 6511, 7321, 7306
15574, 7306, 7321, 6754
15575, 6808, 7290, 7165
15576, 7232, 7310, 6472
15577, 6745, 7282, 7168
15578, 7201, 7213, 6530
15579, 6715, 7213, 7201
15580, 6796, 7259, 7158
15581, 7158, 7259, 6651
15582, 7106, 7271, 6752
15583, 7221, 7265, 6770
15584, 6623, 7265, 7221
15585, 6586, 7316, 7056
15586, 7067, 7302, 6647
15587, 6628, 7328, 7164
15588, 7168, 7282, 6494
15589, 7165, 7290, 6660
15590, 7223, 7263, 6630
15591, 7208, 7281, 6464
15592, 7226, 7295, 6781
15593, 6624, 7295, 7226
15594, 7270, 7334, 6690
15595, 7097, 7329, 461
15596, 6712, 7334, 7270
15597, 7286, 7293, 6721
15598, 6729, 7296, 7277
15599, 6672, 7293, 7286
15600, 7280, 7292, 6727
15601, 6785, 7310, 7232
15602, 6670, 7292, 7280
15603, 7277, 7296, 6671
15604, 7201, 7298, 6715
*ELEMENT, type=CPS3, ELSET=Surface54
15605, 7430, 7747, 7599
15606, 7425, 7824, 7635
15607, 7515, 7822, 7789
15608, 7612, 8151, 7831
15609, 7652, 8252, 7427
15610, 76, 8397, 991
15611, 7665, 8268, 7492
15612, 7650, 8065, 7350
15613, 7427, 8252, 7631
15614, 7427, 7768, 7733
15615, 7592, 7760, 7463
15616, 7587, 8328, 7475
15617, 7467, 7814, 7735
15618, 7757, 7917, 7359
15619, 7584, 7893, 7433
15620, 7434, 7994, 7600
15621, 7476, 7870, 7723
15622, 7831, 8151, 7451
15623, 7789, 7822, 7449
15624, 7642, 7807, 7347
15625, 7475, 7931, 7587
15626, 7706, 8432, 8050
15627, 8050, 8432, 7494
15628, 7695, 7767, 7363
15629, 626, 8030, 7980
15630, 70, 7674, 921
15631, 7599, 7867, 7430
15632, 8286, 8300, 7417
15633, 7814, 8200, 7735
15634, 7656, 8286, 7417
15635, 7525, 8065, 7650
15636, 7433, 7798, 7584
15637, 252, 7660, 253
15638, 7399, 8012, 7622
15639, 7363, 7767, 7613
15640, 7797, 7834, 7343
15641, 7389, 7868, 7805
15642, 7759, 8034, 7561
15643, 7917, 7937, 7359
15644, 7497, 7767, 7695
15645, 7561, 8087, 7914
15646, 7978, 8121, 7582
15647, 7425, 8190, 7824
15648, 7531, 7834, 7797
15649, 7648, 7745, 7425
15650, 7646, 8300, 8286
15651, 149, 7774, 11
15652, 7870, 8116, 7723
15653, 70, 7880, 7674
15654, 7384, 7985, 7606
15655, 924, 7658, 925
15656, 7701, 7774, 149
15657, 7793, 7953, 7550
15658, 349, 7884, 7707
15659, 7636, 8025, 7478
15660, 7775, 7850, 7514
15661, 7633, 8268, 7665
15662, 7580, 8095, 247
15663, 7635, 7732, 7425
15664, 7619, 8204, 7847
15665, 7980, 8030, 7502
15666, 7534, 7752, 7751
15667, 50, 8241, 859
15668, 7630, 8086, 7347
15669, 7358, 8107, 7832
15670, 7420, 7872, 7774
15671, 7600, 8060, 7434
15672, 7708, 7730, 7396
15673, 7633, 8100, 7378
15674, 7483, 8303, 7722
15675, 247, 7943, 7580
15676, 338, 8133, 29
15677, 7429, 8073, 8042
15678, 43, 8134, 808
15679, 18, 8031, 206
15680, 7751, 7752, 7423
15681, 7521, 8034, 7759
15682, 7335, 8034, 7657
15683, 7712, 7966, 7359
15684, 7381, 7982, 7702
15685, 7702, 7982, 7530
15686, 370, 8015, 8008
15687, 7425, 7841, 7648
15688, 243, 7667, 244
15689, 7659, 8167, 7455
15690, 7774, 7872, 7499
15691, 7610, 7845, 7431
15692, 7359, 7966, 7757
15693, 7929, 7977, 7351
15694, 667, 7983, 7886
15695, 7522, 8086, 7630
15696, 38, 7880, 1010
15697, 7498, 7916, 7839
15698, 7782, 7874, 7415
15699, 7652, 8295, 7379
15700, 7489, 7953, 7793
15701, 210, 8166, 19
15702, 7657, 8034, 7521
15703, 7463, 8104, 7625
15704, 8008, 8015, 7588
15705, 7703, 8285, 7550
15706, 7429, 8286, 7827
15707, 7939, 8323, 7641
15708, 7890, 8344, 7478
15709, 7624, 8236, 7862
15710, 7692, 8229, 7357
15711, 7667, 8179, 7533
15712, 7466, 7850, 7775
15713, 7628, 7796, 7355
15714, 7916, 8135, 7839
15715, 7754, 7768, 7338
15716, 7450, 7826, 7593
15717, 7647, 8101, 806
15718, 7346, 8076, 7626
15719, 7626, 8076, 7509
15720, 7628, 7969, 7481
15721, 7432, 8231, 7679
15722, 7463, 7918, 7592
15723, 7634, 7891, 7360
15724, 7391, 7810, 7596
15725, 366, 8039, 8007
15726, 7550, 8285, 7793
15727, 240, 8153, 7677
15728, 12, 8162, 234
15729, 7364, 7825, 7635
15730, 8050, 8207, 7706
15731, 7847, 8204, 7456
15732, 7458, 7846, 7601
15733, 7845, 8063, 7590
15734, 7593, 8019, 7450
15735, 8007, 8039, 7591
15736, 7682, 8208, 7354
15737, 7412, 8236, 7624
15738, 7431, 8006, 7610
15739, 7827, 8286, 7656
15740, 7754, 7898, 7477
15741, 7677, 7894, 240
15742, 7898, 7963, 7477
15743, 7455, 7828, 7604
15744, 7644, 8383, 8081
15745, 7390, 8121, 7978
15746, 8081, 8364, 7644
15747, 7434, 8060, 7626
15748, 7427, 8057, 7856
15749, 7613, 7822, 7363
15750, 7597, 7959, 251
15751, 7421, 7838, 7684
15752, 7596, 7969, 7391
15753, 7725, 8023, 7436
15754, 7623, 7844, 7452
15755, 7418, 7968, 7744
15756, 7816, 7922, 7555
15757, 7379, 7788, 7652
15758, 7914, 8087, 7344
15759, 7665, 8100, 7633
15760, 7680, 7835, 7452
15761, 7478, 7964, 7636
15762, 7391, 7969, 7628
15763, 7381, 8075, 8009
15764, 8362, 8398, 7744
15765, 7481, 7796, 7628
15766, 7585, 8058, 7756
15767, 7477, 7768, 7754
15768, 7459, 7829, 7614
15769, 7601, 7875, 7458
15770, 831, 7742, 50
15771, 7446, 7825, 7785
15772, 7346, 8063, 7845
15773, 7388, 8016, 7638
15774, 7623, 7835, 393
15775, 7585, 8340, 8058
15776, 7877, 8124, 381
15777, 7896, 7936, 643
15778, 7637, 7927, 7525
15779, 7805, 7868, 7570
15780, 7626, 7960, 7434
15781, 7688, 7905, 7424
15782, 8167, 8427, 7455
15783, 7604, 8028, 7455
15784, 7636, 7964, 7356
15785, 7711, 7739, 7437
15786, 7380, 7900, 7746
15787, 7347, 7755, 7630
15788, 7987, 8303, 7483
15789, 7630, 8446, 7522
15790, 7351, 7977, 7664
15791, 7513, 8048, 7749
15792, 7375, 7922, 7816
15793, 7832, 8107, 7573
15794, 7862, 8236, 7460
15795, 7654, 8098, 7450
15796, 7738, 8231, 7432
15797, 7415, 7737, 7697
15798, 7676, 7978, 7582
15799, 7733, 7768, 7477
15800, 7963, 8043, 7477
15801, 7786, 8179, 7667
15802, 8023, 8138, 7436
15803, 7777, 7971, 681
15804, 7525, 8145, 7637
15805, 7355, 7796, 7645
15806, 7428, 8130, 7715
15807, 7723, 7761, 7476
15808, 7683, 8289, 395
15809, 7790, 8145, 7397
15810, 7637, 8145, 7790
15811, 7356, 7953, 7636
15812, 7626, 8060, 7346
15813, 7766, 8130, 7428
15814, 7614, 8035, 7459
15815, 7441, 8233, 8161
15816, 7364, 7824, 7700
15817, 7635, 7824, 7364
15818, 8048, 8180, 7749
15819, 7394, 8025, 7636
15820, 251, 8077, 7597
15821, 7487, 7936, 7896
15822, 7452, 7835, 7623
15823, 7753, 8040, 7445
15824, 7383, 7949, 7583
15825, 7478, 8344, 7964
15826, 7582, 8326, 7676
15827, 7785, 7825, 7516
15828, 7733, 8057, 7427
15829, 7396, 8370, 7708
15830, 7684, 7838, 255
15831, 7407, 8204, 8188
15832, 8042, 8073, 7581
15833, 350, 7884, 349
15834, 7790, 8117, 7586
15835, 7680, 8366, 7835
15836, 7714, 8312, 7430
15837, 7936, 8176, 644
15838, 7776, 8178, 7568
15839, 7779, 7939, 7641
15840, 7627, 7974, 7383
15841, 7787, 8168, 7401
15842, 7367, 7819, 7649
15843, 7679, 7778, 7432
15844, 7639, 8168, 7787
15845, 7361, 8323, 7939
15846, 7635, 7825, 7446
15847, 7722, 7789, 7336
15848, 7787, 8139, 7595
15849, 7807, 8143, 7347
15850, 7606, 7895, 7384
15851, 7744, 7968, 7578
15852, 7336, 7785, 7724
15853, 393, 8289, 7623
15854, 7621, 8156, 8089
15855, 7420, 7774, 7701
15856, 7656, 8067, 7365
15857, 7509, 8282, 7626
15858, 7699, 7804, 7445
15859, 7428, 8097, 7755
15860, 7430, 8312, 8103
15861, 7709, 7785, 7336
15862, 7755, 8097, 7630
15863, 7397, 8117, 7790
15864, 7445, 8040, 7807
15865, 7353, 8174, 7654
15866, 7475, 8328, 7885
15867, 7645, 8214, 7355
15868, 7783, 8160, 7607
15869, 7783, 8193, 7404
15870, 7436, 7786, 7667
15871, 395, 8289, 394
15872, 7449, 7822, 7613
15873, 7640, 8193, 7783
15874, 7680, 8171, 7524
15875, 7401, 8139, 7787
15876, 7814, 7961, 7558
15877, 7439, 7907, 7643
15878, 7724, 8013, 7483
15879, 7920, 8330, 7640
15880, 7603, 8053, 7948
15881, 7625, 7918, 7463
15882, 7726, 8245, 7502
15883, 7430, 7867, 7678
15884, 7886, 7983, 7542
15885, 7600, 7994, 7848
15886, 7848, 7994, 7387
15887, 924, 7812, 7658
15888, 7397, 8145, 7650
15889, 7691, 8083, 7957
15890, 7357, 7920, 7692
15891, 7779, 8188, 7616
15892, 7650, 8145, 7525
15893, 7566, 8124, 7877
15894, 7961, 8259, 7558
15895, 7895, 8296, 7384
15896, 7496, 7971, 7777
15897, 7338, 7820, 7673
15898, 7396, 7730, 7574
15899, 8006, 8170, 7390
15900, 7808, 8213, 7488
15901, 7404, 8160, 7783
15902, 7667, 8115, 244
15903, 7553, 8229, 7692
15904, 8012, 8227, 7622
15905, 804, 8101, 8026
15906, 7700, 7824, 7500
15907, 7779, 8218, 7407
15908, 7724, 8298, 8013
15909, 7354, 7906, 7682
15910, 7702, 8075, 7381
15911, 7641, 8218, 7779
15912, 7545, 8208, 7682
15913, 7347, 8086, 7642
15914, 8056, 8185, 7858
15915, 112, 7708, 113
15916, 7355, 7902, 7628
15917, 7632, 7855, 7463
15918, 7480, 8184, 7668
15919, 8151, 8160, 7404
15920, 7631, 7989, 7427
15921, 252, 7959, 7660
15922, 7407, 8188, 7779
15923, 7669, 7973, 7517
15924, 8308, 8361, 7573
15925, 7650, 8054, 7397
15926, 7643, 8127, 7439
15927, 7624, 8294, 7412
15928, 7528, 8023, 7713
15929, 7713, 8023, 7349
15930, 7689, 8236, 7412
15931, 8188, 8204, 7619
15932, 7906, 8272, 7639
15933, 7482, 7833, 7693
15934, 7622, 8033, 7399
15935, 7672, 7908, 927
15936, 7370, 7866, 7801
15937, 8174, 8230, 7654
15938, 8045, 8104, 677
15939, 7970, 8027, 7426
15940, 7705, 8037, 7350
15941, 7526, 8037, 7705
15942, 7705, 8233, 7441
15943, 7667, 7990, 7436
15944, 7406, 8239, 7642
15945, 7650, 7925, 7442
15946, 7948, 8053, 7393
15947, 7889, 8209, 7637
15948, 7784, 7837, 7340
15949, 7638, 7931, 7388
15950, 7390, 8332, 8006
15951, 7376, 7975, 7718
15952, 7625, 8104, 8045
15953, 1002, 8412, 80
15954, 8221, 8247, 7758
15955, 7746, 7900, 7510
15956, 7658, 7991, 925
15957, 7957, 8083, 236
15958, 7350, 7925, 7650
15959, 7673, 7820, 7453
15960, 806, 8101, 805
15961, 7401, 8168, 7670
15962, 7729, 8304, 51
15963, 7437, 8221, 7758
15964, 7463, 8078, 7632
15965, 7701, 7952, 7479
15966, 7832, 7841, 7358
15967, 7670, 8168, 7538
15968, 7644, 7932, 7447
15969, 8089, 8156, 7377
15970, 7718, 7975, 7512
15971, 7383, 8090, 7627
15972, 878, 7748, 18
15973, 7628, 7875, 7391
15974, 7446, 7785, 7709
15975, 643, 7936, 644
15976, 257, 8198, 7778
15977, 7703, 8207, 7398
15978, 7621, 8089, 7710
15979, 7681, 8321, 7399
15980, 7670, 8102, 7401
15981, 7708, 8443, 7730
15982, 8042, 8439, 7429
15983, 7827, 8073, 7429
15984, 7365, 7827, 7656
15985, 7654, 8136, 7353
15986, 7533, 8115, 7667
15987, 7677, 8296, 7895
15988, 358, 7743, 357
15989, 7655, 8136, 7450
15990, 7642, 8108, 7406
15991, 7450, 8136, 7654
15992, 7532, 8056, 7858
15993, 7664, 8163, 7351
15994, 7508, 7874, 7782
15995, 7692, 8204, 7407
15996, 7337, 8249, 7804
15997, 7682, 8151, 7404
15998, 7772, 7950, 1003
15999, 7583, 8040, 7383
16000, 7353, 8209, 7889
16001, 8102, 8139, 7401
16002, 7371, 7901, 7687
16003, 7477, 8043, 7733
16004, 7631, 7836, 7453
16005, 7804, 8249, 7668
16006, 7426, 7868, 7605
16007, 7412, 7798, 7685
16008, 7504, 7991, 7658
16009, 7404, 8193, 7682
16010, 7515, 7789, 7722
16011, 7715, 7908, 7469
16012, 7922, 8158, 7555
16013, 7821, 7869, 7339
16014, 7538, 8230, 8174
16015, 7677, 7895, 7485
16016, 7550, 8207, 7703
16017, 7450, 8019, 7655
16018, 7682, 8193, 7545
16019, 7783, 7920, 7640
16020, 7613, 7966, 7449
16021, 7772, 7970, 7426
16022, 7453, 7820, 7631
16023, 7527, 8364, 8081
16024, 7454, 7929, 7781
16025, 1019, 7738, 1018
16026, 7762, 8066, 7548
16027, 7724, 7785, 7516
16028, 348, 8047, 7793
16029, 7544, 7963, 7782
16030, 257, 7778, 258
16031, 7636, 7953, 7489
16032, 7375, 8245, 7726
16033, 7531, 8135, 7687
16034, 805, 8101, 804
16035, 7378, 7890, 7633
16036, 8054, 8117, 7397
16037, 7474, 8158, 7922
16038, 8203, 8265, 7546
16039, 7802, 7929, 7454
16040, 7537, 7977, 7929
16041, 7708, 7930, 113
16042, 7522, 8446, 7815
16043, 7756, 8431, 7585
16044, 7447, 7823, 7644
16045, 7905, 8406, 7424
16046, 7801, 7866, 7536
16047, 8175, 8431, 7756
16048, 65, 7748, 878
16049, 7720, 8265, 8203
16050, 7657, 7844, 7410
16051, 7792, 7904, 7448
16052, 7354, 8272, 7906
16053, 153, 7739, 152
16054, 7449, 8240, 7789
16055, 7385, 8178, 7776
16056, 7523, 7904, 7792
16057, 7728, 7755, 7539
16058, 7795, 7803, 7341
16059, 7652, 7788, 7366
16060, 7407, 8218, 7692
16061, 7687, 8135, 7371
16062, 7406, 8212, 7699
16063, 8105, 8266, 7465
16064, 7670, 7889, 7443
16065, 7446, 8159, 7635
16066, 7692, 8218, 7553
16067, 7674, 7880, 7413
16068, 7687, 7834, 7531
16069, 7933, 8168, 7639
16070, 7433, 7893, 7719
16071, 681, 7971, 38
16072, 7455, 8114, 7659
16073, 7751, 8128, 7524
16074, 7891, 8058, 7360
16075, 7551, 8304, 7729
16076, 8161, 8233, 7602
16077, 7711, 8405, 7739
16078, 7712, 7842, 7449
16079, 7452, 7830, 7680
16080, 7657, 8309, 7335
16081, 348, 7793, 347
16082, 7459, 8059, 7829
16083, 7367, 7915, 7799
16084, 7699, 8212, 7559
16085, 7442, 8054, 7650
16086, 7399, 8033, 7681
16087, 806, 7934, 7647
16088, 206, 8398, 8362
16089, 7612, 8160, 8151
16090, 990, 7686, 989
16091, 7434, 8319, 7994
16092, 7521, 8111, 7657
16093, 7649, 7915, 7367
16094, 7662, 8114, 7455
16095, 7459, 8409, 8059
16096, 7583, 8143, 7807
16097, 8066, 8175, 7548
16098, 7855, 8104, 7463
16099, 7658, 8092, 7504
16100, 7357, 8330, 7920
16101, 7421, 8251, 7838
16102, 149, 8416, 7701
16103, 7985, 8280, 7606
16104, 237, 8083, 8018
16105, 7678, 8385, 7823
16106, 356, 7750, 355
16107, 7455, 8028, 7662
16108, 7538, 8174, 7670
16109, 7408, 8092, 7658
16110, 7664, 8213, 7808
16111, 7476, 8152, 7883
16112, 378, 8055, 7913
16113, 7823, 8385, 399
16114, 7830, 8171, 7680
16115, 7808, 7849, 7372
16116, 7879, 8072, 7438
16117, 7415, 8293, 7782
16118, 7658, 8052, 7408
16119, 20, 7823, 399
16120, 7468, 8110, 7898
16121, 7400, 7927, 7655
16122, 7417, 7924, 7656
16123, 7673, 8169, 7338
16124, 7737, 7874, 7462
16125, 7847, 8301, 7619
16126, 7538, 8168, 7933
16127, 7857, 8152, 7476
16128, 7719, 7893, 645
16129, 8098, 8388, 7450
16130, 7472, 7878, 7660
16131, 352, 7956, 7661
16132, 1003, 7950, 1002
16133, 7743, 8358, 7448
16134, 343, 7871, 7681
16135, 7831, 8284, 7612
16136, 7915, 8221, 7799
16137, 7743, 8277, 357
16138, 7684, 8382, 7472
16139, 7655, 8019, 7400
16140, 7459, 8112, 7663
16141, 7435, 7800, 7716
16142, 7925, 8140, 7442
16143, 7964, 8290, 7356
16144, 7862, 8320, 7624
16145, 7842, 8240, 7449
16146, 116, 8191, 7
16147, 7949, 8126, 7583
16148, 7768, 7989, 7338
16149, 8111, 8123, 7830
16150, 7688, 8244, 339
16151, 7752, 8363, 7962
16152, 7392, 8200, 7814
16153, 7897, 8092, 7579
16154, 7782, 7963, 7373
16155, 372, 8271, 7826
16156, 7462, 7874, 7865
16157, 7702, 7879, 7438
16158, 245, 7764, 246
16159, 7447, 8041, 7714
16160, 7458, 8317, 8077
16161, 7781, 8387, 7638
16162, 7660, 7878, 253
16163, 7452, 8111, 7830
16164, 796, 7618, 43
16165, 29, 7618, 796
16166, 7427, 7856, 7652
16167, 7373, 8110, 7691
16168, 8092, 8354, 7579
16169, 7666, 8264, 8196
16170, 7433, 8213, 7664
16171, 7471, 8033, 7622
16172, 7488, 7849, 7808
16173, 389, 7740, 388
16174, 65, 8105, 7748
16175, 7699, 8239, 7406
16176, 7660, 8155, 7472
16177, 7661, 8106, 352
16178, 7568, 8337, 7776
16179, 7663, 8409, 7459
16180, 7787, 7906, 7639
16181, 7472, 8238, 7684
16182, 8009, 8075, 7556
16183, 7807, 8239, 7445
16184, 7642, 8239, 7807
16185, 7495, 8000, 7694
16186, 7701, 8374, 7420
16187, 669, 7769, 670
16188, 7524, 8171, 7751
16189, 7682, 7906, 7451
16190, 7675, 8112, 7459
16191, 7685, 8261, 7412
16192, 7610, 8076, 7845
16193, 7715, 8350, 7908
16194, 7605, 8292, 7426
16195, 7453, 8126, 7949
16196, 7845, 8076, 7346
16197, 7776, 7845, 7590
16198, 7696, 7866, 7370
16199, 7448, 8358, 7792
16200, 7403, 7933, 7662
16201, 245, 8115, 7764
16202, 7718, 8041, 7447
16203, 7703, 7967, 346
16204, 7727, 8247, 7557
16205, 7459, 8035, 7675
16206, 7755, 8143, 7539
16207, 7410, 8000, 7657
16208, 7469, 7908, 7672
16209, 7720, 8203, 7362
16210, 7443, 8102, 7670
16211, 7556, 8075, 7769
16212, 339, 7905, 7688
16213, 8018, 8099, 7572
16214, 7668, 8093, 7480
16215, 7769, 8075, 7438
16216, 7358, 7732, 7716
16217, 255, 7838, 256
16218, 7694, 8000, 7410
16219, 7389, 8361, 8308
16220, 7636, 8010, 7394
16221, 7611, 8290, 7964
16222, 7504, 7947, 7672
16223, 680, 7777, 681
16224, 7662, 8028, 7403
16225, 7436, 7990, 7741
16226, 7458, 8077, 7846
16227, 7672, 8260, 7504
16228, 7691, 8246, 7373
16229, 7778, 8198, 7563
16230, 7366, 8252, 7652
16231, 7402, 7863, 7858
16232, 7471, 8401, 7681
16233, 7412, 8261, 7689
16234, 8196, 8264, 7345
16235, 7716, 7800, 7358
16236, 7441, 7851, 7705
16237, 7447, 7932, 7718
16238, 7598, 8139, 8102
16239, 7338, 7989, 7820
16240, 7671, 8164, 7938
16241, 7689, 8261, 7549
16242, 64, 8195, 1004
16243, 7821, 8012, 7547
16244, 7551, 7852, 7379
16245, 8138, 8165, 7786
16246, 7672, 8324, 7469
16247, 7582, 8072, 7879
16248, 7938, 8164, 7409
16249, 8099, 8110, 7468
16250, 7668, 8184, 7804
16251, 7486, 8001, 7694
16252, 7858, 7863, 7532
16253, 7872, 8129, 7499
16254, 7484, 7803, 7795
16255, 989, 8105, 65
16256, 7834, 8189, 7343
16257, 7514, 7850, 7799
16258, 7435, 7842, 7712
16259, 7518, 7837, 7784
16260, 7484, 7930, 7708
16261, 7948, 8346, 7603
16262, 7448, 7811, 7743
16263, 397, 7955, 396
16264, 7743, 7811, 7564
16265, 7426, 8027, 7868
16266, 7973, 8087, 7517
16267, 7379, 7986, 7551
16268, 7962, 8363, 7575
16269, 7405, 7942, 7675
16270, 7786, 8165, 7370
16271, 7351, 8387, 7781
16272, 8012, 8148, 7547
16273, 645, 8176, 7719
16274, 7617, 8140, 7925
16275, 7453, 7949, 7673
16276, 7454, 8353, 7750
16277, 7678, 8226, 7430
16278, 7645, 8129, 7872
16279, 7752, 7962, 7423
16280, 7362, 8247, 7727
16281, 927, 8260, 7672
16282, 7676, 7948, 7509
16283, 7431, 7845, 7776
16284, 7799, 7850, 7367
16285, 7646, 8189, 7834
16286, 7686, 8105, 989
16287, 7723, 8119, 7761
16288, 7622, 7954, 7471
16289, 7589, 8117, 8054
16290, 7520, 7916, 7861
16291, 7648, 7841, 7493
16292, 7723, 8249, 7337
16293, 7725, 8199, 7349
16294, 7717, 7872, 7420
16295, 7358, 7841, 7732
16296, 7685, 8279, 8216
16297, 7547, 7869, 7821
16298, 7447, 8226, 7823
16299, 7501, 7917, 7629
16300, 243, 7990, 7667
16301, 7558, 8249, 7723
16302, 372, 7826, 371
16303, 7474, 8227, 8012
16304, 7509, 7978, 7676
16305, 356, 8277, 7750
16306, 7451, 8151, 7682
16307, 7691, 8110, 7535
16308, 7573, 8361, 7968
16309, 7414, 8082, 7816
16310, 7467, 7866, 7696
16311, 8216, 8279, 7537
16312, 7675, 8035, 7405
16313, 7924, 8067, 7656
16314, 7692, 7920, 7456
16315, 7413, 7880, 7541
16316, 7885, 8022, 7475
16317, 7780, 8353, 7454
16318, 7790, 7889, 7637
16319, 7911, 8087, 7561
16320, 7690, 7923, 7470
16321, 7680, 7996, 391
16322, 7690, 7914, 7344
16323, 7561, 8342, 7759
16324, 397, 8429, 7955
16325, 7681, 8033, 7471
16326, 7699, 8402, 7804
16327, 7468, 8448, 7698
16328, 7713, 7946, 7480
16329, 7564, 8277, 7743
16330, 33, 8026, 621
16331, 7865, 7957, 235
16332, 7993, 8050, 7547
16333, 7411, 7923, 7690
16334, 7485, 7894, 7677
16335, 7549, 8225, 7689
16336, 7544, 8043, 7963
16337, 7, 7840, 170
16338, 7524, 7996, 7680
16339, 384, 7763, 383
16340, 7664, 7977, 7433
16341, 7557, 8311, 7727
16342, 7470, 7914, 7690
16343, 622, 7762, 623
16344, 7726, 8430, 7375
16345, 7684, 8238, 7421
16346, 7428, 7755, 7728
16347, 669, 8205, 7769
16348, 7694, 8001, 7365
16349, 7732, 7841, 7425
16350, 7486, 8038, 7683
16351, 370, 8008, 369
16352, 7344, 8331, 7690
16353, 7424, 7919, 7688
16354, 237, 8018, 238
16355, 7766, 8211, 930
16356, 804, 8026, 33
16357, 674, 7765, 675
16358, 7913, 8055, 7554
16359, 7349, 7946, 7713
16360, 7683, 8071, 7486
16361, 8251, 8311, 7649
16362, 391, 8366, 7680
16363, 170, 7840, 12
16364, 7826, 8271, 7593
16365, 7711, 7952, 151
16366, 153, 8069, 7739
16367, 7492, 7992, 7665
16368, 7941, 7988, 7579
16369, 7764, 8115, 7533
16370, 7676, 8346, 7948
16371, 7897, 7988, 7368
16372, 7694, 8038, 7486
16373, 7489, 8010, 7636
16374, 8397, 8407, 991
16375, 155, 7775, 154
16376, 7634, 8227, 7922
16377, 255, 8382, 7684
16378, 7875, 7902, 7458
16379, 7904, 8164, 7671
16380, 7467, 7892, 7866
16381, 114, 7930, 7697
16382, 7562, 7965, 7735
16383, 7648, 8407, 8397
16384, 7523, 8164, 7904
16385, 7579, 7988, 7897
16386, 7445, 8239, 7699
16387, 7697, 7930, 7484
16388, 1017, 7771, 1016
16389, 7456, 8204, 7692
16390, 8016, 8399, 7638
16391, 7394, 8010, 7707
16392, 7507, 8074, 7934
16393, 7934, 8074, 7647
16394, 7482, 7988, 7941
16395, 7359, 7864, 7712
16396, 7488, 8176, 7936
16397, 7701, 8416, 7952
16398, 7460, 8236, 7939
16399, 7493, 7841, 7832
16400, 7686, 8266, 8105
16401, 7735, 7965, 7342
16402, 875, 7853, 64
16403, 7995, 8255, 7364
16404, 7395, 8042, 7857
16405, 7695, 8137, 7497
16406, 7709, 7842, 7435
16407, 7696, 7961, 7467
16408, 7939, 8236, 7689
16409, 7508, 7957, 7865
16410, 395, 8071, 7683
16411, 7731, 8081, 232
16412, 7856, 8295, 7652
16413, 7931, 8387, 7587
16414, 1020, 8314, 8231
16415, 8266, 8398, 7465
16416, 7707, 8341, 7394
16417, 7912, 7965, 7532
16418, 7546, 7859, 7717
16419, 7449, 7966, 7712
16420, 7713, 8154, 7528
16421, 7628, 7902, 7875
16422, 7823, 8226, 7678
16423, 232, 8021, 7731
16424, 667, 7886, 668
16425, 7761, 7857, 7476
16426, 1019, 8231, 7738
16427, 7754, 8448, 7468
16428, 7782, 8293, 7544
16429, 7793, 8047, 7489
16430, 7336, 8240, 7709
16431, 7363, 8094, 7992
16432, 7337, 8119, 7723
16433, 7395, 7857, 7761
16434, 7484, 8091, 7697
16435, 7857, 8042, 7581
16436, 7543, 8170, 7817
16437, 7416, 8154, 7713
16438, 7540, 8073, 7827
16439, 7866, 7892, 7536
16440, 7716, 8297, 7435
16441, 8129, 8187, 7731
16442, 7536, 8024, 7801
16443, 19, 7853, 875
16444, 7736, 8108, 7522
16445, 7922, 8227, 7474
16446, 7555, 8020, 7951
16447, 7712, 8442, 7435
16448, 7416, 7961, 7696
16449, 7719, 8213, 7433
16450, 8121, 8170, 7543
16451, 927, 7908, 928
16452, 7750, 8277, 7564
16453, 645, 7893, 646
16454, 7637, 8209, 7927
16455, 7693, 7984, 7482
16456, 7473, 8169, 7673
16457, 7363, 7992, 7695
16458, 7882, 8013, 7377
16459, 7347, 8143, 7755
16460, 7681, 8401, 343
16461, 7688, 8360, 8244
16462, 7398, 8372, 7703
16463, 7973, 8088, 7413
16464, 7690, 8003, 7411
16465, 7727, 8311, 7421
16466, 7802, 8408, 7374
16467, 7700, 7995, 7364
16468, 7510, 8022, 7885
16469, 7942, 8193, 7640
16470, 7609, 8137, 7997
16471, 8199, 8306, 7349
16472, 7406, 8108, 7736
16473, 859, 8241, 7574
16474, 7499, 8129, 7731
16475, 7541, 8017, 7413
16476, 7697, 8343, 114
16477, 7500, 8122, 7700
16478, 7694, 8067, 7495
16479, 7696, 8154, 7416
16480, 7724, 8258, 7336
16481, 7336, 8258, 7722
16482, 7430, 8226, 7714
16483, 7502, 8030, 7726
16484, 376, 7791, 375
16485, 7365, 8067, 7694
16486, 112, 8443, 7708
16487, 7801, 8024, 7440
16488, 7414, 8438, 7700
16489, 7981, 8268, 7633
16490, 7423, 8128, 7751
16491, 7419, 8313, 7859
16492, 7490, 8237, 8062
16493, 7739, 8069, 7514
16494, 7707, 8010, 7489
16495, 7976, 8408, 7802
16496, 7485, 8199, 7725
16497, 7627, 8280, 7974
16498, 7343, 8189, 7833
16499, 7827, 8103, 7540
16500, 7760, 8264, 7666
16501, 7730, 8131, 7574
16502, 7415, 7874, 7737
16503, 7360, 8217, 7634
16504, 923, 7812, 924
16505, 368, 7828, 367
16506, 7729, 7852, 7551
16507, 7362, 8338, 7720
16508, 7341, 8043, 7795
16509, 7833, 8189, 7615
16510, 7860, 8134, 7457
16511, 380, 7794, 379
16512, 7469, 8097, 7715
16513, 7697, 8091, 7415
16514, 7736, 8181, 7988
16515, 7479, 8374, 7701
16516, 7497, 8014, 7721
16517, 7718, 7932, 7376
16518, 7734, 8164, 7523
16519, 151, 8405, 7711
16520, 7340, 8268, 7981
16521, 7563, 8182, 7778
16522, 7735, 7892, 7467
16523, 7859, 8313, 7651
16524, 7472, 8382, 7878
16525, 7769, 8205, 7556
16526, 7861, 7916, 7498
16527, 624, 7843, 625
16528, 7778, 8182, 7432
16529, 7720, 8338, 7472
16530, 7700, 8122, 7414
16531, 7727, 8338, 7362
16532, 7435, 8297, 7709
16533, 7501, 7937, 7917
16534, 393, 7835, 392
16535, 7370, 8165, 7696
16536, 346, 7967, 345
16537, 7380, 8137, 7695
16538, 7350, 8233, 7705
16539, 625, 7888, 626
16540, 247, 8095, 248
16541, 7545, 8193, 7942
16542, 7466, 8305, 7773
16543, 7342, 7892, 7735
16544, 7868, 8027, 7570
16545, 7745, 8190, 7425
16546, 7472, 8338, 7727
16547, 7888, 8030, 626
16548, 7535, 8099, 8018
16549, 7714, 8226, 7447
16550, 7775, 8305, 7466
16551, 7804, 8402, 7337
16552, 644, 8176, 645
16553, 7472, 8155, 7720
16554, 7410, 8038, 7694
16555, 665, 7806, 666
16556, 7710, 8255, 7995
16557, 7623, 8335, 7844
16558, 7698, 8169, 7473
16559, 7736, 7988, 7482
16560, 7731, 8021, 7499
16561, 7443, 7889, 7790
16562, 7707, 8047, 349
16563, 7827, 8418, 8103
16564, 7903, 8329, 7608
16565, 394, 8289, 393
16566, 7559, 8402, 7699
16567, 7691, 7957, 7508
16568, 7571, 8170, 8006
16569, 7757, 8434, 7422
16570, 7708, 8370, 7484
16571, 386, 8177, 7749
16572, 7508, 8246, 7691
16573, 7746, 7997, 7380
16574, 7629, 7950, 7501
16575, 1003, 7970, 7772
16576, 7530, 8202, 7702
16577, 930, 8211, 931
16578, 7438, 8075, 7702
16579, 7473, 8280, 7985
16580, 7342, 8288, 8113
16581, 7616, 8428, 7779
16582, 7901, 8253, 7687
16583, 7695, 8378, 7380
16584, 7437, 8345, 7711
16585, 7421, 8238, 7727
16586, 8231, 8314, 7679
16587, 7964, 8344, 7611
16588, 7673, 7974, 7473
16589, 7607, 8415, 7783
16590, 8006, 8332, 7610
16591, 366, 8007, 365
16592, 7836, 8252, 7366
16593, 8018, 8083, 7535
16594, 7988, 8181, 7368
16595, 7958, 8228, 7335
16596, 7523, 8377, 7734
16597, 7705, 8085, 7526
16598, 7741, 7990, 242
16599, 7595, 8403, 7787
16600, 7388, 8357, 8016
16601, 7586, 8390, 7790
16602, 7739, 8405, 152
16603, 251, 7959, 252
16604, 831, 8118, 7742
16605, 7745, 8004, 7500
16606, 7576, 8013, 7882
16607, 7741, 8411, 7485
16608, 389, 7909, 7740
16609, 7555, 7951, 7816
16610, 7709, 8297, 7446
16611, 7769, 7881, 670
16612, 7750, 7976, 7454
16613, 7715, 8097, 7428
16614, 234, 7865, 235
16615, 7511, 8046, 7738
16616, 7713, 8093, 7416
16617, 7398, 8207, 8050
16618, 7798, 8294, 7584
16619, 7489, 8047, 7707
16620, 7714, 8041, 7352
16621, 7759, 7945, 7369
16622, 7960, 8394, 7434
16623, 661, 7818, 662
16624, 7480, 8093, 7713
16625, 7951, 8020, 7491
16626, 7613, 8434, 7757
16627, 7795, 8043, 7544
16628, 7451, 7906, 7787
16629, 8244, 8360, 7457
16630, 8082, 8245, 7816
16631, 7815, 8324, 7368
16632, 368, 8356, 7828
16633, 7514, 8069, 7775
16634, 339, 8244, 338
16635, 7865, 7874, 7508
16636, 7420, 8269, 7717
16637, 7917, 8435, 7629
16638, 7481, 8172, 7796
16639, 7992, 8094, 7665
16640, 7349, 8023, 7725
16641, 7776, 8337, 7431
16642, 7487, 7997, 7746
16643, 7744, 8398, 8266
16644, 7753, 8090, 7383
16645, 678, 7855, 679
16646, 7870, 7883, 7512
16647, 7814, 8116, 7392
16648, 7811, 8064, 7374
16649, 7738, 8046, 1018
16650, 7422, 7917, 7757
16651, 7466, 8243, 7771
16652, 7448, 8064, 7811
16653, 7352, 8312, 7714
16654, 8044, 8393, 7339
16655, 7464, 8027, 7970
16656, 7539, 8270, 7728
16657, 7412, 8294, 7798
16658, 7800, 8107, 7358
16659, 7771, 8029, 7466
16660, 7773, 8243, 7466
16661, 382, 7877, 381
16662, 7558, 8116, 7814
16663, 7738, 8375, 7511
16664, 7813, 8064, 7448
16665, 7740, 7944, 388
16666, 7342, 7965, 7912
16667, 7717, 8269, 7546
16668, 7918, 8049, 7592
16669, 7385, 8049, 7918
16670, 7476, 7883, 7870
16671, 7645, 8172, 8129
16672, 7777, 8003, 7496
16673, 7937, 8292, 7605
16674, 344, 7871, 343
16675, 7511, 8029, 7771
16676, 7391, 8215, 7810
16677, 7843, 7888, 625
16678, 7725, 8275, 7485
16679, 364, 7829, 363
16680, 7774, 8021, 11
16681, 7851, 8079, 7382
16682, 7736, 7984, 7406
16683, 7541, 7880, 38
16684, 7565, 8079, 7851
16685, 7779, 8428, 7460
16686, 7421, 8311, 8251
16687, 7838, 8251, 7563
16688, 7744, 8266, 7418
16689, 8089, 8255, 7710
16690, 7373, 7963, 7898
16691, 7903, 8401, 7471
16692, 7670, 8174, 7889
16693, 7601, 8215, 7875
16694, 7771, 8046, 7511
16695, 20, 8383, 7823
16696, 7833, 8144, 7693
16697, 7889, 8174, 7353
16698, 7997, 8137, 7380
16699, 7473, 7985, 7698
16700, 7723, 8116, 7558
16701, 7456, 7920, 7783
16702, 353, 7956, 352
16703, 7819, 8182, 7649
16704, 7649, 8311, 7915
16705, 7482, 7984, 7736
16706, 7760, 8078, 7463
16707, 657, 7831, 658
16708, 7535, 8083, 7691
16709, 7620, 8228, 7958
16710, 7844, 8335, 7410
16711, 7726, 7888, 7461
16712, 1017, 8046, 7771
16713, 7517, 8206, 7669
16714, 7737, 8343, 7697
16715, 7810, 8215, 7580
16716, 808, 7860, 807
16717, 7516, 8255, 8089
16718, 7432, 8182, 7819
16719, 7501, 7950, 7772
16720, 7751, 8171, 7369
16721, 7572, 8099, 7876
16722, 7763, 8267, 383
16723, 7855, 8376, 679
16724, 7512, 8310, 7718
16725, 7727, 8238, 7472
16726, 7436, 8275, 7725
16727, 7722, 8303, 7515
16728, 7783, 8415, 7456
16729, 7516, 8298, 7724
16730, 7392, 8116, 7870
16731, 38, 7971, 7541
16732, 7567, 8267, 7763
16733, 352, 8106, 351
16734, 7871, 8321, 7681
16735, 7631, 8252, 7836
16736, 7439, 8395, 7907
16737, 7865, 8162, 7462
16738, 7863, 7912, 7532
16739, 7882, 8432, 7576
16740, 374, 8365, 373
16741, 7448, 7904, 7813
16742, 7798, 8279, 7685
16743, 7974, 8280, 7473
16744, 7817, 8339, 672
16745, 7860, 7934, 807
16746, 206, 8362, 207
16747, 7772, 8292, 7501
16748, 1004, 7970, 1003
16749, 7717, 8352, 8214
16750, 7762, 8186, 623
16751, 7722, 8258, 7483
16752, 7483, 8258, 7724
16753, 1020, 8231, 1019
16754, 7765, 8173, 675
16755, 7485, 8275, 7741
16756, 7960, 8096, 7567
16757, 7548, 8186, 7762
16758, 7775, 8069, 154
16759, 7952, 8345, 7479
16760, 7710, 8325, 7621
16761, 7787, 8403, 7451
16762, 8214, 8352, 7355
16763, 373, 8365, 7873
16764, 7608, 8392, 7903
16765, 239, 8153, 240
16766, 7369, 8444, 7751
16767, 7368, 8324, 7947
16768, 7801, 8220, 8179
16769, 7875, 8215, 7391
16770, 7460, 7939, 7779
16771, 7740, 8128, 7423
16772, 7711, 8345, 7952
16773, 7398, 8050, 7993
16774, 7864, 8442, 7712
16775, 7902, 8317, 7458
16776, 7954, 8340, 7704
16777, 232, 8081, 233
16778, 7635, 8159, 7732
16779, 7759, 8123, 7521
16780, 7735, 8200, 7562
16781, 340, 7905, 339
16782, 115, 8343, 8327
16783, 7445, 8184, 7753
16784, 7414, 8122, 7653
16785, 7657, 8111, 7844
16786, 7863, 8172, 7481
16787, 7790, 8390, 7443
16788, 8101, 8422, 7529
16789, 7522, 8181, 7736
16790, 653, 7847, 654
16791, 808, 8134, 7860
16792, 7360, 8340, 7954
16793, 7470, 7945, 7759
16794, 7741, 8275, 7436
16795, 7338, 8448, 7754
16796, 672, 8339, 673
16797, 361, 8147, 7734
16798, 7608, 8406, 7905
16799, 7639, 8272, 7933
16800, 7812, 8052, 7658
16801, 7773, 8305, 156
16802, 249, 7846, 250
16803, 7341, 8057, 7733
16804, 7369, 8123, 7759
16805, 358, 8358, 7743
16806, 242, 8411, 7741
16807, 7809, 7919, 7424
16808, 7559, 8318, 7761
16809, 7396, 7854, 7803
16810, 7698, 8283, 7468
16811, 7527, 8081, 7731
16812, 647, 7887, 648
16813, 7828, 8356, 7604
16814, 7621, 8393, 8044
16815, 1015, 8243, 7773
16816, 7427, 7989, 7768
16817, 7507, 7919, 7809
16818, 7372, 8328, 7808
16819, 7547, 8050, 7869
16820, 8026, 8101, 7529
16821, 7454, 7976, 7802
16822, 7823, 8383, 7644
16823, 7534, 8196, 7752
16824, 7669, 8088, 7973
16825, 7480, 8090, 7753
16826, 7756, 8058, 7461
16827, 7564, 7976, 7750
16828, 8076, 8332, 7509
16829, 7440, 8384, 7764
16830, 7379, 7852, 7788
16831, 7766, 8120, 7506
16832, 7475, 8022, 7837
16833, 7468, 7898, 7754
16834, 7734, 8377, 361
16835, 7651, 8317, 7902
16836, 7499, 8021, 7774
16837, 7343, 7941, 7797
16838, 7383, 8040, 7753
16839, 990, 8002, 7686
16840, 7752, 8196, 7345
16841, 7821, 8158, 7474
16842, 7625, 8178, 7918
16843, 7739, 8307, 7437
16844, 7423, 8242, 7740
16845, 8129, 8172, 7402
16846, 7761, 8318, 7395
16847, 7653, 8082, 7414
16848, 7797, 7941, 7579
16849, 7632, 8376, 7855
16850, 115, 8327, 116
16851, 7764, 7943, 246
16852, 7402, 8187, 8129
16853, 7432, 8375, 7738
16854, 7574, 8131, 859
16855, 7887, 8320, 648
16856, 7922, 8430, 7634
16857, 151, 7952, 150
16858, 7816, 7951, 7414
16859, 387, 8177, 386
16860, 7757, 7966, 7613
16861, 7801, 8179, 7370
16862, 7376, 8185, 8056
16863, 376, 8197, 7791
16864, 649, 7862, 650
16865, 7507, 7934, 7860
16866, 7770, 8374, 7479
16867, 7749, 8157, 386
16868, 7781, 7929, 7351
16869, 7576, 8432, 8262
16870, 113, 7930, 114
16871, 8058, 8340, 7360
16872, 7537, 7929, 7802
16873, 8059, 8147, 362
16874, 390, 7909, 389
16875, 8253, 8300, 7687
16876, 670, 7881, 671
16877, 7731, 8187, 7527
16878, 8062, 8237, 7605
16879, 8016, 8357, 7661
16880, 7758, 8345, 7437
16881, 7765, 8337, 8173
16882, 378, 7913, 377
16883, 7748, 8031, 18
16884, 236, 8083, 237
16885, 7730, 8443, 111
16886, 7514, 8307, 7739
16887, 388, 7944, 387
16888, 7733, 8043, 7341
16889, 7462, 8327, 7737
16890, 8197, 8349, 7791
16891, 7510, 8426, 7746
16892, 7340, 7981, 7784
16893, 7938, 8218, 7641
16894, 7809, 8351, 7585
16895, 7471, 8329, 7903
16896, 7784, 7981, 7478
16897, 7553, 8218, 7938
16898, 114, 8343, 115
16899, 7505, 8183, 7780
16900, 7679, 8368, 7778
16901, 390, 7996, 7909
16902, 209, 8254, 8068
16903, 253, 7878, 254
16904, 7721, 8141, 7497
16905, 7777, 8376, 7632
16906, 680, 8376, 7777
16907, 676, 8045, 677
16908, 7424, 8351, 7809
16909, 7932, 8185, 7376
16910, 7732, 8159, 7716
16911, 7750, 8353, 355
16912, 665, 8257, 7806
16913, 7776, 8437, 7385
16914, 7666, 8440, 7760
16915, 7590, 8437, 7776
16916, 7393, 8096, 7960
16917, 7461, 7888, 7843
16918, 7804, 8184, 7445
16919, 929, 8350, 8130
16920, 7833, 7941, 7343
16921, 7557, 8221, 7915
16922, 7911, 8034, 7335
16923, 7430, 8103, 7747
16924, 7837, 7899, 7475
16925, 7749, 8177, 7513
16926, 209, 8068, 210
16927, 384, 8005, 7763
16928, 359, 8109, 7792
16929, 346, 8285, 7703
16930, 354, 8353, 7780
16931, 7367, 8396, 7819
16932, 7882, 8156, 7494
16933, 7849, 7936, 7487
16934, 7836, 8126, 7453
16935, 7747, 8404, 7599
16936, 7932, 8364, 8185
16937, 7868, 8062, 7605
16938, 7557, 8247, 8221
16939, 7416, 8259, 7961
16940, 7506, 8211, 7766
16941, 7465, 8031, 7748
16942, 7518, 7899, 7837
16943, 7496, 8017, 7541
16944, 7461, 7891, 7726
16945, 7488, 7936, 7849
16946, 8264, 8380, 7345
16947, 8130, 8350, 7715
16948, 7371, 8135, 7916
16949, 8001, 8418, 7365
16950, 242, 7990, 243
16951, 7796, 8172, 7645
16952, 7846, 8367, 7601
16953, 7561, 8034, 7911
16954, 7758, 8315, 7479
16955, 831, 8304, 8118
16956, 7345, 8363, 7752
16957, 7638, 8387, 7931
16958, 7624, 8320, 7887
16959, 7467, 7961, 7814
16960, 8024, 8113, 7596
16961, 666, 7983, 667
16962, 7747, 8418, 8001
16963, 7569, 8157, 7749
16964, 7749, 8180, 7569
16965, 7493, 8407, 7648
16966, 385, 8005, 384
16967, 7818, 8232, 662
16968, 349, 8047, 348
16969, 7792, 8358, 359
16970, 7742, 8241, 50
16971, 7526, 8276, 8037
16972, 7666, 8196, 8125
16973, 661, 8274, 7818
16974, 364, 8381, 7829
16975, 5, 8348, 111
16976, 7912, 8288, 7342
16977, 7413, 8017, 7973
16978, 375, 8011, 374
16979, 8149, 8235, 7560
16980, 7529, 8066, 7762
16981, 7751, 8444, 7534
16982, 8064, 8256, 7374
16983, 7764, 8220, 7440
16984, 7829, 8381, 7614
16985, 7848, 8063, 7600
16986, 7515, 8094, 7822
16987, 240, 7894, 241
16988, 7560, 8235, 7873
16989, 7762, 8219, 7529
16990, 663, 7910, 664
16991, 7891, 8430, 7726
16992, 7901, 8228, 7620
16993, 7517, 8228, 7901
16994, 7734, 8436, 8164
16995, 7918, 8178, 7385
16996, 673, 8084, 674
16997, 7810, 8024, 7596
16998, 7479, 8345, 7758
16999, 342, 7903, 341
17000, 156, 8417, 7773
17001, 7494, 8156, 8044
17002, 379, 8055, 378
17003, 8077, 8317, 7597
17004, 7533, 8220, 7764
17005, 7763, 8319, 7434
17006, 7461, 8334, 7756
17007, 7575, 8048, 7962
17008, 922, 8150, 7861
17009, 7434, 8394, 7763
17010, 7482, 7941, 7833
17011, 396, 8071, 395
17012, 7895, 8199, 7485
17013, 7763, 8394, 7567
17014, 7962, 8048, 7513
17015, 7362, 8315, 7758
17016, 152, 8405, 151
17017, 7761, 8119, 7559
17018, 7745, 8359, 8004
17019, 7485, 8411, 7894
17020, 7566, 8395, 8291
17021, 1016, 8243, 1015
17022, 7479, 8315, 7770
17023, 7515, 8100, 8094
17024, 7687, 8300, 7834
17025, 208, 8273, 8254
17026, 7417, 8300, 8253
17027, 8053, 8395, 7566
17028, 7638, 8399, 7781
17029, 7759, 8342, 7470
17030, 659, 7921, 660
17031, 807, 7934, 806
17032, 7831, 8248, 658
17033, 622, 8219, 7762
17034, 7770, 8269, 7420
17035, 381, 8124, 380
17036, 7767, 8434, 7613
17037, 7778, 8368, 258
17038, 657, 8284, 7831
17039, 250, 8077, 251
17040, 7956, 8016, 7661
17041, 7574, 8419, 7396
17042, 7422, 8435, 7917
17043, 7850, 8396, 7367
17044, 8094, 8100, 7665
17045, 655, 7928, 656
17046, 674, 8084, 7765
17047, 7615, 8439, 8042
17048, 7518, 7979, 7899
17049, 156, 8305, 155
17050, 921, 8150, 922
17051, 7806, 7983, 666
17052, 7924, 8132, 7495
17053, 8017, 8331, 7344
17054, 363, 8059, 362
17055, 7426, 8292, 7772
17056, 7606, 8306, 8199
17057, 254, 8382, 255
17058, 991, 8002, 990
17059, 7791, 8011, 375
17060, 7389, 8062, 7868
17061, 7689, 8225, 7939
17062, 7909, 7996, 7524
17063, 651, 7935, 652
17064, 7546, 8269, 7770
17065, 7919, 8360, 7688
17066, 7939, 8225, 7361
17067, 7869, 8044, 7339
17068, 7640, 8330, 7942
17069, 8081, 8383, 233
17070, 7647, 8422, 8101
17071, 7505, 8016, 7956
17072, 7528, 8165, 8138
17073, 7536, 8113, 8024
17074, 7428, 8120, 7766
17075, 7746, 8287, 7487
17076, 7413, 8088, 7674
17077, 7399, 8148, 8012
17078, 7420, 8374, 7770
17079, 7648, 8397, 7745
17080, 7500, 8190, 7745
17081, 7379, 8295, 7986
17082, 7951, 8438, 7414
17083, 7495, 8132, 7958
17084, 7478, 8025, 7784
17085, 7481, 7912, 7863
17086, 8125, 8196, 7534
17087, 385, 8157, 8005
17088, 7864, 8237, 7490
17089, 7592, 8264, 7760
17090, 8113, 8288, 7596
17091, 7728, 8120, 7428
17092, 51, 8304, 831
17093, 7847, 8263, 654
17094, 8257, 8410, 7806
17095, 7758, 8247, 7362
17096, 653, 8301, 7847
17097, 7837, 8022, 7340
17098, 7497, 8141, 7767
17099, 7773, 8417, 1015
17100, 7345, 8380, 7998
17101, 7753, 8184, 7480
17102, 343, 8401, 342
17103, 7899, 7931, 7475
17104, 7438, 8423, 7769
17105, 8093, 8259, 7416
17106, 7820, 7989, 7631
17107, 7594, 8147, 8059
17108, 7504, 8260, 7991
17109, 7887, 8294, 7624
17110, 7388, 7931, 7899
17111, 7484, 8370, 7803
17112, 7803, 8391, 7341
17113, 246, 7943, 247
17114, 7809, 8074, 7507
17115, 7807, 8040, 7583
17116, 8295, 8355, 7986
17117, 8103, 8312, 7540
17118, 234, 8162, 7865
17119, 7848, 8421, 8063
17120, 7832, 8061, 7493
17121, 7808, 8328, 7587
17122, 111, 8443, 112
17123, 391, 7996, 390
17124, 360, 8109, 359
17125, 7375, 8430, 7922
17126, 7897, 7947, 7504
17127, 7361, 8225, 7813
17128, 7813, 8225, 7549
17129, 926, 8260, 927
17130, 355, 8353, 354
17131, 8179, 8220, 7533
17132, 7789, 8240, 7336
17133, 8159, 8297, 7716
17134, 7609, 7997, 7896
17135, 7794, 8055, 379
17136, 8032, 8270, 7366
17137, 7862, 8278, 650
17138, 7938, 8323, 7671
17139, 155, 8305, 7775
17140, 7498, 8052, 7812
17141, 649, 8320, 7862
17142, 8014, 8400, 7721
17143, 7355, 8352, 7902
17144, 7770, 8203, 7546
17145, 7955, 8429, 7599
17146, 7492, 7926, 7900
17147, 7446, 8297, 8159
17148, 7780, 8224, 7505
17149, 7632, 8333, 7777
17150, 7771, 8243, 1016
17151, 922, 8299, 923
17152, 8014, 8137, 7609
17153, 111, 8348, 7730
17154, 7800, 8442, 7490
17155, 398, 8429, 397
17156, 7810, 8384, 7440
17157, 359, 8358, 358
17158, 7620, 8253, 7901
17159, 241, 8411, 242
17160, 7440, 8024, 7810
17161, 7805, 8361, 7389
17162, 8274, 8420, 7818
17163, 7580, 8384, 7810
17164, 663, 8232, 7910
17165, 7756, 8334, 8175
17166, 8175, 8334, 7548
17167, 7436, 8138, 7786
17168, 7610, 8332, 8076
17169, 7539, 8126, 7836
17170, 7907, 8395, 7603
17171, 8037, 8276, 7617
17172, 208, 8254, 209
17173, 7387, 8180, 8048
17174, 7955, 8071, 396
17175, 7370, 8179, 7786
17176, 8109, 8377, 7523
17177, 7668, 8259, 8093
17178, 8061, 8266, 7686
17179, 7999, 8048, 7575
17180, 7717, 8214, 7872
17181, 7674, 8088, 7520
17182, 7387, 8048, 7999
17183, 367, 8039, 366
17184, 249, 8367, 7846
17185, 7826, 8015, 371
17186, 7792, 8109, 7523
17187, 7454, 8224, 7780
17188, 7861, 8299, 922
17189, 7867, 8429, 398
17190, 7368, 7947, 7897
17191, 7780, 8183, 354
17192, 235, 7957, 236
17193, 37, 8336, 7896
17194, 7506, 7852, 7729
17195, 7802, 8216, 7537
17196, 7812, 8299, 7498
17197, 7781, 8224, 7454
17198, 7965, 8056, 7532
17199, 7902, 8352, 7651
17200, 7562, 8056, 7965
17201, 7374, 8216, 7802
17202, 8254, 8273, 7805
17203, 7380, 8378, 7900
17204, 7910, 8232, 7586
17205, 8313, 8413, 7597
17206, 677, 8104, 678
17207, 7433, 8279, 7798
17208, 7418, 8266, 8061
17209, 7554, 8079, 7913
17210, 7913, 8079, 7565
17211, 8029, 8396, 7850
17212, 7464, 8166, 8068
17213, 659, 8248, 7921
17214, 7474, 8012, 7821
17215, 7818, 8390, 8232
17216, 380, 8124, 7794
17217, 7848, 7999, 7503
17218, 7435, 8442, 7800
17219, 7565, 8349, 8197
17220, 925, 7991, 926
17221, 8173, 8337, 7568
17222, 7387, 7999, 7848
17223, 7839, 8052, 7498
17224, 8068, 8254, 7570
17225, 7788, 7852, 7506
17226, 655, 8263, 7928
17227, 7788, 8032, 7366
17228, 8049, 8437, 8421
17229, 8302, 8371, 7382
17230, 8059, 8409, 7594
17231, 8207, 8369, 7706
17232, 7597, 8413, 7959
17233, 7478, 7981, 7890
17234, 7709, 8240, 7842
17235, 7604, 8192, 8028
17236, 7614, 8201, 8035
17237, 7903, 8392, 341
17238, 7549, 8064, 7813
17239, 930, 8130, 7766
17240, 7921, 8248, 7595
17241, 7927, 8209, 7655
17242, 7782, 8246, 7508
17243, 651, 8278, 7935
17244, 672, 8142, 7817
17245, 7339, 8158, 7821
17246, 7890, 7981, 7633
17247, 7488, 8213, 8176
17248, 7386, 8175, 8066
17249, 7764, 8384, 7943
17250, 207, 8273, 208
17251, 7615, 8144, 7833
17252, 7994, 8319, 7569
17253, 8049, 8421, 7503
17254, 7933, 8272, 7662
17255, 7899, 7979, 7388
17256, 7497, 8137, 8014
17257, 7376, 8056, 7975
17258, 7928, 8263, 7607
17259, 7942, 8330, 7675
17260, 7949, 7974, 7673
17261, 7828, 8039, 367
17262, 386, 8157, 385
17263, 7995, 8325, 7710
17264, 7975, 8056, 7562
17265, 7373, 8246, 7782
17266, 7859, 8265, 7419
17267, 7935, 8278, 7616
17268, 7831, 8403, 8248
17269, 7441, 8349, 7851
17270, 7520, 8150, 7674
17271, 7884, 8341, 7707
17272, 371, 8015, 370
17273, 7946, 8306, 7627
17274, 624, 8186, 7843
17275, 7567, 8096, 7877
17276, 8060, 8063, 7346
17277, 7871, 8322, 7552
17278, 7843, 8186, 7548
17279, 7600, 8063, 8060
17280, 7799, 8307, 7514
17281, 7726, 8030, 7888
17282, 621, 8219, 622
17283, 7946, 8090, 7480
17284, 392, 8366, 391
17285, 7562, 8036, 7975
17286, 22, 8314, 1020
17287, 7859, 8352, 7717
17288, 7794, 8291, 7439
17289, 11, 8021, 232
17290, 7439, 8425, 7794
17291, 7579, 8354, 7797
17292, 7461, 8058, 7891
17293, 259, 8314, 22
17294, 7519, 7979, 7940
17295, 7829, 8059, 363
17296, 7693, 8318, 8212
17297, 7588, 8388, 8098
17298, 7490, 8442, 7864
17299, 7910, 8257, 664
17300, 7921, 8274, 660
17301, 7797, 8210, 7531
17302, 7799, 8221, 7437
17303, 7641, 8323, 7938
17304, 7589, 8257, 7910
17305, 7970, 8195, 7464
17306, 7594, 8436, 8147
17307, 7886, 8009, 7556
17308, 7408, 8052, 7839
17309, 7542, 8009, 7886
17310, 7598, 8274, 7921
17311, 7466, 8029, 7850
17312, 7746, 8426, 7372
17313, 7795, 8091, 7484
17314, 7847, 8415, 8263
17315, 7956, 8183, 7505
17316, 7928, 8284, 656
17317, 7408, 8354, 8092
17318, 7612, 8284, 7928
17319, 7578, 8361, 7805
17320, 7437, 8307, 7799
17321, 7521, 8123, 8111
17322, 7591, 8427, 8167
17323, 7935, 8301, 652
17324, 7822, 8094, 7363
17325, 7619, 8301, 7935
17326, 8035, 8201, 7405
17327, 8028, 8192, 7403
17328, 7809, 8431, 8074
17329, 7993, 8148, 7552
17330, 7349, 8306, 7946
17331, 7550, 8369, 8207
17332, 7585, 8431, 7809
17333, 7940, 7979, 7518
17334, 7372, 8287, 7746
17335, 7900, 7926, 7510
17336, 7419, 8265, 8155
17337, 7411, 8440, 7923
17338, 8281, 8337, 7765
17339, 7487, 8287, 7849
17340, 7923, 8440, 7666
17341, 8088, 8234, 7520
17342, 7876, 8283, 7384
17343, 1018, 8046, 1017
17344, 7704, 8329, 7954
17345, 7618, 8134, 43
17346, 7815, 8181, 7522
17347, 29, 8133, 7618
17348, 7431, 8337, 8281
17349, 7817, 8142, 7543
17350, 8155, 8265, 7720
17351, 7469, 8446, 8097
17352, 7832, 8379, 8061
17353, 7819, 8396, 7511
17354, 8147, 8436, 7734
17355, 7486, 8071, 7955
17356, 7862, 8428, 8278
17357, 7803, 8370, 7396
17358, 7819, 8375, 7432
17359, 7440, 8220, 7801
17360, 7364, 8255, 7825
17361, 671, 8142, 672
17362, 7340, 8022, 7926
17363, 7455, 8427, 7828
17364, 647, 8316, 7887
17365, 7509, 8332, 7978
17366, 8286, 8439, 7646
17367, 8005, 8157, 7569
17368, 860, 8348, 5
17369, 7382, 8085, 7851
17370, 7887, 8316, 7584
17371, 7368, 8181, 7815
17372, 362, 8147, 361
17373, 7587, 8163, 7808
17374, 7830, 8123, 7369
17375, 7937, 8237, 7359
17376, 7870, 8036, 7392
17377, 7817, 8170, 7571
17378, 7909, 8128, 7740
17379, 7860, 8360, 7507
17380, 7395, 8144, 8042
17381, 7505, 8399, 8016
17382, 7813, 8347, 7361
17383, 7519, 8341, 7884
17384, 7490, 8107, 7800
17385, 7512, 8036, 7870
17386, 7530, 7982, 7972
17387, 7972, 7982, 7526
17388, 7856, 8057, 7577
17389, 8042, 8144, 7615
17390, 8003, 8331, 7496
17391, 154, 8069, 153
17392, 7562, 8200, 8036
17393, 7498, 8299, 7861
17394, 7378, 8303, 7987
17395, 7374, 8408, 7811
17396, 923, 8299, 7812
17397, 7869, 8050, 7494
17398, 8045, 8178, 7625
17399, 7811, 8408, 7564
17400, 7568, 8178, 8045
17401, 7444, 8355, 7854
17402, 8176, 8213, 7719
17403, 8098, 8230, 7403
17404, 7846, 8077, 250
17405, 7784, 8445, 7518
17406, 7861, 8150, 7520
17407, 7879, 8326, 7582
17408, 7450, 8388, 7826
17409, 7851, 8085, 7705
17410, 7578, 8362, 7744
17411, 7348, 8326, 7879
17412, 7901, 8206, 7517
17413, 7544, 8293, 7795
17414, 7563, 8198, 7838
17415, 7494, 8044, 7869
17416, 7896, 8336, 7609
17417, 7881, 8142, 671
17418, 7383, 7974, 7949
17419, 8212, 8318, 7559
17420, 7565, 8197, 7913
17421, 7528, 8138, 8023
17422, 7825, 8255, 7516
17423, 7838, 8198, 256
17424, 7543, 8142, 7881
17425, 7913, 8197, 377
17426, 7884, 8386, 7519
17427, 7896, 7997, 7487
17428, 7879, 8202, 7348
17429, 7728, 8270, 8032
17430, 8074, 8431, 7386
17431, 7748, 8105, 7465
17432, 991, 8407, 8002
17433, 7904, 8347, 7813
17434, 7666, 8125, 7923
17435, 673, 8339, 8084
17436, 7493, 8061, 8002
17437, 7877, 8267, 7567
17438, 7851, 8349, 7565
17439, 7369, 8171, 7830
17440, 382, 8267, 7877
17441, 7907, 8346, 7348
17442, 678, 8104, 7855
17443, 344, 8322, 7871
17444, 7603, 8346, 7907
17445, 7948, 8282, 7509
17446, 7944, 8177, 387
17447, 7844, 8111, 7452
17448, 7916, 8234, 7371
17449, 7839, 8135, 7531
17450, 8063, 8421, 7590
17451, 7980, 8433, 34
17452, 929, 8130, 930
17453, 7390, 8170, 8121
17454, 8002, 8061, 7686
17455, 7626, 8282, 7960
17456, 7503, 7999, 7998
17457, 7960, 8282, 7393
17458, 7876, 8099, 7468
17459, 244, 8115, 245
17460, 7998, 7999, 7575
17461, 7854, 8419, 7444
17462, 7643, 8371, 8302
17463, 7571, 8339, 7817
17464, 7669, 8234, 8088
17465, 347, 8285, 346
17466, 1010, 7880, 70
17467, 7854, 8391, 7803
17468, 7905, 8392, 7608
17469, 7654, 8230, 8098
17470, 7808, 8163, 7664
17471, 7824, 8190, 7500
17472, 859, 8131, 860
17473, 7954, 8329, 7471
17474, 7883, 8152, 7352
17475, 7464, 8068, 8027
17476, 7468, 8283, 7876
17477, 354, 8183, 353
17478, 8148, 8321, 7552
17479, 7925, 8037, 7617
17480, 361, 8377, 360
17481, 7511, 8375, 7819
17482, 7350, 8037, 7925
17483, 340, 8392, 7905
17484, 8089, 8298, 7516
17485, 7653, 8122, 8004
17486, 7907, 8051, 7643
17487, 7348, 8051, 7907
17488, 7839, 8210, 7408
17489, 7703, 8372, 7967
17490, 8327, 8343, 7737
17491, 7940, 8341, 7519
17492, 7840, 8162, 12
17493, 1015, 8417, 9
17494, 7515, 8303, 8100
17495, 7947, 8324, 7672
17496, 7816, 8245, 7375
17497, 7531, 8210, 7839
17498, 931, 8211, 7729
17499, 7384, 8283, 7985
17500, 7342, 8113, 7892
17501, 7335, 8228, 7911
17502, 7507, 8360, 7919
17503, 7973, 8017, 7344
17504, 7958, 8309, 7495
17505, 8038, 8335, 7683
17506, 7877, 8096, 7566
17507, 7546, 8265, 7859
17508, 7805, 8273, 7578
17509, 7, 8191, 7840
17510, 7570, 8254, 7805
17511, 7926, 8022, 7510
17512, 7529, 8422, 8066
17513, 675, 8173, 676
17514, 928, 8350, 929
17515, 7366, 8270, 7836
17516, 7581, 8152, 7857
17517, 7793, 8285, 347
17518, 7527, 8187, 7858
17519, 7858, 8185, 7527
17520, 7872, 8214, 7645
17521, 7815, 8446, 8324
17522, 8144, 8318, 7693
17523, 623, 8186, 624
17524, 8324, 8446, 7469
17525, 7980, 8082, 7653
17526, 7674, 8150, 921
17527, 19, 8166, 7853
17528, 7365, 8418, 7827
17529, 7881, 8423, 7543
17530, 377, 8197, 376
17531, 256, 8198, 257
17532, 7402, 8172, 7863
17533, 668, 8205, 669
17534, 7853, 8195, 64
17535, 8070, 8149, 7602
17536, 7400, 8149, 8070
17537, 7892, 8113, 7536
17538, 7395, 8318, 8144
17539, 8011, 8365, 374
17540, 7504, 8092, 7897
17541, 7927, 8070, 7525
17542, 7451, 8403, 7831
17543, 7384, 8296, 7876
17544, 7457, 8134, 7618
17545, 7618, 8133, 7457
17546, 7377, 8156, 7882
17547, 7552, 8321, 7871
17548, 7834, 8300, 7646
17549, 7854, 8355, 7577
17550, 207, 8362, 8273
17551, 7506, 8032, 7788
17552, 7382, 8371, 7972
17553, 7400, 8070, 7927
17554, 7495, 8067, 7924
17555, 7495, 8309, 8000
17556, 7858, 8187, 7402
17557, 662, 8232, 663
17558, 8026, 8219, 621
17559, 7975, 8036, 7512
17560, 7945, 8444, 7369
17561, 7849, 8287, 7372
17562, 8136, 8209, 7353
17563, 7769, 8423, 7881
17564, 7952, 8416, 150
17565, 7655, 8209, 8136
17566, 1004, 8195, 7970
17567, 7589, 8410, 8257
17568, 7962, 8242, 7423
17569, 7386, 8431, 8175
17570, 7835, 8366, 392
17571, 7513, 8177, 7944
17572, 658, 8248, 659
17573, 7352, 8310, 7883
17574, 7573, 8379, 7832
17575, 7910, 8117, 7589
17576, 345, 8322, 344
17577, 9, 8417, 156
17578, 664, 8257, 665
17579, 7577, 8295, 7856
17580, 7526, 8085, 7972
17581, 654, 8263, 655
17582, 8013, 8298, 7377
17583, 8349, 8424, 7791
17584, 7548, 8334, 7843
17585, 383, 8267, 382
17586, 8164, 8436, 7409
17587, 7843, 8334, 7461
17588, 7886, 8205, 668
17589, 351, 8386, 350
17590, 373, 8271, 372
17591, 7627, 8090, 7946
17592, 660, 8274, 661
17593, 7572, 8296, 8153
17594, 80, 8412, 8373
17595, 7923, 8125, 7470
17596, 7556, 8205, 7886
17597, 7979, 8357, 7388
17598, 357, 8277, 356
17599, 7410, 8335, 8038
17600, 650, 8278, 651
17601, 7517, 8087, 7911
17602, 7354, 8208, 8114
17603, 7491, 8325, 7995
17604, 7441, 8424, 8349
17605, 8114, 8208, 7659
17606, 656, 8284, 657
17607, 7335, 8309, 7958
17608, 7506, 8120, 8032
17609, 7502, 8245, 8082
17610, 8114, 8272, 7354
17611, 7926, 8268, 7340
17612, 248, 8367, 249
17613, 7662, 8272, 8114
17614, 8153, 8296, 7677
17615, 652, 8301, 653
17616, 238, 8389, 239
17617, 7898, 8110, 7373
17618, 7921, 8139, 7598
17619, 7359, 8237, 7864
17620, 8001, 8404, 7747
17621, 369, 8356, 368
17622, 7586, 8117, 7910
17623, 7442, 8447, 8410
17624, 7982, 8276, 7526
17625, 646, 8316, 647
17626, 7470, 8125, 7945
17627, 7972, 8085, 7382
17628, 7928, 8160, 7612
17629, 648, 8320, 649
17630, 7524, 8128, 7909
17631, 7535, 8110, 8099
17632, 7935, 8188, 7619
17633, 7481, 8288, 7912
17634, 7503, 8421, 7848
17635, 7818, 8420, 8390
17636, 7876, 8296, 7572
17637, 8390, 8420, 7443
17638, 8019, 8235, 7400
17639, 399, 8385, 398
17640, 8410, 8447, 7806
17641, 7541, 7971, 7496
17642, 7593, 8235, 8019
17643, 8004, 8122, 7500
17644, 8080, 8312, 7352
17645, 7653, 8433, 7980
17646, 7456, 8415, 7847
17647, 8013, 8146, 7483
17648, 7893, 8316, 646
17649, 7987, 8146, 7611
17650, 341, 8392, 340
17651, 679, 8376, 680
17652, 258, 8368, 259
17653, 8167, 8222, 7405
17654, 365, 8381, 364
17655, 7584, 8316, 7893
17656, 7693, 8212, 7984
17657, 1013, 8433, 8004
17658, 7659, 8222, 8167
17659, 7702, 8202, 7879
17660, 7718, 8310, 8041
17661, 8005, 8319, 7763
17662, 7836, 8270, 7539
17663, 150, 8416, 149
17664, 7417, 8132, 7924
17665, 7520, 8234, 7916
17666, 7867, 8385, 7678
17667, 8053, 8096, 7393
17668, 7595, 8139, 7921
17669, 7566, 8096, 8053
17670, 7873, 8235, 7593
17671, 7357, 8229, 8112
17672, 7593, 8271, 7873
17673, 7348, 8202, 8051
17674, 8112, 8229, 7663
17675, 7651, 8352, 7859
17676, 7983, 8447, 7542
17677, 7873, 8271, 373
17678, 7945, 8125, 7534
17679, 7539, 8143, 8126
17680, 8036, 8200, 7392
17681, 1014, 8336, 37
17682, 8057, 8391, 7577
17683, 233, 8383, 20
17684, 7606, 8199, 7895
17685, 7400, 8235, 8149
17686, 7457, 8360, 7860
17687, 7371, 8206, 7901
17688, 8112, 8330, 7357
17689, 7994, 8180, 7387
17690, 7675, 8330, 8112
17691, 7977, 8279, 7433
17692, 7569, 8180, 7994
17693, 8061, 8379, 7418
17694, 7940, 8445, 7394
17695, 7371, 8234, 8206
17696, 7605, 8237, 7937
17697, 7465, 8398, 8031
17698, 398, 8385, 7867
17699, 8027, 8068, 7570
17700, 7944, 8242, 7513
17701, 7878, 8382, 254
17702, 7958, 8132, 7620
17703, 7607, 8160, 7928
17704, 8146, 8290, 7611
17705, 8086, 8108, 7642
17706, 7969, 8288, 7481
17707, 7634, 8430, 7891
17708, 7592, 8380, 8264
17709, 7598, 8420, 8274
17710, 7885, 8426, 7510
17711, 7519, 8386, 8106
17712, 7403, 8230, 7933
17713, 7522, 8108, 8086
17714, 7582, 8121, 8072
17715, 7646, 8439, 8189
17716, 8080, 8152, 7581
17717, 8133, 8244, 7457
17718, 7460, 8428, 7862
17719, 1013, 8359, 76
17720, 34, 8433, 1013
17721, 7967, 8372, 7552
17722, 1014, 8400, 8014
17723, 8095, 8215, 7601
17724, 7580, 8215, 8095
17725, 8141, 8435, 7422
17726, 80, 8400, 1014
17727, 7483, 8146, 7987
17728, 7883, 8310, 7512
17729, 7352, 8152, 8080
17730, 7372, 8426, 7885
17731, 7629, 8412, 7950
17732, 7567, 8394, 7960
17733, 7378, 8344, 7890
17734, 7721, 8435, 8141
17735, 8065, 8233, 7350
17736, 7599, 8429, 7867
17737, 7616, 8188, 7935
17738, 7938, 8250, 7553
17739, 7584, 8294, 7887
17740, 7602, 8233, 8065
17741, 7513, 8242, 7962
17742, 7525, 8070, 8065
17743, 7911, 8228, 7517
17744, 7555, 8158, 8020
17745, 7547, 8148, 7993
17746, 7409, 8250, 7938
17747, 7955, 8404, 7486
17748, 7622, 8217, 7954
17749, 7545, 8222, 8208
17750, 7873, 8365, 7560
17751, 8216, 8256, 7685
17752, 8020, 8158, 7339
17753, 8051, 8371, 7643
17754, 8208, 8222, 7659
17755, 7599, 8404, 7955
17756, 7530, 8371, 8051
17757, 7374, 8256, 8216
17758, 8008, 8192, 7604
17759, 8014, 8336, 1014
17760, 8009, 8194, 7381
17761, 8065, 8070, 7602
17762, 8007, 8201, 7614
17763, 7422, 8434, 8141
17764, 7552, 8322, 7967
17765, 8073, 8080, 7581
17766, 7900, 8378, 7492
17767, 8232, 8390, 7586
17768, 8256, 8261, 7685
17769, 7549, 8261, 8256
17770, 7405, 8222, 7942
17771, 7942, 8222, 7545
17772, 8011, 8424, 7560
17773, 7933, 8230, 7538
17774, 7828, 8427, 8039
17775, 8191, 8327, 7462
17776, 8002, 8407, 7493
17777, 7534, 8444, 7945
17778, 8106, 8357, 7519
17779, 7577, 8391, 7854
17780, 8141, 8434, 7767
17781, 8044, 8156, 7621
17782, 7576, 8146, 8013
17783, 7840, 8191, 7462
17784, 7540, 8080, 8073
17785, 7885, 8328, 7372
17786, 8004, 8359, 1013
17787, 7519, 8357, 7979
17788, 7429, 8439, 8286
17789, 7543, 8423, 8072
17790, 8025, 8445, 7784
17791, 7341, 8391, 8057
17792, 8041, 8310, 7352
17793, 7740, 8242, 7944
17794, 7462, 8162, 7840
17795, 7403, 8192, 8098
17796, 8182, 8251, 7649
17797, 8098, 8192, 7588
17798, 7492, 8268, 7926
17799, 7563, 8251, 8182
17800, 7542, 8447, 8140
17801, 8126, 8143, 7583
17802, 7389, 8308, 8062
17803, 8020, 8393, 7491
17804, 7511, 8396, 8029
17805, 7992, 8378, 7695
17806, 7663, 8250, 8223
17807, 8223, 8250, 7409
17808, 7552, 8372, 7993
17809, 7915, 8311, 7557
17810, 353, 8183, 7956
17811, 8097, 8446, 7630
17812, 7671, 8347, 7904
17813, 8032, 8120, 7728
17814, 7968, 8379, 7573
17815, 8004, 8433, 7653
17816, 7356, 8369, 7953
17817, 7553, 8250, 8229
17818, 8229, 8250, 7663
17819, 8194, 8276, 7381
17820, 7729, 8211, 7506
17821, 7661, 8357, 8106
17822, 7826, 8388, 8015
17823, 7908, 8350, 928
17824, 676, 8173, 8045
17825, 8248, 8403, 7595
17826, 7984, 8212, 7406
17827, 7502, 8082, 7980
17828, 8045, 8173, 7568
17829, 7393, 8282, 7948
17830, 8068, 8166, 210
17831, 8072, 8121, 7543
17832, 350, 8386, 7884
17833, 7411, 8333, 8078
17834, 342, 8401, 7903
17835, 7914, 8342, 7561
17836, 8078, 8333, 7632
17837, 8051, 8202, 7530
17838, 7953, 8369, 7550
17839, 7696, 8165, 8154
17840, 7344, 8087, 7973
17841, 8154, 8165, 7528
17842, 7987, 8344, 7378
17843, 7518, 8445, 7940
17844, 7644, 8364, 7932
17845, 8223, 8409, 7663
17846, 7549, 8256, 8064
17847, 7464, 8195, 7853
17848, 7853, 8166, 7464
17849, 7394, 8445, 8025
17850, 7396, 8419, 7854
17851, 7470, 8342, 7914
17852, 7986, 8414, 7551
17853, 8203, 8315, 7362
17854, 7501, 8292, 7937
17855, 7588, 8192, 8008
17856, 7542, 8194, 8009
17857, 7554, 8302, 8079
17858, 7954, 8217, 7360
17859, 7394, 8341, 7940
17860, 7591, 8201, 8007
17861, 7985, 8283, 7698
17862, 7943, 8384, 7580
17863, 8062, 8308, 7490
17864, 7417, 8253, 8132
17865, 7894, 8411, 241
17866, 7967, 8322, 345
17867, 8132, 8253, 7620
17868, 7577, 8355, 8295
17869, 7576, 8290, 8146
17870, 8263, 8415, 7607
17871, 7596, 8288, 7969
17872, 7560, 8424, 8161
17873, 7991, 8260, 926
17874, 8127, 8302, 7554
17875, 7381, 8276, 7982
17876, 7492, 8378, 7992
17877, 8006, 8281, 7571
17878, 7431, 8281, 8006
17879, 7537, 8279, 7977
17880, 7339, 8393, 8020
17881, 7609, 8336, 8014
17882, 7529, 8219, 8026
17883, 7494, 8432, 7882
17884, 7587, 8387, 8163
17885, 8149, 8161, 7602
17886, 7490, 8308, 8107
17887, 7491, 8438, 7951
17888, 8140, 8194, 7542
17889, 7617, 8194, 8140
17890, 8119, 8402, 7559
17891, 8262, 8369, 7356
17892, 7614, 8381, 8007
17893, 7742, 8414, 7444
17894, 7617, 8276, 8194
17895, 7978, 8332, 7390
17896, 8055, 8425, 7554
17897, 8007, 8381, 365
17898, 7700, 8438, 7995
17899, 8249, 8259, 7668
17900, 7558, 8259, 8249
17901, 7706, 8369, 8262
17902, 7611, 8344, 7987
17903, 7418, 8379, 7968
17904, 7405, 8201, 8167
17905, 7730, 8348, 8131
17906, 8278, 8428, 7616
17907, 8167, 8201, 7591
17908, 7959, 8413, 7660
17909, 7560, 8161, 8149
17910, 8000, 8309, 7657
17911, 7419, 8413, 8313
17912, 7972, 8371, 7530
17913, 7572, 8389, 8018
17914, 7777, 8333, 8003
17915, 8359, 8397, 76
17916, 7795, 8293, 8091
17917, 8169, 8448, 7338
17918, 7643, 8302, 8127
17919, 7569, 8319, 8005
17920, 8008, 8356, 369
17921, 7998, 8363, 7345
17922, 7575, 8363, 7998
17923, 7690, 8331, 8003
17924, 8003, 8333, 7411
17925, 7993, 8372, 7398
17926, 8084, 8281, 7765
17927, 7564, 8408, 7976
17928, 8049, 8380, 7592
17929, 7503, 8380, 8049
17930, 8084, 8339, 7571
17931, 8289, 8335, 7623
17932, 7683, 8335, 8289
17933, 7491, 8393, 8325
17934, 7554, 8425, 8127
17935, 7998, 8380, 7503
17936, 7604, 8356, 8008
17937, 7968, 8361, 7578
17938, 8078, 8440, 7411
17939, 7760, 8440, 8078
17940, 7560, 8365, 8011
17941, 8103, 8418, 7747
17942, 8155, 8413, 7419
17943, 7791, 8424, 8011
17944, 8217, 8227, 7634
17945, 7806, 8447, 7983
17946, 7571, 8281, 8084
17947, 8091, 8293, 7415
17948, 8273, 8362, 7578
17949, 7995, 8438, 7491
17950, 7660, 8413, 8155
17951, 8015, 8388, 7588
17952, 7486, 8404, 8001
17953, 7386, 8422, 8074
17954, 8079, 8302, 7382
17955, 8074, 8422, 7647
17956, 7704, 8406, 8329
17957, 8224, 8399, 7505
17958, 8206, 8234, 7669
17959, 8124, 8291, 7794
17960, 7540, 8312, 8080
17961, 7551, 8414, 8118
17962, 8329, 8406, 7608
17963, 8421, 8437, 7590
17964, 8262, 8290, 7576
17965, 7566, 8291, 8124
17966, 8131, 8348, 860
17967, 8018, 8389, 238
17968, 7622, 8227, 8217
17969, 8291, 8395, 7439
17970, 8373, 8435, 7721
17971, 7781, 8399, 8224
17972, 8163, 8387, 7351
17973, 8054, 8410, 7589
17974, 8095, 8367, 248
17975, 7442, 8410, 8054
17976, 8313, 8317, 7651
17977, 8153, 8389, 7572
17978, 8031, 8398, 206
17979, 7377, 8298, 8089
17980, 7603, 8395, 8053
17981, 8351, 8406, 7704
17982, 8100, 8303, 7378
17983, 8127, 8425, 7439
17984, 7986, 8355, 7444
17985, 8039, 8427, 7591
17986, 8185, 8364, 7527
17987, 7424, 8406, 8351
17988, 7601, 8367, 8095
17989, 8373, 8400, 80
17990, 7698, 8448, 8169
17991, 259, 8368, 8314
17992, 7597, 8317, 8313
17993, 7627, 8306, 8280
17994, 7496, 8331, 8017
17995, 8314, 8368, 7679
17996, 7444, 8441, 7742
17997, 7794, 8425, 8055
17998, 7385, 8437, 8049
17999, 8280, 8306, 7606
18000, 8326, 8346, 7676
18001, 7348, 8346, 8326
18002, 7399, 8321, 8148
18003, 7629, 8435, 8373
18004, 7361, 8347, 8323
18005, 8323, 8347, 7671
18006, 360, 8377, 8109
18007, 8262, 8432, 7706
18008, 8107, 8308, 7573
18009, 8066, 8422, 7386
18010, 7770, 8315, 8203
18011, 8072, 8423, 7438
18012, 7444, 8414, 7986
18013, 8140, 8447, 7442
18014, 8102, 8420, 7598
18015, 7443, 8420, 8102
18016, 7356, 8290, 8262
18017, 8223, 8436, 7594
18018, 7337, 8402, 8119
18019, 7797, 8354, 8210
18020, 7950, 8412, 1002
18021, 8210, 8354, 7408
18022, 7745, 8397, 8359
18023, 8106, 8386, 351
18024, 338, 8244, 8133
18025, 7585, 8351, 8340
18026, 8340, 8351, 7704
18027, 239, 8389, 8153
18028, 8118, 8414, 7742
18029, 8161, 8424, 7441
18030, 8118, 8304, 7551
18031, 7594, 8409, 8223
18032, 8189, 8439, 7615
18033, 8373, 8412, 7629
18034, 7721, 8400, 8373
18035, 7409, 8436, 8223
18036, 8325, 8393, 7621
18037, 116, 8327, 8191
18038, 7742, 8441, 8241
18039, 8419, 8441, 7444
18040, 7574, 8441, 8419
18041, 8241, 8441, 7574
18042, 626, 7980, 34
18043, 37, 7896, 643
18044, 931, 7729, 51
