*Heading
 C:\Users\lev\Desktop\Bazis обучение\Обучающие руководства\материалы для обучения\Стыклазер\С_лазер
*NODE
1, 0, 0, 0
2, 6, 0, 0
3, 12, 0, 0
4, 18, 0, 0
5, 50, 0, 0
6, 50, 6, 0
7, 18, 6, 0
8, 12, 6, 0
9, 6, 6, 0
10, 0, 6, 0
11, 18, 0, 50
12, 18, 6, 50
13, 50, 6, 50
14, 50, 0, 50
15, 12, 6, 50
16, 12, 0, 50
17, 6, 6, 50
18, 6, 0, 50
19, 0, 0, 50
20, 0, 6, 50
21, 0.99999999999565, 0, 0
22, 1.9999999999921, 0, 0
23, 2.9999999999886, 0, 0
24, 3.9999999999923, 0, 0
25, 4.9999999999962, 0, 0
26, 6.9999999999924, 0, 0
27, 7.9999999999938, 0, 0
28, 8.9999999999953, 0, 0
29, 9.9999999999969, 0, 0
30, 10.999999999998, 0, 0
31, 13.199999999988, 0, 0
32, 14.399999999976, 0, 0
33, 15.599999999965, 0, 0
34, 16.799999999976, 0, 0
35, 21.55555555559, 0, 0
36, 25.111111111146, 0, 0
37, 28.666666666696, 0, 0
38, 32.222222222247, 0, 0
39, 35.777777777798, 0, 0
40, 39.333333333348, 0, 0
41, 42.888888888899, 0, 0
42, 46.444444444449, 0, 0
43, 0.99999999999565, 6, 0
44, 1.9999999999921, 6, 0
45, 2.9999999999886, 6, 0
46, 3.9999999999923, 6, 0
47, 4.9999999999962, 6, 0
48, 6.9999999999924, 6, 0
49, 7.9999999999938, 6, 0
50, 8.9999999999953, 6, 0
51, 9.9999999999969, 6, 0
52, 10.999999999998, 6, 0
53, 13.199999999988, 6, 0
54, 14.399999999976, 6, 0
55, 15.599999999965, 6, 0
56, 16.799999999976, 6, 0
57, 21.55555555559, 6, 0
58, 25.111111111146, 6, 0
59, 28.666666666696, 6, 0
60, 32.222222222247, 6, 0
61, 35.777777777798, 6, 0
62, 39.333333333348, 6, 0
63, 42.888888888899, 6, 0
64, 46.444444444449, 6, 0
65, 0, 0.99999999999565, 0
66, 0, 1.9999999999921, 0
67, 0, 2.9999999999886, 0
68, 0, 3.9999999999923, 0
69, 0, 4.9999999999962, 0
70, 6, 0.99999999999565, 0
71, 6, 1.9999999999921, 0
72, 6, 2.9999999999886, 0
73, 6, 3.9999999999923, 0
74, 6, 4.9999999999962, 0
75, 12, 0.99999999999565, 0
76, 12, 1.9999999999921, 0
77, 12, 2.9999999999886, 0
78, 12, 3.9999999999923, 0
79, 12, 4.9999999999962, 0
80, 18, 0.99999999999565, 0
81, 18, 1.9999999999921, 0
82, 18, 2.9999999999886, 0
83, 18, 3.9999999999923, 0
84, 18, 4.9999999999962, 0
85, 50, 0.99999999999565, 0
86, 50, 1.9999999999921, 0
87, 50, 2.9999999999886, 0
88, 50, 3.9999999999923, 0
89, 50, 4.9999999999962, 0
90, 18, 0.99999999999565, 50
91, 18, 1.9999999999921, 50
92, 18, 2.9999999999886, 50
93, 18, 3.9999999999923, 50
94, 18, 4.9999999999962, 50
95, 21.55555555559, 6, 50
96, 25.111111111146, 6, 50
97, 28.666666666696, 6, 50
98, 32.222222222247, 6, 50
99, 35.777777777798, 6, 50
100, 39.333333333348, 6, 50
101, 42.888888888899, 6, 50
102, 46.444444444449, 6, 50
103, 50, 5.0000000000063, 50
104, 50, 4.0000000000039, 50
105, 50, 3.0000000000083, 50
106, 50, 2.0000000000056, 50
107, 50, 1.0000000000028, 50
108, 46.444444444462, 0, 50
109, 42.888888888923, 0, 50
110, 39.333333333385, 0, 50
111, 35.777777777847, 0, 50
112, 32.222222222309, 0, 50
113, 28.666666666733, 0, 50
114, 25.111111111156, 0, 50
115, 21.555555555578, 0, 50
116, 18, 0, 2.083333333325
117, 18, 0, 4.1666666666503
118, 18, 0, 6.2499999999763
119, 18, 0, 8.333333333299
120, 18, 0, 10.416666666622
121, 18, 0, 12.499999999944
122, 18, 0, 14.583333333267
123, 18, 0, 16.666666666592
124, 18, 0, 18.749999999922
125, 18, 0, 20.833333333252
126, 18, 0, 22.916666666582
127, 18, 0, 24.999999999912
128, 18, 0, 27.083333333242
129, 18, 0, 29.166666666572
130, 18, 0, 31.249999999902
131, 18, 0, 33.333333333242
132, 18, 0, 35.416666666587
133, 18, 0, 37.499999999932
134, 18, 0, 39.583333333276
135, 18, 0, 41.666666666621
136, 18, 0, 43.749999999966
137, 18, 0, 45.833333333311
138, 18, 0, 47.916666666655
139, 18, 6, 2.083333333325
140, 18, 6, 4.1666666666503
141, 18, 6, 6.2499999999763
142, 18, 6, 8.333333333299
143, 18, 6, 10.416666666622
144, 18, 6, 12.499999999944
145, 18, 6, 14.583333333267
146, 18, 6, 16.666666666592
147, 18, 6, 18.749999999922
148, 18, 6, 20.833333333252
149, 18, 6, 22.916666666582
150, 18, 6, 24.999999999912
151, 18, 6, 27.083333333242
152, 18, 6, 29.166666666572
153, 18, 6, 31.249999999902
154, 18, 6, 33.333333333242
155, 18, 6, 35.416666666587
156, 18, 6, 37.499999999932
157, 18, 6, 39.583333333276
158, 18, 6, 41.666666666621
159, 18, 6, 43.749999999966
160, 18, 6, 45.833333333311
161, 18, 6, 47.916666666655
162, 50, 6, 2.083333333325
163, 50, 6, 4.1666666666503
164, 50, 6, 6.2499999999763
165, 50, 6, 8.333333333299
166, 50, 6, 10.416666666622
167, 50, 6, 12.499999999944
168, 50, 6, 14.583333333267
169, 50, 6, 16.666666666592
170, 50, 6, 18.749999999922
171, 50, 6, 20.833333333252
172, 50, 6, 22.916666666582
173, 50, 6, 24.999999999912
174, 50, 6, 27.083333333242
175, 50, 6, 29.166666666572
176, 50, 6, 31.249999999902
177, 50, 6, 33.333333333242
178, 50, 6, 35.416666666587
179, 50, 6, 37.499999999932
180, 50, 6, 39.583333333276
181, 50, 6, 41.666666666621
182, 50, 6, 43.749999999966
183, 50, 6, 45.833333333311
184, 50, 6, 47.916666666655
185, 50, 0, 2.083333333325
186, 50, 0, 4.1666666666503
187, 50, 0, 6.2499999999763
188, 50, 0, 8.333333333299
189, 50, 0, 10.416666666622
190, 50, 0, 12.499999999944
191, 50, 0, 14.583333333267
192, 50, 0, 16.666666666592
193, 50, 0, 18.749999999922
194, 50, 0, 20.833333333252
195, 50, 0, 22.916666666582
196, 50, 0, 24.999999999912
197, 50, 0, 27.083333333242
198, 50, 0, 29.166666666572
199, 50, 0, 31.249999999902
200, 50, 0, 33.333333333242
201, 50, 0, 35.416666666587
202, 50, 0, 37.499999999932
203, 50, 0, 39.583333333276
204, 50, 0, 41.666666666621
205, 50, 0, 43.749999999966
206, 50, 0, 45.833333333311
207, 50, 0, 47.916666666655
208, 13.199999999988, 6, 50
209, 14.399999999976, 6, 50
210, 15.599999999965, 6, 50
211, 16.799999999976, 6, 50
212, 16.800000000024, 0, 50
213, 15.600000000035, 0, 50
214, 14.400000000024, 0, 50
215, 13.200000000012, 0, 50
216, 12, 0.99999999999565, 50
217, 12, 1.9999999999921, 50
218, 12, 2.9999999999886, 50
219, 12, 3.9999999999923, 50
220, 12, 4.9999999999962, 50
221, 12, 6, 2.083333333325
222, 12, 6, 4.1666666666503
223, 12, 6, 6.2499999999763
224, 12, 6, 8.333333333299
225, 12, 6, 10.416666666622
226, 12, 6, 12.499999999944
227, 12, 6, 14.583333333267
228, 12, 6, 16.666666666592
229, 12, 6, 18.749999999922
230, 12, 6, 20.833333333252
231, 12, 6, 22.916666666582
232, 12, 6, 24.999999999912
233, 12, 6, 27.083333333242
234, 12, 6, 29.166666666572
235, 12, 6, 31.249999999902
236, 12, 6, 33.333333333242
237, 12, 6, 35.416666666587
238, 12, 6, 37.499999999932
239, 12, 6, 39.583333333276
240, 12, 6, 41.666666666621
241, 12, 6, 43.749999999966
242, 12, 6, 45.833333333311
243, 12, 6, 47.916666666655
244, 12, 0, 2.083333333325
245, 12, 0, 4.1666666666503
246, 12, 0, 6.2499999999763
247, 12, 0, 8.333333333299
248, 12, 0, 10.416666666622
249, 12, 0, 12.499999999944
250, 12, 0, 14.583333333267
251, 12, 0, 16.666666666592
252, 12, 0, 18.749999999922
253, 12, 0, 20.833333333252
254, 12, 0, 22.916666666582
255, 12, 0, 24.999999999912
256, 12, 0, 27.083333333242
257, 12, 0, 29.166666666572
258, 12, 0, 31.249999999902
259, 12, 0, 33.333333333242
260, 12, 0, 35.416666666587
261, 12, 0, 37.499999999932
262, 12, 0, 39.583333333276
263, 12, 0, 41.666666666621
264, 12, 0, 43.749999999966
265, 12, 0, 45.833333333311
266, 12, 0, 47.916666666655
267, 6.9999999999924, 6, 50
268, 7.9999999999938, 6, 50
269, 8.9999999999953, 6, 50
270, 9.9999999999969, 6, 50
271, 10.999999999998, 6, 50
272, 11, 0, 50
273, 10, 0, 50
274, 9, 0, 50
275, 8, 0, 50
276, 7, 0, 50
277, 6, 0.99999999999565, 50
278, 6, 1.9999999999921, 50
279, 6, 2.9999999999886, 50
280, 6, 3.9999999999923, 50
281, 6, 4.9999999999962, 50
282, 6, 6, 2.083333333325
283, 6, 6, 4.1666666666503
284, 6, 6, 6.2499999999763
285, 6, 6, 8.333333333299
286, 6, 6, 10.416666666622
287, 6, 6, 12.499999999944
288, 6, 6, 14.583333333267
289, 6, 6, 16.666666666592
290, 6, 6, 18.749999999922
291, 6, 6, 20.833333333252
292, 6, 6, 22.916666666582
293, 6, 6, 24.999999999912
294, 6, 6, 27.083333333242
295, 6, 6, 29.166666666572
296, 6, 6, 31.249999999902
297, 6, 6, 33.333333333242
298, 6, 6, 35.416666666587
299, 6, 6, 37.499999999932
300, 6, 6, 39.583333333276
301, 6, 6, 41.666666666621
302, 6, 6, 43.749999999966
303, 6, 6, 45.833333333311
304, 6, 6, 47.916666666655
305, 6, 0, 2.083333333325
306, 6, 0, 4.1666666666503
307, 6, 0, 6.2499999999763
308, 6, 0, 8.333333333299
309, 6, 0, 10.416666666622
310, 6, 0, 12.499999999944
311, 6, 0, 14.583333333267
312, 6, 0, 16.666666666592
313, 6, 0, 18.749999999922
314, 6, 0, 20.833333333252
315, 6, 0, 22.916666666582
316, 6, 0, 24.999999999912
317, 6, 0, 27.083333333242
318, 6, 0, 29.166666666572
319, 6, 0, 31.249999999902
320, 6, 0, 33.333333333242
321, 6, 0, 35.416666666587
322, 6, 0, 37.499999999932
323, 6, 0, 39.583333333276
324, 6, 0, 41.666666666621
325, 6, 0, 43.749999999966
326, 6, 0, 45.833333333311
327, 6, 0, 47.916666666655
328, 0.99999999999565, 0, 50
329, 1.9999999999921, 0, 50
330, 2.9999999999886, 0, 50
331, 3.9999999999923, 0, 50
332, 4.9999999999962, 0, 50
333, 5.0000000000063, 6, 50
334, 4.0000000000039, 6, 50
335, 3.0000000000083, 6, 50
336, 2.0000000000056, 6, 50
337, 1.0000000000028, 6, 50
338, 0, 5.0000000000063, 50
339, 0, 4.0000000000039, 50
340, 0, 3.0000000000083, 50
341, 0, 2.0000000000056, 50
342, 0, 1.0000000000028, 50
343, 0, 0, 2.083333333325
344, 0, 0, 4.1666666666503
345, 0, 0, 6.2499999999763
346, 0, 0, 8.333333333299
347, 0, 0, 10.416666666622
348, 0, 0, 12.499999999944
349, 0, 0, 14.583333333267
350, 0, 0, 16.666666666592
351, 0, 0, 18.749999999922
352, 0, 0, 20.833333333252
353, 0, 0, 22.916666666582
354, 0, 0, 24.999999999912
355, 0, 0, 27.083333333242
356, 0, 0, 29.166666666572
357, 0, 0, 31.249999999902
358, 0, 0, 33.333333333242
359, 0, 0, 35.416666666587
360, 0, 0, 37.499999999932
361, 0, 0, 39.583333333276
362, 0, 0, 41.666666666621
363, 0, 0, 43.749999999966
364, 0, 0, 45.833333333311
365, 0, 0, 47.916666666655
366, 0, 6, 2.083333333325
367, 0, 6, 4.1666666666503
368, 0, 6, 6.2499999999763
369, 0, 6, 8.333333333299
370, 0, 6, 10.416666666622
371, 0, 6, 12.499999999944
372, 0, 6, 14.583333333267
373, 0, 6, 16.666666666592
374, 0, 6, 18.749999999922
375, 0, 6, 20.833333333252
376, 0, 6, 22.916666666582
377, 0, 6, 24.999999999912
378, 0, 6, 27.083333333242
379, 0, 6, 29.166666666572
380, 0, 6, 31.249999999902
381, 0, 6, 33.333333333242
382, 0, 6, 35.416666666587
383, 0, 6, 37.499999999932
384, 0, 6, 39.583333333276
385, 0, 6, 41.666666666621
386, 0, 6, 43.749999999966
387, 0, 6, 45.833333333311
388, 0, 6, 47.916666666655
389, 0.99999999999565, 0.99999999999565, 0
390, 0.99999999999564, 1.9999999999921, 0
391, 0.99999999999565, 2.9999999999886, 0
392, 0.99999999999564, 3.9999999999923, 0
393, 0.99999999999565, 4.9999999999962, 0
394, 1.9999999999921, 0.99999999999564, 0
395, 1.9999999999921, 1.9999999999921, 0
396, 1.9999999999921, 2.9999999999886, 0
397, 1.9999999999921, 3.9999999999923, 0
398, 1.9999999999921, 4.9999999999962, 0
399, 2.9999999999886, 0.99999999999565, 0
400, 2.9999999999886, 1.9999999999921, 0
401, 2.9999999999886, 2.9999999999886, 0
402, 2.9999999999886, 3.9999999999923, 0
403, 2.9999999999886, 4.9999999999962, 0
404, 3.9999999999923, 0.99999999999564, 0
405, 3.9999999999923, 1.9999999999921, 0
406, 3.9999999999923, 2.9999999999886, 0
407, 3.9999999999923, 3.9999999999923, 0
408, 3.9999999999923, 4.9999999999962, 0
409, 4.9999999999962, 0.99999999999565, 0
410, 4.9999999999962, 1.9999999999921, 0
411, 4.9999999999962, 2.9999999999886, 0
412, 4.9999999999962, 3.9999999999923, 0
413, 4.9999999999962, 4.9999999999962, 0
414, 6.9999999999924, 4.9999999999962, 0
415, 6.9999999999924, 3.9999999999923, 0
416, 6.9999999999924, 2.9999999999886, 0
417, 6.9999999999924, 1.999999999992, 0
418, 6.9999999999924, 0.99999999999564, 0
419, 7.9999999999938, 4.9999999999962, 0
420, 7.9999999999938, 3.9999999999923, 0
421, 7.9999999999938, 2.9999999999886, 0
422, 7.9999999999938, 1.999999999992, 0
423, 7.9999999999938, 0.99999999999564, 0
424, 8.9999999999953, 4.9999999999962, 0
425, 8.9999999999953, 3.9999999999923, 0
426, 8.9999999999953, 2.9999999999886, 0
427, 8.9999999999953, 1.9999999999921, 0
428, 8.9999999999953, 0.99999999999564, 0
429, 9.9999999999969, 4.9999999999962, 0
430, 9.9999999999969, 3.9999999999923, 0
431, 9.9999999999969, 2.9999999999886, 0
432, 9.9999999999969, 1.999999999992, 0
433, 9.9999999999969, 0.99999999999564, 0
434, 10.999999999998, 4.9999999999962, 0
435, 10.999999999998, 3.9999999999923, 0
436, 10.999999999998, 2.9999999999886, 0
437, 10.999999999998, 1.9999999999921, 0
438, 10.999999999998, 0.99999999999564, 0
439, 13.199999999988, 4.9999999999962, 0
440, 13.199999999988, 3.9999999999923, 0
441, 13.199999999988, 2.9999999999886, 0
442, 13.199999999988, 1.9999999999921, 0
443, 13.199999999988, 0.99999999999564, 0
444, 14.399999999976, 4.9999999999962, 0
445, 14.399999999976, 3.9999999999923, 0
446, 14.399999999976, 2.9999999999886, 0
447, 14.399999999976, 1.9999999999921, 0
448, 14.399999999976, 0.99999999999564, 0
449, 15.599999999965, 4.9999999999962, 0
450, 15.599999999965, 3.9999999999923, 0
451, 15.599999999965, 2.9999999999886, 0
452, 15.599999999965, 1.9999999999921, 0
453, 15.599999999965, 0.99999999999564, 0
454, 16.799999999976, 4.9999999999962, 0
455, 16.799999999976, 3.9999999999923, 0
456, 16.799999999976, 2.9999999999886, 0
457, 16.799999999976, 1.9999999999921, 0
458, 16.799999999976, 0.99999999999564, 0
459, 21.55555555559, 0.99999999999564, 0
460, 25.111111111146, 0.99999999999564, 0
461, 28.666666666696, 0.99999999999564, 0
462, 32.222222222247, 0.99999999999565, 0
463, 35.777777777798, 0.99999999999565, 0
464, 39.333333333348, 0.99999999999564, 0
465, 42.888888888899, 0.99999999999564, 0
466, 46.444444444449, 0.99999999999565, 0
467, 21.55555555559, 1.9999999999921, 0
468, 25.111111111146, 1.9999999999921, 0
469, 28.666666666696, 1.9999999999921, 0
470, 32.222222222247, 1.9999999999921, 0
471, 35.777777777798, 1.9999999999921, 0
472, 39.333333333348, 1.9999999999921, 0
473, 42.888888888899, 1.9999999999921, 0
474, 46.444444444449, 1.9999999999921, 0
475, 21.55555555559, 2.9999999999886, 0
476, 25.111111111146, 2.9999999999886, 0
477, 28.666666666696, 2.9999999999886, 0
478, 32.222222222247, 2.9999999999886, 0
479, 35.777777777798, 2.9999999999886, 0
480, 39.333333333348, 2.9999999999886, 0
481, 42.888888888899, 2.9999999999886, 0
482, 46.444444444449, 2.9999999999886, 0
483, 21.55555555559, 3.9999999999923, 0
484, 25.111111111146, 3.9999999999923, 0
485, 28.666666666696, 3.9999999999923, 0
486, 32.222222222247, 3.9999999999923, 0
487, 35.777777777798, 3.9999999999923, 0
488, 39.333333333348, 3.9999999999923, 0
489, 42.888888888899, 3.9999999999923, 0
490, 46.444444444449, 3.9999999999923, 0
491, 21.55555555559, 4.9999999999962, 0
492, 25.111111111146, 4.9999999999962, 0
493, 28.666666666696, 4.9999999999962, 0
494, 32.222222222247, 4.9999999999962, 0
495, 35.777777777798, 4.9999999999962, 0
496, 39.333333333348, 4.9999999999962, 0
497, 42.888888888899, 4.9999999999962, 0
498, 46.444444444449, 4.9999999999962, 0
499, 18, 0.99999999999565, 2.083333333325
500, 18, 0.99999999999565, 4.1666666666503
501, 18, 0.99999999999564, 6.2499999999763
502, 18, 0.99999999999565, 8.333333333299
503, 18, 0.99999999999564, 10.416666666622
504, 18, 0.99999999999565, 12.499999999944
505, 18, 0.99999999999565, 14.583333333267
506, 18, 0.99999999999565, 16.666666666592
507, 18, 0.99999999999565, 18.749999999922
508, 18, 0.99999999999565, 20.833333333252
509, 18, 0.99999999999565, 22.916666666582
510, 18, 0.99999999999565, 24.999999999912
511, 18, 0.99999999999565, 27.083333333242
512, 18, 0.99999999999565, 29.166666666572
513, 18, 0.99999999999565, 31.249999999902
514, 18, 0.99999999999565, 33.333333333242
515, 18, 0.99999999999565, 35.416666666587
516, 18, 0.99999999999565, 37.499999999932
517, 18, 0.99999999999565, 39.583333333276
518, 18, 0.99999999999565, 41.666666666621
519, 18, 0.99999999999565, 43.749999999966
520, 18, 0.99999999999564, 45.833333333311
521, 18, 0.99999999999565, 47.916666666655
522, 18, 1.9999999999921, 2.083333333325
523, 18, 1.9999999999921, 4.1666666666503
524, 18, 1.9999999999921, 6.2499999999763
525, 18, 1.9999999999921, 8.333333333299
526, 18, 1.999999999992, 10.416666666622
527, 18, 1.9999999999921, 12.499999999944
528, 18, 1.999999999992, 14.583333333267
529, 18, 1.9999999999921, 16.666666666592
530, 18, 1.999999999992, 18.749999999922
531, 18, 1.999999999992, 20.833333333252
532, 18, 1.999999999992, 22.916666666582
533, 18, 1.9999999999921, 24.999999999912
534, 18, 1.9999999999921, 27.083333333242
535, 18, 1.999999999992, 29.166666666572
536, 18, 1.9999999999921, 31.249999999902
537, 18, 1.9999999999921, 33.333333333242
538, 18, 1.9999999999921, 35.416666666587
539, 18, 1.999999999992, 37.499999999932
540, 18, 1.999999999992, 39.583333333276
541, 18, 1.999999999992, 41.666666666621
542, 18, 1.999999999992, 43.749999999966
543, 18, 1.999999999992, 45.833333333311
544, 18, 1.999999999992, 47.916666666655
545, 18, 2.9999999999886, 2.083333333325
546, 18, 2.9999999999886, 4.1666666666503
547, 18, 2.9999999999886, 6.2499999999763
548, 18, 2.9999999999886, 8.333333333299
549, 18, 2.9999999999886, 10.416666666622
550, 18, 2.9999999999886, 12.499999999944
551, 18, 2.9999999999886, 14.583333333267
552, 18, 2.9999999999886, 16.666666666592
553, 18, 2.9999999999886, 18.749999999922
554, 18, 2.9999999999886, 20.833333333252
555, 18, 2.9999999999886, 22.916666666582
556, 18, 2.9999999999886, 24.999999999912
557, 18, 2.9999999999886, 27.083333333242
558, 18, 2.9999999999886, 29.166666666572
559, 18, 2.9999999999886, 31.249999999902
560, 18, 2.9999999999886, 33.333333333242
561, 18, 2.9999999999886, 35.416666666587
562, 18, 2.9999999999886, 37.499999999932
563, 18, 2.9999999999886, 39.583333333276
564, 18, 2.9999999999886, 41.666666666621
565, 18, 2.9999999999886, 43.749999999966
566, 18, 2.9999999999886, 45.833333333311
567, 18, 2.9999999999886, 47.916666666655
568, 18, 3.9999999999923, 2.083333333325
569, 18, 3.9999999999923, 4.1666666666503
570, 18, 3.9999999999923, 6.2499999999763
571, 18, 3.9999999999923, 8.333333333299
572, 18, 3.9999999999923, 10.416666666622
573, 18, 3.9999999999923, 12.499999999944
574, 18, 3.9999999999923, 14.583333333267
575, 18, 3.9999999999923, 16.666666666592
576, 18, 3.9999999999923, 18.749999999922
577, 18, 3.9999999999923, 20.833333333252
578, 18, 3.9999999999923, 22.916666666582
579, 18, 3.9999999999923, 24.999999999912
580, 18, 3.9999999999923, 27.083333333242
581, 18, 3.9999999999923, 29.166666666572
582, 18, 3.9999999999923, 31.249999999902
583, 18, 3.9999999999923, 33.333333333242
584, 18, 3.9999999999923, 35.416666666587
585, 18, 3.9999999999923, 37.499999999932
586, 18, 3.9999999999923, 39.583333333276
587, 18, 3.9999999999923, 41.666666666621
588, 18, 3.9999999999923, 43.749999999966
589, 18, 3.9999999999923, 45.833333333311
590, 18, 3.9999999999923, 47.916666666655
591, 18, 4.9999999999962, 2.083333333325
592, 18, 4.9999999999962, 4.1666666666503
593, 18, 4.9999999999962, 6.2499999999763
594, 18, 4.9999999999962, 8.333333333299
595, 18, 4.9999999999962, 10.416666666622
596, 18, 4.9999999999962, 12.499999999944
597, 18, 4.9999999999962, 14.583333333267
598, 18, 4.9999999999962, 16.666666666592
599, 18, 4.9999999999962, 18.749999999922
600, 18, 4.9999999999962, 20.833333333252
601, 18, 4.9999999999962, 22.916666666582
602, 18, 4.9999999999962, 24.999999999912
603, 18, 4.9999999999962, 27.083333333242
604, 18, 4.9999999999962, 29.166666666572
605, 18, 4.9999999999962, 31.249999999902
606, 18, 4.9999999999962, 33.333333333242
607, 18, 4.9999999999962, 35.416666666587
608, 18, 4.9999999999962, 37.499999999932
609, 18, 4.9999999999962, 39.583333333276
610, 18, 4.9999999999962, 41.666666666621
611, 18, 4.9999999999962, 43.749999999966
612, 18, 4.9999999999962, 45.833333333311
613, 18, 4.9999999999962, 47.916666666655
614, 21.55555555559, 6, 2.083333333325
615, 21.55555555559, 6, 4.1666666666503
616, 21.55555555559, 6, 6.2499999999763
617, 21.55555555559, 6, 8.333333333299
618, 21.55555555559, 6, 10.416666666622
619, 21.55555555559, 6, 12.499999999944
620, 21.55555555559, 6, 14.583333333267
621, 21.55555555559, 6, 16.666666666592
622, 21.55555555559, 6, 18.749999999922
623, 21.55555555559, 6, 20.833333333252
624, 21.55555555559, 6, 22.916666666582
625, 21.55555555559, 6, 24.999999999912
626, 21.55555555559, 6, 27.083333333242
627, 21.55555555559, 6, 29.166666666572
628, 21.55555555559, 6, 31.249999999902
629, 21.55555555559, 6, 33.333333333242
630, 21.55555555559, 6, 35.416666666587
631, 21.55555555559, 6, 37.499999999932
632, 21.55555555559, 6, 39.583333333276
633, 21.55555555559, 6, 41.666666666621
634, 21.55555555559, 6, 43.749999999966
635, 21.55555555559, 6, 45.833333333311
636, 21.55555555559, 6, 47.916666666655
637, 25.111111111146, 6, 2.083333333325
638, 25.111111111146, 6, 4.1666666666503
639, 25.111111111146, 6, 6.2499999999763
640, 25.111111111146, 6, 8.333333333299
641, 25.111111111146, 6, 10.416666666622
642, 25.111111111146, 6, 12.499999999944
643, 25.111111111146, 6, 14.583333333267
644, 25.111111111146, 6, 16.666666666592
645, 25.111111111146, 6, 18.749999999922
646, 25.111111111146, 6, 20.833333333252
647, 25.111111111146, 6, 22.916666666582
648, 25.111111111146, 6, 24.999999999912
649, 25.111111111146, 6, 27.083333333242
650, 25.111111111146, 6, 29.166666666572
651, 25.111111111146, 6, 31.249999999902
652, 25.111111111146, 6, 33.333333333242
653, 25.111111111146, 6, 35.416666666587
654, 25.111111111146, 6, 37.499999999932
655, 25.111111111146, 6, 39.583333333276
656, 25.111111111146, 6, 41.666666666621
657, 25.111111111146, 6, 43.749999999966
658, 25.111111111146, 6, 45.833333333311
659, 25.111111111146, 6, 47.916666666655
660, 28.666666666696, 6, 2.083333333325
661, 28.666666666696, 6, 4.1666666666503
662, 28.666666666696, 6, 6.2499999999763
663, 28.666666666696, 6, 8.333333333299
664, 28.666666666696, 6, 10.416666666622
665, 28.666666666696, 6, 12.499999999944
666, 28.666666666696, 6, 14.583333333267
667, 28.666666666696, 6, 16.666666666592
668, 28.666666666696, 6, 18.749999999922
669, 28.666666666696, 6, 20.833333333252
670, 28.666666666696, 6, 22.916666666582
671, 28.666666666696, 6, 24.999999999912
672, 28.666666666696, 6, 27.083333333242
673, 28.666666666696, 6, 29.166666666572
674, 28.666666666696, 6, 31.249999999902
675, 28.666666666696, 6, 33.333333333242
676, 28.666666666696, 6, 35.416666666587
677, 28.666666666696, 6, 37.499999999932
678, 28.666666666696, 6, 39.583333333276
679, 28.666666666696, 6, 41.666666666621
680, 28.666666666696, 6, 43.749999999966
681, 28.666666666696, 6, 45.833333333311
682, 28.666666666696, 6, 47.916666666655
683, 32.222222222247, 6, 2.083333333325
684, 32.222222222247, 6, 4.1666666666503
685, 32.222222222247, 6, 6.2499999999763
686, 32.222222222247, 6, 8.333333333299
687, 32.222222222247, 6, 10.416666666622
688, 32.222222222247, 6, 12.499999999944
689, 32.222222222247, 6, 14.583333333267
690, 32.222222222247, 6, 16.666666666592
691, 32.222222222247, 6, 18.749999999922
692, 32.222222222247, 6, 20.833333333252
693, 32.222222222247, 6, 22.916666666582
694, 32.222222222247, 6, 24.999999999912
695, 32.222222222247, 6, 27.083333333242
696, 32.222222222247, 6, 29.166666666572
697, 32.222222222247, 6, 31.249999999902
698, 32.222222222247, 6, 33.333333333242
699, 32.222222222247, 6, 35.416666666587
700, 32.222222222247, 6, 37.499999999932
701, 32.222222222247, 6, 39.583333333276
702, 32.222222222247, 6, 41.666666666621
703, 32.222222222247, 6, 43.749999999966
704, 32.222222222247, 6, 45.833333333311
705, 32.222222222247, 6, 47.916666666655
706, 35.777777777798, 6, 2.083333333325
707, 35.777777777798, 6, 4.1666666666503
708, 35.777777777798, 6, 6.2499999999763
709, 35.777777777798, 6, 8.333333333299
710, 35.777777777798, 6, 10.416666666622
711, 35.777777777798, 6, 12.499999999944
712, 35.777777777798, 6, 14.583333333267
713, 35.777777777798, 6, 16.666666666592
714, 35.777777777798, 6, 18.749999999922
715, 35.777777777798, 6, 20.833333333252
716, 35.777777777798, 6, 22.916666666582
717, 35.777777777798, 6, 24.999999999912
718, 35.777777777798, 6, 27.083333333242
719, 35.777777777798, 6, 29.166666666572
720, 35.777777777798, 6, 31.249999999902
721, 35.777777777798, 6, 33.333333333242
722, 35.777777777798, 6, 35.416666666587
723, 35.777777777798, 6, 37.499999999932
724, 35.777777777798, 6, 39.583333333276
725, 35.777777777798, 6, 41.666666666621
726, 35.777777777798, 6, 43.749999999966
727, 35.777777777798, 6, 45.833333333311
728, 35.777777777798, 6, 47.916666666655
729, 39.333333333348, 6, 2.083333333325
730, 39.333333333348, 6, 4.1666666666503
731, 39.333333333348, 6, 6.2499999999763
732, 39.333333333348, 6, 8.333333333299
733, 39.333333333348, 6, 10.416666666622
734, 39.333333333348, 6, 12.499999999944
735, 39.333333333348, 6, 14.583333333267
736, 39.333333333348, 6, 16.666666666592
737, 39.333333333348, 6, 18.749999999922
738, 39.333333333348, 6, 20.833333333252
739, 39.333333333348, 6, 22.916666666582
740, 39.333333333348, 6, 24.999999999912
741, 39.333333333348, 6, 27.083333333242
742, 39.333333333348, 6, 29.166666666572
743, 39.333333333348, 6, 31.249999999902
744, 39.333333333348, 6, 33.333333333242
745, 39.333333333348, 6, 35.416666666587
746, 39.333333333348, 6, 37.499999999932
747, 39.333333333348, 6, 39.583333333276
748, 39.333333333348, 6, 41.666666666621
749, 39.333333333348, 6, 43.749999999966
750, 39.333333333348, 6, 45.833333333311
751, 39.333333333348, 6, 47.916666666655
752, 42.888888888899, 6, 2.083333333325
753, 42.888888888899, 6, 4.1666666666503
754, 42.888888888899, 6, 6.2499999999763
755, 42.888888888899, 6, 8.333333333299
756, 42.888888888899, 6, 10.416666666622
757, 42.888888888899, 6, 12.499999999944
758, 42.888888888899, 6, 14.583333333267
759, 42.888888888899, 6, 16.666666666592
760, 42.888888888899, 6, 18.749999999922
761, 42.888888888899, 6, 20.833333333252
762, 42.888888888899, 6, 22.916666666582
763, 42.888888888899, 6, 24.999999999912
764, 42.888888888899, 6, 27.083333333242
765, 42.888888888899, 6, 29.166666666572
766, 42.888888888899, 6, 31.249999999902
767, 42.888888888899, 6, 33.333333333242
768, 42.888888888899, 6, 35.416666666587
769, 42.888888888899, 6, 37.499999999932
770, 42.888888888899, 6, 39.583333333276
771, 42.888888888899, 6, 41.666666666621
772, 42.888888888899, 6, 43.749999999966
773, 42.888888888899, 6, 45.833333333311
774, 42.888888888899, 6, 47.916666666655
775, 46.444444444449, 6, 2.083333333325
776, 46.444444444449, 6, 4.1666666666503
777, 46.444444444449, 6, 6.2499999999763
778, 46.444444444449, 6, 8.333333333299
779, 46.444444444449, 6, 10.416666666622
780, 46.444444444449, 6, 12.499999999944
781, 46.444444444449, 6, 14.583333333267
782, 46.444444444449, 6, 16.666666666592
783, 46.444444444449, 6, 18.749999999922
784, 46.444444444449, 6, 20.833333333252
785, 46.444444444449, 6, 22.916666666582
786, 46.444444444449, 6, 24.999999999912
787, 46.444444444449, 6, 27.083333333242
788, 46.444444444449, 6, 29.166666666572
789, 46.444444444449, 6, 31.249999999902
790, 46.444444444449, 6, 33.333333333242
791, 46.444444444449, 6, 35.416666666587
792, 46.444444444449, 6, 37.499999999932
793, 46.444444444449, 6, 39.583333333276
794, 46.444444444449, 6, 41.666666666621
795, 46.444444444449, 6, 43.749999999966
796, 46.444444444449, 6, 45.833333333311
797, 46.444444444449, 6, 47.916666666655
798, 50, 0.99999999999594, 2.083333333325
799, 50, 0.99999999999624, 4.1666666666503
800, 50, 0.99999999999654, 6.2499999999763
801, 50, 0.99999999999684, 8.333333333299
802, 50, 0.99999999999714, 10.416666666622
803, 50, 0.99999999999744, 12.499999999944
804, 50, 0.99999999999773, 14.583333333267
805, 50, 0.99999999999803, 16.666666666592
806, 50, 0.99999999999833, 18.749999999922
807, 50, 0.99999999999863, 20.833333333252
808, 50, 0.99999999999893, 22.916666666582
809, 50, 0.99999999999923, 24.999999999912
810, 50, 0.99999999999952, 27.083333333242
811, 50, 0.99999999999982, 29.166666666572
812, 50, 1.0000000000001, 31.249999999902
813, 50, 1.0000000000004, 33.333333333242
814, 50, 1.0000000000007, 35.416666666587
815, 50, 1.000000000001, 37.499999999932
816, 50, 1.0000000000013, 39.583333333276
817, 50, 1.0000000000016, 41.666666666621
818, 50, 1.0000000000019, 43.749999999966
819, 50, 1.0000000000022, 45.833333333311
820, 50, 1.0000000000025, 47.916666666655
821, 50, 1.9999999999926, 2.083333333325
822, 50, 1.9999999999932, 4.1666666666503
823, 50, 1.9999999999937, 6.2499999999763
824, 50, 1.9999999999943, 8.333333333299
825, 50, 1.9999999999949, 10.416666666622
826, 50, 1.9999999999954, 12.499999999944
827, 50, 1.999999999996, 14.583333333267
828, 50, 1.9999999999966, 16.666666666592
829, 50, 1.9999999999971, 18.749999999922
830, 50, 1.9999999999977, 20.833333333252
831, 50, 1.9999999999983, 22.916666666582
832, 50, 1.9999999999988, 24.999999999912
833, 50, 1.9999999999994, 27.083333333242
834, 50, 2, 29.166666666572
835, 50, 2.0000000000005, 31.249999999902
836, 50, 2.0000000000011, 33.333333333242
837, 50, 2.0000000000017, 35.416666666587
838, 50, 2.0000000000022, 37.499999999932
839, 50, 2.0000000000028, 39.583333333276
840, 50, 2.0000000000033, 41.666666666621
841, 50, 2.0000000000039, 43.749999999966
842, 50, 2.0000000000045, 45.833333333311
843, 50, 2.000000000005, 47.916666666655
844, 50, 2.9999999999894, 2.083333333325
845, 50, 2.9999999999902, 4.1666666666503
846, 50, 2.999999999991, 6.2499999999763
847, 50, 2.9999999999919, 8.333333333299
848, 50, 2.9999999999927, 10.416666666622
849, 50, 2.9999999999935, 12.499999999944
850, 50, 2.9999999999943, 14.583333333267
851, 50, 2.9999999999952, 16.666666666592
852, 50, 2.999999999996, 18.749999999922
853, 50, 2.9999999999968, 20.833333333252
854, 50, 2.9999999999976, 22.916666666582
855, 50, 2.9999999999984, 24.999999999912
856, 50, 2.9999999999993, 27.083333333242
857, 50, 3.0000000000001, 29.166666666572
858, 50, 3.0000000000009, 31.249999999902
859, 50, 3.0000000000017, 33.333333333242
860, 50, 3.0000000000026, 35.416666666587
861, 50, 3.0000000000034, 37.499999999932
862, 50, 3.0000000000042, 39.583333333276
863, 50, 3.000000000005, 41.666666666621
864, 50, 3.0000000000059, 43.749999999966
865, 50, 3.0000000000067, 45.833333333311
866, 50, 3.0000000000075, 47.916666666655
867, 50, 3.9999999999928, 2.083333333325
868, 50, 3.9999999999933, 4.1666666666503
869, 50, 3.9999999999938, 6.2499999999763
870, 50, 3.9999999999942, 8.333333333299
871, 50, 3.9999999999947, 10.416666666622
872, 50, 3.9999999999952, 12.499999999944
873, 50, 3.9999999999957, 14.583333333267
874, 50, 3.9999999999962, 16.666666666592
875, 50, 3.9999999999967, 18.749999999922
876, 50, 3.9999999999971, 20.833333333252
877, 50, 3.9999999999976, 22.916666666582
878, 50, 3.9999999999981, 24.999999999912
879, 50, 3.9999999999986, 27.083333333242
880, 50, 3.9999999999991, 29.166666666572
881, 50, 3.9999999999995, 31.249999999902
882, 50, 4, 33.333333333242
883, 50, 4.0000000000005, 35.416666666587
884, 50, 4.000000000001, 37.499999999932
885, 50, 4.0000000000015, 39.583333333276
886, 50, 4.0000000000019, 41.666666666621
887, 50, 4.0000000000024, 43.749999999966
888, 50, 4.0000000000029, 45.833333333311
889, 50, 4.0000000000034, 47.916666666655
890, 50, 4.9999999999966, 2.083333333325
891, 50, 4.999999999997, 4.1666666666503
892, 50, 4.9999999999974, 6.2499999999763
893, 50, 4.9999999999979, 8.333333333299
894, 50, 4.9999999999983, 10.416666666622
895, 50, 4.9999999999987, 12.499999999944
896, 50, 4.9999999999991, 14.583333333267
897, 50, 4.9999999999996, 16.666666666592
898, 50, 5, 18.749999999922
899, 50, 5.0000000000004, 20.833333333252
900, 50, 5.0000000000008, 22.916666666582
901, 50, 5.0000000000012, 24.999999999912
902, 50, 5.0000000000017, 27.083333333242
903, 50, 5.0000000000021, 29.166666666572
904, 50, 5.0000000000025, 31.249999999902
905, 50, 5.0000000000029, 33.333333333242
906, 50, 5.0000000000034, 35.416666666587
907, 50, 5.0000000000038, 37.499999999932
908, 50, 5.0000000000042, 39.583333333276
909, 50, 5.0000000000046, 41.666666666621
910, 50, 5.0000000000051, 43.749999999966
911, 50, 5.0000000000055, 45.833333333311
912, 50, 5.0000000000059, 47.916666666655
913, 21.55555555559, 0, 2.083333333325
914, 21.555555555589, 0, 4.1666666666503
915, 21.555555555589, 0, 6.2499999999763
916, 21.555555555588, 0, 8.333333333299
917, 21.555555555588, 0, 10.416666666622
918, 21.555555555587, 0, 12.499999999944
919, 21.555555555587, 0, 14.583333333267
920, 21.555555555586, 0, 16.666666666592
921, 21.555555555585, 0, 18.749999999922
922, 21.555555555585, 0, 20.833333333252
923, 21.555555555584, 0, 22.916666666582
924, 21.555555555584, 0, 24.999999999912
925, 21.555555555583, 0, 27.083333333242
926, 21.555555555583, 0, 29.166666666572
927, 21.555555555582, 0, 31.249999999902
928, 21.555555555582, 0, 33.333333333242
929, 21.555555555581, 0, 35.416666666587
930, 21.555555555581, 0, 37.499999999932
931, 21.55555555558, 0, 39.583333333276
932, 21.55555555558, 0, 41.666666666621
933, 21.555555555579, 0, 43.749999999966
934, 21.555555555579, 0, 45.833333333311
935, 21.555555555578, 0, 47.916666666655
936, 25.111111111146, 0, 2.083333333325
937, 25.111111111146, 0, 4.1666666666503
938, 25.111111111147, 0, 6.2499999999763
939, 25.111111111147, 0, 8.333333333299
940, 25.111111111148, 0, 10.416666666622
941, 25.111111111148, 0, 12.499999999944
942, 25.111111111149, 0, 14.583333333267
943, 25.111111111149, 0, 16.666666666592
944, 25.111111111149, 0, 18.749999999922
945, 25.11111111115, 0, 20.833333333252
946, 25.11111111115, 0, 22.916666666582
947, 25.111111111151, 0, 24.999999999912
948, 25.111111111151, 0, 27.083333333242
949, 25.111111111151, 0, 29.166666666572
950, 25.111111111152, 0, 31.249999999902
951, 25.111111111152, 0, 33.333333333242
952, 25.111111111153, 0, 35.416666666587
953, 25.111111111153, 0, 37.499999999932
954, 25.111111111153, 0, 39.583333333276
955, 25.111111111154, 0, 41.666666666621
956, 25.111111111154, 0, 43.749999999966
957, 25.111111111155, 0, 45.833333333311
958, 25.111111111155, 0, 47.916666666655
959, 28.666666666698, 0, 2.083333333325
960, 28.666666666699, 0, 4.1666666666503
961, 28.666666666701, 0, 6.2499999999763
962, 28.666666666702, 0, 8.333333333299
963, 28.666666666704, 0, 10.416666666622
964, 28.666666666706, 0, 12.499999999944
965, 28.666666666707, 0, 14.583333333267
966, 28.666666666709, 0, 16.666666666592
967, 28.66666666671, 0, 18.749999999922
968, 28.666666666712, 0, 20.833333333252
969, 28.666666666713, 0, 22.916666666582
970, 28.666666666715, 0, 24.999999999912
971, 28.666666666716, 0, 27.083333333242
972, 28.666666666718, 0, 29.166666666572
973, 28.666666666719, 0, 31.249999999902
974, 28.666666666721, 0, 33.333333333242
975, 28.666666666723, 0, 35.416666666587
976, 28.666666666724, 0, 37.499999999932
977, 28.666666666726, 0, 39.583333333276
978, 28.666666666727, 0, 41.666666666621
979, 28.666666666729, 0, 43.749999999966
980, 28.66666666673, 0, 45.833333333311
981, 28.666666666732, 0, 47.916666666655
982, 32.222222222249, 0, 2.083333333325
983, 32.222222222252, 0, 4.1666666666503
984, 32.222222222255, 0, 6.2499999999763
985, 32.222222222257, 0, 8.333333333299
986, 32.22222222226, 0, 10.416666666622
987, 32.222222222262, 0, 12.499999999944
988, 32.222222222265, 0, 14.583333333267
989, 32.222222222267, 0, 16.666666666592
990, 32.22222222227, 0, 18.749999999922
991, 32.222222222273, 0, 20.833333333252
992, 32.222222222275, 0, 22.916666666582
993, 32.222222222278, 0, 24.999999999912
994, 32.22222222228, 0, 27.083333333242
995, 32.222222222283, 0, 29.166666666572
996, 32.222222222285, 0, 31.249999999902
997, 32.222222222288, 0, 33.333333333242
998, 32.222222222291, 0, 35.416666666587
999, 32.222222222293, 0, 37.499999999932
1000, 32.222222222296, 0, 39.583333333276
1001, 32.222222222298, 0, 41.666666666621
1002, 32.222222222301, 0, 43.749999999966
1003, 32.222222222303, 0, 45.833333333311
1004, 32.222222222306, 0, 47.916666666655
1005, 35.7777777778, 0, 2.083333333325
1006, 35.777777777802, 0, 4.1666666666503
1007, 35.777777777804, 0, 6.2499999999763
1008, 35.777777777806, 0, 8.333333333299
1009, 35.777777777808, 0, 10.416666666622
1010, 35.77777777781, 0, 12.499999999944
1011, 35.777777777812, 0, 14.583333333267
1012, 35.777777777814, 0, 16.666666666592
1013, 35.777777777816, 0, 18.749999999922
1014, 35.777777777818, 0, 20.833333333252
1015, 35.77777777782, 0, 22.916666666582
1016, 35.777777777822, 0, 24.999999999912
1017, 35.777777777824, 0, 27.083333333242
1018, 35.777777777826, 0, 29.166666666572
1019, 35.777777777828, 0, 31.249999999902
1020, 35.77777777783, 0, 33.333333333242
1021, 35.777777777832, 0, 35.416666666587
1022, 35.777777777835, 0, 37.499999999932
1023, 35.777777777837, 0, 39.583333333276
1024, 35.777777777839, 0, 41.666666666621
1025, 35.777777777841, 0, 43.749999999966
1026, 35.777777777843, 0, 45.833333333311
1027, 35.777777777845, 0, 47.916666666655
1028, 39.33333333335, 0, 2.083333333325
1029, 39.333333333351, 0, 4.1666666666503
1030, 39.333333333353, 0, 6.2499999999763
1031, 39.333333333354, 0, 8.333333333299
1032, 39.333333333356, 0, 10.416666666622
1033, 39.333333333357, 0, 12.499999999944
1034, 39.333333333359, 0, 14.583333333267
1035, 39.33333333336, 0, 16.666666666592
1036, 39.333333333362, 0, 18.749999999922
1037, 39.333333333364, 0, 20.833333333252
1038, 39.333333333365, 0, 22.916666666582
1039, 39.333333333367, 0, 24.999999999912
1040, 39.333333333368, 0, 27.083333333242
1041, 39.33333333337, 0, 29.166666666572
1042, 39.333333333371, 0, 31.249999999902
1043, 39.333333333373, 0, 33.333333333242
1044, 39.333333333374, 0, 35.416666666587
1045, 39.333333333376, 0, 37.499999999932
1046, 39.333333333377, 0, 39.583333333276
1047, 39.333333333379, 0, 41.666666666621
1048, 39.333333333381, 0, 43.749999999966
1049, 39.333333333382, 0, 45.833333333311
1050, 39.333333333384, 0, 47.916666666655
1051, 42.8888888889, 0, 2.083333333325
1052, 42.888888888901, 0, 4.1666666666503
1053, 42.888888888902, 0, 6.2499999999763
1054, 42.888888888903, 0, 8.333333333299
1055, 42.888888888904, 0, 10.416666666622
1056, 42.888888888905, 0, 12.499999999944
1057, 42.888888888906, 0, 14.583333333267
1058, 42.888888888907, 0, 16.666666666592
1059, 42.888888888908, 0, 18.749999999922
1060, 42.888888888909, 0, 20.833333333252
1061, 42.88888888891, 0, 22.916666666582
1062, 42.888888888911, 0, 24.999999999912
1063, 42.888888888912, 0, 27.083333333242
1064, 42.888888888913, 0, 29.166666666572
1065, 42.888888888914, 0, 31.249999999902
1066, 42.888888888915, 0, 33.333333333242
1067, 42.888888888916, 0, 35.416666666587
1068, 42.888888888917, 0, 37.499999999932
1069, 42.888888888918, 0, 39.583333333276
1070, 42.888888888919, 0, 41.666666666621
1071, 42.88888888892, 0, 43.749999999966
1072, 42.888888888921, 0, 45.833333333311
1073, 42.888888888922, 0, 47.916666666655
1074, 46.44444444445, 0, 2.083333333325
1075, 46.44444444445, 0, 4.1666666666503
1076, 46.444444444451, 0, 6.2499999999763
1077, 46.444444444451, 0, 8.333333333299
1078, 46.444444444452, 0, 10.416666666622
1079, 46.444444444452, 0, 12.499999999944
1080, 46.444444444453, 0, 14.583333333267
1081, 46.444444444454, 0, 16.666666666592
1082, 46.444444444454, 0, 18.749999999922
1083, 46.444444444455, 0, 20.833333333252
1084, 46.444444444455, 0, 22.916666666582
1085, 46.444444444456, 0, 24.999999999912
1086, 46.444444444456, 0, 27.083333333242
1087, 46.444444444457, 0, 29.166666666572
1088, 46.444444444457, 0, 31.249999999902
1089, 46.444444444458, 0, 33.333333333242
1090, 46.444444444458, 0, 35.416666666587
1091, 46.444444444459, 0, 37.499999999932
1092, 46.444444444459, 0, 39.583333333276
1093, 46.44444444446, 0, 41.666666666621
1094, 46.44444444446, 0, 43.749999999966
1095, 46.444444444461, 0, 45.833333333311
1096, 46.444444444461, 0, 47.916666666655
1097, 21.55555555558, 0.99999999999644, 50
1098, 25.111111111154, 0.99999999999724, 50
1099, 28.666666666727, 0.99999999999803, 50
1100, 32.222222222298, 0.99999999999883, 50
1101, 35.777777777839, 0.99999999999962, 50
1102, 39.333333333379, 1.0000000000004, 50
1103, 42.888888888919, 1.0000000000012, 50
1104, 46.44444444446, 1.000000000002, 50
1105, 21.555555555582, 1.9999999999936, 50
1106, 25.111111111152, 1.9999999999951, 50
1107, 28.666666666721, 1.9999999999966, 50
1108, 32.222222222288, 1.9999999999981, 50
1109, 35.77777777783, 1.9999999999996, 50
1110, 39.333333333373, 2.0000000000011, 50
1111, 42.888888888915, 2.0000000000026, 50
1112, 46.444444444458, 2.0000000000041, 50
1113, 21.555555555584, 2.9999999999908, 50
1114, 25.111111111151, 2.999999999993, 50
1115, 28.666666666715, 2.9999999999952, 50
1116, 32.222222222278, 2.9999999999974, 50
1117, 35.777777777822, 2.9999999999995, 50
1118, 39.333333333367, 3.0000000000017, 50
1119, 42.888888888911, 3.0000000000039, 50
1120, 46.444444444456, 3.0000000000061, 50
1121, 21.555555555586, 3.9999999999936, 50
1122, 25.111111111149, 3.9999999999949, 50
1123, 28.666666666709, 3.9999999999962, 50
1124, 32.222222222267, 3.9999999999975, 50
1125, 35.777777777814, 3.9999999999987, 50
1126, 39.33333333336, 4, 50
1127, 42.888888888907, 4.0000000000013, 50
1128, 46.444444444454, 4.0000000000026, 50
1129, 21.555555555588, 4.9999999999973, 50
1130, 25.111111111147, 4.9999999999984, 50
1131, 28.666666666702, 4.9999999999995, 50
1132, 32.222222222257, 5.0000000000007, 50
1133, 35.777777777806, 5.0000000000018, 50
1134, 39.333333333354, 5.0000000000029, 50
1135, 42.888888888903, 5.0000000000041, 50
1136, 46.444444444451, 5.0000000000052, 50
1137, 13.199999999988, 6, 2.083333333325
1138, 13.199999999988, 6, 4.1666666666503
1139, 13.199999999988, 6, 6.2499999999763
1140, 13.199999999988, 6, 8.333333333299
1141, 13.199999999988, 6, 10.416666666622
1142, 13.199999999988, 6, 12.499999999944
1143, 13.199999999988, 6, 14.583333333267
1144, 13.199999999988, 6, 16.666666666592
1145, 13.199999999988, 6, 18.749999999922
1146, 13.199999999988, 6, 20.833333333252
1147, 13.199999999988, 6, 22.916666666582
1148, 13.199999999988, 6, 24.999999999912
1149, 13.199999999988, 6, 27.083333333242
1150, 13.199999999988, 6, 29.166666666572
1151, 13.199999999988, 6, 31.249999999902
1152, 13.199999999988, 6, 33.333333333242
1153, 13.199999999988, 6, 35.416666666587
1154, 13.199999999988, 6, 37.499999999932
1155, 13.199999999988, 6, 39.583333333276
1156, 13.199999999988, 6, 41.666666666621
1157, 13.199999999988, 6, 43.749999999966
1158, 13.199999999988, 6, 45.833333333311
1159, 13.199999999988, 6, 47.916666666655
1160, 14.399999999976, 6, 2.083333333325
1161, 14.399999999976, 6, 4.1666666666503
1162, 14.399999999976, 6, 6.2499999999763
1163, 14.399999999976, 6, 8.333333333299
1164, 14.399999999976, 6, 10.416666666622
1165, 14.399999999976, 6, 12.499999999944
1166, 14.399999999976, 6, 14.583333333267
1167, 14.399999999976, 6, 16.666666666592
1168, 14.399999999976, 6, 18.749999999922
1169, 14.399999999976, 6, 20.833333333252
1170, 14.399999999976, 6, 22.916666666582
1171, 14.399999999976, 6, 24.999999999912
1172, 14.399999999976, 6, 27.083333333242
1173, 14.399999999976, 6, 29.166666666572
1174, 14.399999999976, 6, 31.249999999902
1175, 14.399999999976, 6, 33.333333333242
1176, 14.399999999976, 6, 35.416666666587
1177, 14.399999999976, 6, 37.499999999932
1178, 14.399999999976, 6, 39.583333333276
1179, 14.399999999976, 6, 41.666666666621
1180, 14.399999999976, 6, 43.749999999966
1181, 14.399999999976, 6, 45.833333333311
1182, 14.399999999976, 6, 47.916666666655
1183, 15.599999999965, 6, 2.083333333325
1184, 15.599999999965, 6, 4.1666666666503
1185, 15.599999999965, 6, 6.2499999999763
1186, 15.599999999965, 6, 8.333333333299
1187, 15.599999999965, 6, 10.416666666622
1188, 15.599999999965, 6, 12.499999999944
1189, 15.599999999965, 6, 14.583333333267
1190, 15.599999999965, 6, 16.666666666592
1191, 15.599999999965, 6, 18.749999999922
1192, 15.599999999965, 6, 20.833333333252
1193, 15.599999999965, 6, 22.916666666582
1194, 15.599999999965, 6, 24.999999999912
1195, 15.599999999965, 6, 27.083333333242
1196, 15.599999999965, 6, 29.166666666572
1197, 15.599999999965, 6, 31.249999999902
1198, 15.599999999965, 6, 33.333333333242
1199, 15.599999999965, 6, 35.416666666587
1200, 15.599999999965, 6, 37.499999999932
1201, 15.599999999965, 6, 39.583333333276
1202, 15.599999999965, 6, 41.666666666621
1203, 15.599999999965, 6, 43.749999999966
1204, 15.599999999965, 6, 45.833333333311
1205, 15.599999999965, 6, 47.916666666655
1206, 16.799999999976, 6, 2.083333333325
1207, 16.799999999976, 6, 4.1666666666503
1208, 16.799999999976, 6, 6.2499999999763
1209, 16.799999999976, 6, 8.333333333299
1210, 16.799999999976, 6, 10.416666666622
1211, 16.799999999976, 6, 12.499999999944
1212, 16.799999999976, 6, 14.583333333267
1213, 16.799999999976, 6, 16.666666666592
1214, 16.799999999976, 6, 18.749999999922
1215, 16.799999999976, 6, 20.833333333252
1216, 16.799999999976, 6, 22.916666666582
1217, 16.799999999976, 6, 24.999999999912
1218, 16.799999999976, 6, 27.083333333242
1219, 16.799999999976, 6, 29.166666666572
1220, 16.799999999976, 6, 31.249999999902
1221, 16.799999999976, 6, 33.333333333242
1222, 16.799999999976, 6, 35.416666666587
1223, 16.799999999976, 6, 37.499999999932
1224, 16.799999999976, 6, 39.583333333276
1225, 16.799999999976, 6, 41.666666666621
1226, 16.799999999976, 6, 43.749999999966
1227, 16.799999999976, 6, 45.833333333311
1228, 16.799999999976, 6, 47.916666666655
1229, 13.199999999989, 0, 2.083333333325
1230, 13.19999999999, 0, 4.1666666666503
1231, 13.199999999991, 0, 6.2499999999763
1232, 13.199999999992, 0, 8.333333333299
1233, 13.199999999993, 0, 10.416666666622
1234, 13.199999999994, 0, 12.499999999944
1235, 13.199999999995, 0, 14.583333333267
1236, 13.199999999996, 0, 16.666666666592
1237, 13.199999999997, 0, 18.749999999922
1238, 13.199999999998, 0, 20.833333333252
1239, 13.199999999999, 0, 22.916666666582
1240, 13.2, 0, 24.999999999912
1241, 13.200000000001, 0, 27.083333333242
1242, 13.200000000002, 0, 29.166666666572
1243, 13.200000000003, 0, 31.249999999902
1244, 13.200000000004, 0, 33.333333333242
1245, 13.200000000005, 0, 35.416666666587
1246, 13.200000000006, 0, 37.499999999932
1247, 13.200000000007, 0, 39.583333333276
1248, 13.200000000008, 0, 41.666666666621
1249, 13.200000000009, 0, 43.749999999966
1250, 13.20000000001, 0, 45.833333333311
1251, 13.200000000011, 0, 47.916666666655
1252, 14.399999999978, 0, 2.083333333325
1253, 14.39999999998, 0, 4.1666666666503
1254, 14.399999999982, 0, 6.2499999999763
1255, 14.399999999984, 0, 8.333333333299
1256, 14.399999999986, 0, 10.416666666622
1257, 14.399999999988, 0, 12.499999999944
1258, 14.39999999999, 0, 14.583333333267
1259, 14.399999999992, 0, 16.666666666592
1260, 14.399999999994, 0, 18.749999999922
1261, 14.399999999996, 0, 20.833333333252
1262, 14.399999999998, 0, 22.916666666582
1263, 14.4, 0, 24.999999999912
1264, 14.400000000002, 0, 27.083333333242
1265, 14.400000000004, 0, 29.166666666572
1266, 14.400000000006, 0, 31.249999999902
1267, 14.400000000008, 0, 33.333333333242
1268, 14.40000000001, 0, 35.416666666587
1269, 14.400000000012, 0, 37.499999999932
1270, 14.400000000014, 0, 39.583333333276
1271, 14.400000000016, 0, 41.666666666621
1272, 14.400000000018, 0, 43.749999999966
1273, 14.40000000002, 0, 45.833333333311
1274, 14.400000000022, 0, 47.916666666655
1275, 15.599999999968, 0, 2.083333333325
1276, 15.599999999971, 0, 4.1666666666503
1277, 15.599999999973, 0, 6.2499999999763
1278, 15.599999999976, 0, 8.333333333299
1279, 15.599999999979, 0, 10.416666666622
1280, 15.599999999982, 0, 12.499999999944
1281, 15.599999999985, 0, 14.583333333267
1282, 15.599999999988, 0, 16.666666666592
1283, 15.599999999991, 0, 18.749999999922
1284, 15.599999999994, 0, 20.833333333252
1285, 15.599999999997, 0, 22.916666666582
1286, 15.6, 0, 24.999999999912
1287, 15.600000000003, 0, 27.083333333242
1288, 15.600000000006, 0, 29.166666666572
1289, 15.600000000009, 0, 31.249999999902
1290, 15.600000000012, 0, 33.333333333242
1291, 15.600000000015, 0, 35.416666666587
1292, 15.600000000018, 0, 37.499999999932
1293, 15.600000000021, 0, 39.583333333276
1294, 15.600000000024, 0, 41.666666666621
1295, 15.600000000027, 0, 43.749999999966
1296, 15.600000000029, 0, 45.833333333311
1297, 15.600000000032, 0, 47.916666666655
1298, 16.799999999978, 0, 2.083333333325
1299, 16.79999999998, 0, 4.1666666666503
1300, 16.799999999982, 0, 6.2499999999763
1301, 16.799999999984, 0, 8.333333333299
1302, 16.799999999986, 0, 10.416666666622
1303, 16.799999999988, 0, 12.499999999944
1304, 16.79999999999, 0, 14.583333333267
1305, 16.799999999992, 0, 16.666666666592
1306, 16.799999999994, 0, 18.749999999922
1307, 16.799999999996, 0, 20.833333333252
1308, 16.799999999998, 0, 22.916666666582
1309, 16.8, 0, 24.999999999912
1310, 16.800000000002, 0, 27.083333333242
1311, 16.800000000004, 0, 29.166666666572
1312, 16.800000000006, 0, 31.249999999902
1313, 16.800000000008, 0, 33.333333333242
1314, 16.80000000001, 0, 35.416666666587
1315, 16.800000000012, 0, 37.499999999932
1316, 16.800000000014, 0, 39.583333333276
1317, 16.800000000016, 0, 41.666666666621
1318, 16.800000000018, 0, 43.749999999966
1319, 16.80000000002, 0, 45.833333333311
1320, 16.800000000022, 0, 47.916666666655
1321, 12, 0.99999999999565, 2.083333333325
1322, 12, 0.99999999999565, 4.1666666666503
1323, 12, 0.99999999999564, 6.2499999999763
1324, 12, 0.99999999999565, 8.333333333299
1325, 12, 0.99999999999564, 10.416666666622
1326, 12, 0.99999999999565, 12.499999999944
1327, 12, 0.99999999999565, 14.583333333267
1328, 12, 0.99999999999565, 16.666666666592
1329, 12, 0.99999999999565, 18.749999999922
1330, 12, 0.99999999999565, 20.833333333252
1331, 12, 0.99999999999565, 22.916666666582
1332, 12, 0.99999999999565, 24.999999999912
1333, 12, 0.99999999999565, 27.083333333242
1334, 12, 0.99999999999565, 29.166666666572
1335, 12, 0.99999999999565, 31.249999999902
1336, 12, 0.99999999999565, 33.333333333242
1337, 12, 0.99999999999565, 35.416666666587
1338, 12, 0.99999999999565, 37.499999999932
1339, 12, 0.99999999999565, 39.583333333276
1340, 12, 0.99999999999565, 41.666666666621
1341, 12, 0.99999999999565, 43.749999999966
1342, 12, 0.99999999999564, 45.833333333311
1343, 12, 0.99999999999565, 47.916666666655
1344, 12, 1.9999999999921, 2.083333333325
1345, 12, 1.9999999999921, 4.1666666666503
1346, 12, 1.9999999999921, 6.2499999999763
1347, 12, 1.9999999999921, 8.333333333299
1348, 12, 1.999999999992, 10.416666666622
1349, 12, 1.9999999999921, 12.499999999944
1350, 12, 1.999999999992, 14.583333333267
1351, 12, 1.9999999999921, 16.666666666592
1352, 12, 1.999999999992, 18.749999999922
1353, 12, 1.999999999992, 20.833333333252
1354, 12, 1.999999999992, 22.916666666582
1355, 12, 1.9999999999921, 24.999999999912
1356, 12, 1.9999999999921, 27.083333333242
1357, 12, 1.999999999992, 29.166666666572
1358, 12, 1.9999999999921, 31.249999999902
1359, 12, 1.9999999999921, 33.333333333242
1360, 12, 1.9999999999921, 35.416666666587
1361, 12, 1.999999999992, 37.499999999932
1362, 12, 1.999999999992, 39.583333333276
1363, 12, 1.999999999992, 41.666666666621
1364, 12, 1.999999999992, 43.749999999966
1365, 12, 1.999999999992, 45.833333333311
1366, 12, 1.999999999992, 47.916666666655
1367, 12, 2.9999999999886, 2.083333333325
1368, 12, 2.9999999999886, 4.1666666666503
1369, 12, 2.9999999999886, 6.2499999999763
1370, 12, 2.9999999999886, 8.333333333299
1371, 12, 2.9999999999886, 10.416666666622
1372, 12, 2.9999999999886, 12.499999999944
1373, 12, 2.9999999999886, 14.583333333267
1374, 12, 2.9999999999886, 16.666666666592
1375, 12, 2.9999999999886, 18.749999999922
1376, 12, 2.9999999999886, 20.833333333252
1377, 12, 2.9999999999886, 22.916666666582
1378, 12, 2.9999999999886, 24.999999999912
1379, 12, 2.9999999999886, 27.083333333242
1380, 12, 2.9999999999886, 29.166666666572
1381, 12, 2.9999999999886, 31.249999999902
1382, 12, 2.9999999999886, 33.333333333242
1383, 12, 2.9999999999886, 35.416666666587
1384, 12, 2.9999999999886, 37.499999999932
1385, 12, 2.9999999999886, 39.583333333276
1386, 12, 2.9999999999886, 41.666666666621
1387, 12, 2.9999999999886, 43.749999999966
1388, 12, 2.9999999999886, 45.833333333311
1389, 12, 2.9999999999886, 47.916666666655
1390, 12, 3.9999999999923, 2.083333333325
1391, 12, 3.9999999999923, 4.1666666666503
1392, 12, 3.9999999999923, 6.2499999999763
1393, 12, 3.9999999999923, 8.333333333299
1394, 12, 3.9999999999923, 10.416666666622
1395, 12, 3.9999999999923, 12.499999999944
1396, 12, 3.9999999999923, 14.583333333267
1397, 12, 3.9999999999923, 16.666666666592
1398, 12, 3.9999999999923, 18.749999999922
1399, 12, 3.9999999999923, 20.833333333252
1400, 12, 3.9999999999923, 22.916666666582
1401, 12, 3.9999999999923, 24.999999999912
1402, 12, 3.9999999999923, 27.083333333242
1403, 12, 3.9999999999923, 29.166666666572
1404, 12, 3.9999999999923, 31.249999999902
1405, 12, 3.9999999999923, 33.333333333242
1406, 12, 3.9999999999923, 35.416666666587
1407, 12, 3.9999999999923, 37.499999999932
1408, 12, 3.9999999999923, 39.583333333276
1409, 12, 3.9999999999923, 41.666666666621
1410, 12, 3.9999999999923, 43.749999999966
1411, 12, 3.9999999999923, 45.833333333311
1412, 12, 3.9999999999923, 47.916666666655
1413, 12, 4.9999999999962, 2.083333333325
1414, 12, 4.9999999999962, 4.1666666666503
1415, 12, 4.9999999999962, 6.2499999999763
1416, 12, 4.9999999999962, 8.333333333299
1417, 12, 4.9999999999962, 10.416666666622
1418, 12, 4.9999999999962, 12.499999999944
1419, 12, 4.9999999999962, 14.583333333267
1420, 12, 4.9999999999962, 16.666666666592
1421, 12, 4.9999999999962, 18.749999999922
1422, 12, 4.9999999999962, 20.833333333252
1423, 12, 4.9999999999962, 22.916666666582
1424, 12, 4.9999999999962, 24.999999999912
1425, 12, 4.9999999999962, 27.083333333242
1426, 12, 4.9999999999962, 29.166666666572
1427, 12, 4.9999999999962, 31.249999999902
1428, 12, 4.9999999999962, 33.333333333242
1429, 12, 4.9999999999962, 35.416666666587
1430, 12, 4.9999999999962, 37.499999999932
1431, 12, 4.9999999999962, 39.583333333276
1432, 12, 4.9999999999962, 41.666666666621
1433, 12, 4.9999999999962, 43.749999999966
1434, 12, 4.9999999999962, 45.833333333311
1435, 12, 4.9999999999962, 47.916666666655
1436, 13.199999999992, 4.9999999999962, 50
1437, 13.199999999996, 3.9999999999923, 50
1438, 13.2, 2.9999999999886, 50
1439, 13.200000000004, 1.9999999999921, 50
1440, 13.200000000008, 0.99999999999564, 50
1441, 14.399999999984, 4.9999999999962, 50
1442, 14.399999999992, 3.9999999999923, 50
1443, 14.4, 2.9999999999886, 50
1444, 14.400000000008, 1.999999999992, 50
1445, 14.400000000016, 0.99999999999564, 50
1446, 15.599999999976, 4.9999999999962, 50
1447, 15.599999999988, 3.9999999999923, 50
1448, 15.6, 2.9999999999886, 50
1449, 15.600000000012, 1.9999999999921, 50
1450, 15.600000000024, 0.99999999999564, 50
1451, 16.799999999984, 4.9999999999962, 50
1452, 16.799999999992, 3.9999999999923, 50
1453, 16.8, 2.9999999999886, 50
1454, 16.800000000008, 1.9999999999921, 50
1455, 16.800000000016, 0.99999999999564, 50
1456, 6.9999999999924, 6, 2.083333333325
1457, 6.9999999999924, 6, 4.1666666666503
1458, 6.9999999999924, 6, 6.2499999999763
1459, 6.9999999999924, 6, 8.333333333299
1460, 6.9999999999924, 6, 10.416666666622
1461, 6.9999999999924, 6, 12.499999999944
1462, 6.9999999999924, 6, 14.583333333267
1463, 6.9999999999924, 6, 16.666666666592
1464, 6.9999999999924, 6, 18.749999999922
1465, 6.9999999999924, 6, 20.833333333252
1466, 6.9999999999924, 6, 22.916666666582
1467, 6.9999999999924, 6, 24.999999999912
1468, 6.9999999999924, 6, 27.083333333242
1469, 6.9999999999924, 6, 29.166666666572
1470, 6.9999999999924, 6, 31.249999999902
1471, 6.9999999999924, 6, 33.333333333242
1472, 6.9999999999924, 6, 35.416666666587
1473, 6.9999999999924, 6, 37.499999999932
1474, 6.9999999999924, 6, 39.583333333276
1475, 6.9999999999924, 6, 41.666666666621
1476, 6.9999999999924, 6, 43.749999999966
1477, 6.9999999999924, 6, 45.833333333311
1478, 6.9999999999924, 6, 47.916666666655
1479, 7.9999999999938, 6, 2.083333333325
1480, 7.9999999999938, 6, 4.1666666666503
1481, 7.9999999999938, 6, 6.2499999999763
1482, 7.9999999999938, 6, 8.333333333299
1483, 7.9999999999938, 6, 10.416666666622
1484, 7.9999999999938, 6, 12.499999999944
1485, 7.9999999999938, 6, 14.583333333267
1486, 7.9999999999938, 6, 16.666666666592
1487, 7.9999999999938, 6, 18.749999999922
1488, 7.9999999999938, 6, 20.833333333252
1489, 7.9999999999938, 6, 22.916666666582
1490, 7.9999999999938, 6, 24.999999999912
1491, 7.9999999999938, 6, 27.083333333242
1492, 7.9999999999938, 6, 29.166666666572
1493, 7.9999999999938, 6, 31.249999999902
1494, 7.9999999999938, 6, 33.333333333242
1495, 7.9999999999938, 6, 35.416666666587
1496, 7.9999999999938, 6, 37.499999999932
1497, 7.9999999999938, 6, 39.583333333276
1498, 7.9999999999938, 6, 41.666666666621
1499, 7.9999999999938, 6, 43.749999999966
1500, 7.9999999999938, 6, 45.833333333311
1501, 7.9999999999938, 6, 47.916666666655
1502, 8.9999999999953, 6, 2.083333333325
1503, 8.9999999999953, 6, 4.1666666666503
1504, 8.9999999999953, 6, 6.2499999999763
1505, 8.9999999999953, 6, 8.333333333299
1506, 8.9999999999953, 6, 10.416666666622
1507, 8.9999999999953, 6, 12.499999999944
1508, 8.9999999999953, 6, 14.583333333267
1509, 8.9999999999953, 6, 16.666666666592
1510, 8.9999999999953, 6, 18.749999999922
1511, 8.9999999999953, 6, 20.833333333252
1512, 8.9999999999953, 6, 22.916666666582
1513, 8.9999999999953, 6, 24.999999999912
1514, 8.9999999999953, 6, 27.083333333242
1515, 8.9999999999953, 6, 29.166666666572
1516, 8.9999999999953, 6, 31.249999999902
1517, 8.9999999999953, 6, 33.333333333242
1518, 8.9999999999953, 6, 35.416666666587
1519, 8.9999999999953, 6, 37.499999999932
1520, 8.9999999999953, 6, 39.583333333276
1521, 8.9999999999953, 6, 41.666666666621
1522, 8.9999999999953, 6, 43.749999999966
1523, 8.9999999999953, 6, 45.833333333311
1524, 8.9999999999953, 6, 47.916666666655
1525, 9.9999999999969, 6, 2.083333333325
1526, 9.9999999999969, 6, 4.1666666666503
1527, 9.9999999999969, 6, 6.2499999999763
1528, 9.9999999999969, 6, 8.333333333299
1529, 9.9999999999969, 6, 10.416666666622
1530, 9.9999999999969, 6, 12.499999999944
1531, 9.9999999999969, 6, 14.583333333267
1532, 9.9999999999969, 6, 16.666666666592
1533, 9.9999999999969, 6, 18.749999999922
1534, 9.9999999999969, 6, 20.833333333252
1535, 9.9999999999969, 6, 22.916666666582
1536, 9.9999999999969, 6, 24.999999999912
1537, 9.9999999999969, 6, 27.083333333242
1538, 9.9999999999969, 6, 29.166666666572
1539, 9.9999999999969, 6, 31.249999999902
1540, 9.9999999999969, 6, 33.333333333242
1541, 9.9999999999969, 6, 35.416666666587
1542, 9.9999999999969, 6, 37.499999999932
1543, 9.9999999999969, 6, 39.583333333276
1544, 9.9999999999969, 6, 41.666666666621
1545, 9.9999999999969, 6, 43.749999999966
1546, 9.9999999999969, 6, 45.833333333311
1547, 9.9999999999969, 6, 47.916666666655
1548, 10.999999999998, 6, 2.083333333325
1549, 10.999999999998, 6, 4.1666666666503
1550, 10.999999999998, 6, 6.2499999999763
1551, 10.999999999998, 6, 8.333333333299
1552, 10.999999999998, 6, 10.416666666622
1553, 10.999999999998, 6, 12.499999999944
1554, 10.999999999998, 6, 14.583333333267
1555, 10.999999999998, 6, 16.666666666592
1556, 10.999999999998, 6, 18.749999999922
1557, 10.999999999998, 6, 20.833333333252
1558, 10.999999999998, 6, 22.916666666582
1559, 10.999999999998, 6, 24.999999999912
1560, 10.999999999998, 6, 27.083333333242
1561, 10.999999999998, 6, 29.166666666572
1562, 10.999999999998, 6, 31.249999999902
1563, 10.999999999998, 6, 33.333333333242
1564, 10.999999999998, 6, 35.416666666587
1565, 10.999999999998, 6, 37.499999999932
1566, 10.999999999998, 6, 39.583333333276
1567, 10.999999999998, 6, 41.666666666621
1568, 10.999999999998, 6, 43.749999999966
1569, 10.999999999998, 6, 45.833333333311
1570, 10.999999999998, 6, 47.916666666655
1571, 6.9999999999927, 0, 2.083333333325
1572, 6.9999999999931, 0, 4.1666666666503
1573, 6.9999999999934, 0, 6.2499999999763
1574, 6.9999999999937, 0, 8.333333333299
1575, 6.999999999994, 0, 10.416666666622
1576, 6.9999999999943, 0, 12.499999999944
1577, 6.9999999999946, 0, 14.583333333267
1578, 6.9999999999949, 0, 16.666666666592
1579, 6.9999999999953, 0, 18.749999999922
1580, 6.9999999999956, 0, 20.833333333252
1581, 6.9999999999959, 0, 22.916666666582
1582, 6.9999999999962, 0, 24.999999999912
1583, 6.9999999999965, 0, 27.083333333242
1584, 6.9999999999968, 0, 29.166666666572
1585, 6.9999999999972, 0, 31.249999999902
1586, 6.9999999999975, 0, 33.333333333242
1587, 6.9999999999978, 0, 35.416666666587
1588, 6.9999999999981, 0, 37.499999999932
1589, 6.9999999999984, 0, 39.583333333276
1590, 6.9999999999987, 0, 41.666666666621
1591, 6.9999999999991, 0, 43.749999999966
1592, 6.9999999999994, 0, 45.833333333311
1593, 6.9999999999997, 0, 47.916666666655
1594, 7.999999999994, 0, 2.083333333325
1595, 7.9999999999943, 0, 4.1666666666503
1596, 7.9999999999945, 0, 6.2499999999763
1597, 7.9999999999948, 0, 8.333333333299
1598, 7.9999999999951, 0, 10.416666666622
1599, 7.9999999999953, 0, 12.499999999944
1600, 7.9999999999956, 0, 14.583333333267
1601, 7.9999999999958, 0, 16.666666666592
1602, 7.9999999999961, 0, 18.749999999922
1603, 7.9999999999964, 0, 20.833333333252
1604, 7.9999999999966, 0, 22.916666666582
1605, 7.9999999999969, 0, 24.999999999912
1606, 7.9999999999971, 0, 27.083333333242
1607, 7.9999999999974, 0, 29.166666666572
1608, 7.9999999999977, 0, 31.249999999902
1609, 7.9999999999979, 0, 33.333333333242
1610, 7.9999999999982, 0, 35.416666666587
1611, 7.9999999999984, 0, 37.499999999932
1612, 7.9999999999987, 0, 39.583333333276
1613, 7.999999999999, 0, 41.666666666621
1614, 7.9999999999992, 0, 43.749999999966
1615, 7.9999999999995, 0, 45.833333333311
1616, 7.9999999999997, 0, 47.916666666655
1617, 8.9999999999955, 0, 2.083333333325
1618, 8.9999999999957, 0, 4.1666666666503
1619, 8.9999999999959, 0, 6.2499999999763
1620, 8.9999999999961, 0, 8.333333333299
1621, 8.9999999999963, 0, 10.416666666622
1622, 8.9999999999965, 0, 12.499999999944
1623, 8.9999999999967, 0, 14.583333333267
1624, 8.9999999999969, 0, 16.666666666592
1625, 8.9999999999971, 0, 18.749999999922
1626, 8.9999999999973, 0, 20.833333333252
1627, 8.9999999999975, 0, 22.916666666582
1628, 8.9999999999977, 0, 24.999999999912
1629, 8.9999999999979, 0, 27.083333333242
1630, 8.999999999998, 0, 29.166666666572
1631, 8.9999999999982, 0, 31.249999999902
1632, 8.9999999999984, 0, 33.333333333242
1633, 8.9999999999986, 0, 35.416666666587
1634, 8.9999999999988, 0, 37.499999999932
1635, 8.999999999999, 0, 39.583333333276
1636, 8.9999999999992, 0, 41.666666666621
1637, 8.9999999999994, 0, 43.749999999966
1638, 8.9999999999996, 0, 45.833333333311
1639, 8.9999999999998, 0, 47.916666666655
1640, 9.999999999997, 0, 2.083333333325
1641, 9.9999999999971, 0, 4.1666666666503
1642, 9.9999999999973, 0, 6.2499999999763
1643, 9.9999999999974, 0, 8.333333333299
1644, 9.9999999999975, 0, 10.416666666622
1645, 9.9999999999977, 0, 12.499999999944
1646, 9.9999999999978, 0, 14.583333333267
1647, 9.9999999999979, 0, 16.666666666592
1648, 9.999999999998, 0, 18.749999999922
1649, 9.9999999999982, 0, 20.833333333252
1650, 9.9999999999983, 0, 22.916666666582
1651, 9.9999999999984, 0, 24.999999999912
1652, 9.9999999999986, 0, 27.083333333242
1653, 9.9999999999987, 0, 29.166666666572
1654, 9.9999999999988, 0, 31.249999999902
1655, 9.999999999999, 0, 33.333333333242
1656, 9.9999999999991, 0, 35.416666666587
1657, 9.9999999999992, 0, 37.499999999932
1658, 9.9999999999993, 0, 39.583333333276
1659, 9.9999999999995, 0, 41.666666666621
1660, 9.9999999999996, 0, 43.749999999966
1661, 9.9999999999997, 0, 45.833333333311
1662, 9.9999999999999, 0, 47.916666666655
1663, 10.999999999999, 0, 2.083333333325
1664, 10.999999999999, 0, 4.1666666666503
1665, 10.999999999999, 0, 6.2499999999763
1666, 10.999999999999, 0, 8.333333333299
1667, 10.999999999999, 0, 10.416666666622
1668, 10.999999999999, 0, 12.499999999944
1669, 10.999999999999, 0, 14.583333333267
1670, 10.999999999999, 0, 16.666666666592
1671, 10.999999999999, 0, 18.749999999922
1672, 10.999999999999, 0, 20.833333333252
1673, 10.999999999999, 0, 22.916666666582
1674, 10.999999999999, 0, 24.999999999912
1675, 10.999999999999, 0, 27.083333333242
1676, 10.999999999999, 0, 29.166666666572
1677, 10.999999999999, 0, 31.249999999902
1678, 10.999999999999, 0, 33.333333333242
1679, 11, 0, 35.416666666587
1680, 11, 0, 37.499999999932
1681, 11, 0, 39.583333333276
1682, 11, 0, 41.666666666621
1683, 11, 0, 43.749999999966
1684, 11, 0, 45.833333333311
1685, 11, 0, 47.916666666655
1686, 6, 0.99999999999565, 2.083333333325
1687, 6, 0.99999999999565, 4.1666666666503
1688, 6, 0.99999999999564, 6.2499999999763
1689, 6, 0.99999999999565, 8.333333333299
1690, 6, 0.99999999999564, 10.416666666622
1691, 6, 0.99999999999565, 12.499999999944
1692, 6, 0.99999999999565, 14.583333333267
1693, 6, 0.99999999999565, 16.666666666592
1694, 6, 0.99999999999565, 18.749999999922
1695, 6, 0.99999999999565, 20.833333333252
1696, 6, 0.99999999999565, 22.916666666582
1697, 6, 0.99999999999565, 24.999999999912
1698, 6, 0.99999999999565, 27.083333333242
1699, 6, 0.99999999999565, 29.166666666572
1700, 6, 0.99999999999565, 31.249999999902
1701, 6, 0.99999999999565, 33.333333333242
1702, 6, 0.99999999999565, 35.416666666587
1703, 6, 0.99999999999565, 37.499999999932
1704, 6, 0.99999999999565, 39.583333333276
1705, 6, 0.99999999999565, 41.666666666621
1706, 6, 0.99999999999565, 43.749999999966
1707, 6, 0.99999999999564, 45.833333333311
1708, 6, 0.99999999999565, 47.916666666655
1709, 6, 1.9999999999921, 2.083333333325
1710, 6, 1.9999999999921, 4.1666666666503
1711, 6, 1.9999999999921, 6.2499999999763
1712, 6, 1.9999999999921, 8.333333333299
1713, 6, 1.999999999992, 10.416666666622
1714, 6, 1.9999999999921, 12.499999999944
1715, 6, 1.999999999992, 14.583333333267
1716, 6, 1.9999999999921, 16.666666666592
1717, 6, 1.999999999992, 18.749999999922
1718, 6, 1.999999999992, 20.833333333252
1719, 6, 1.999999999992, 22.916666666582
1720, 6, 1.9999999999921, 24.999999999912
1721, 6, 1.9999999999921, 27.083333333242
1722, 6, 1.999999999992, 29.166666666572
1723, 6, 1.9999999999921, 31.249999999902
1724, 6, 1.9999999999921, 33.333333333242
1725, 6, 1.9999999999921, 35.416666666587
1726, 6, 1.999999999992, 37.499999999932
1727, 6, 1.999999999992, 39.583333333276
1728, 6, 1.999999999992, 41.666666666621
1729, 6, 1.999999999992, 43.749999999966
1730, 6, 1.999999999992, 45.833333333311
1731, 6, 1.999999999992, 47.916666666655
1732, 6, 2.9999999999886, 2.083333333325
1733, 6, 2.9999999999886, 4.1666666666503
1734, 6, 2.9999999999886, 6.2499999999763
1735, 6, 2.9999999999886, 8.333333333299
1736, 6, 2.9999999999886, 10.416666666622
1737, 6, 2.9999999999886, 12.499999999944
1738, 6, 2.9999999999886, 14.583333333267
1739, 6, 2.9999999999886, 16.666666666592
1740, 6, 2.9999999999886, 18.749999999922
1741, 6, 2.9999999999886, 20.833333333252
1742, 6, 2.9999999999886, 22.916666666582
1743, 6, 2.9999999999886, 24.999999999912
1744, 6, 2.9999999999886, 27.083333333242
1745, 6, 2.9999999999886, 29.166666666572
1746, 6, 2.9999999999886, 31.249999999902
1747, 6, 2.9999999999886, 33.333333333242
1748, 6, 2.9999999999886, 35.416666666587
1749, 6, 2.9999999999886, 37.499999999932
1750, 6, 2.9999999999886, 39.583333333276
1751, 6, 2.9999999999886, 41.666666666621
1752, 6, 2.9999999999886, 43.749999999966
1753, 6, 2.9999999999886, 45.833333333311
1754, 6, 2.9999999999886, 47.916666666655
1755, 6, 3.9999999999923, 2.083333333325
1756, 6, 3.9999999999923, 4.1666666666503
1757, 6, 3.9999999999923, 6.2499999999763
1758, 6, 3.9999999999923, 8.333333333299
1759, 6, 3.9999999999923, 10.416666666622
1760, 6, 3.9999999999923, 12.499999999944
1761, 6, 3.9999999999923, 14.583333333267
1762, 6, 3.9999999999923, 16.666666666592
1763, 6, 3.9999999999923, 18.749999999922
1764, 6, 3.9999999999923, 20.833333333252
1765, 6, 3.9999999999923, 22.916666666582
1766, 6, 3.9999999999923, 24.999999999912
1767, 6, 3.9999999999923, 27.083333333242
1768, 6, 3.9999999999923, 29.166666666572
1769, 6, 3.9999999999923, 31.249999999902
1770, 6, 3.9999999999923, 33.333333333242
1771, 6, 3.9999999999923, 35.416666666587
1772, 6, 3.9999999999923, 37.499999999932
1773, 6, 3.9999999999923, 39.583333333276
1774, 6, 3.9999999999923, 41.666666666621
1775, 6, 3.9999999999923, 43.749999999966
1776, 6, 3.9999999999923, 45.833333333311
1777, 6, 3.9999999999923, 47.916666666655
1778, 6, 4.9999999999962, 2.083333333325
1779, 6, 4.9999999999962, 4.1666666666503
1780, 6, 4.9999999999962, 6.2499999999763
1781, 6, 4.9999999999962, 8.333333333299
1782, 6, 4.9999999999962, 10.416666666622
1783, 6, 4.9999999999962, 12.499999999944
1784, 6, 4.9999999999962, 14.583333333267
1785, 6, 4.9999999999962, 16.666666666592
1786, 6, 4.9999999999962, 18.749999999922
1787, 6, 4.9999999999962, 20.833333333252
1788, 6, 4.9999999999962, 22.916666666582
1789, 6, 4.9999999999962, 24.999999999912
1790, 6, 4.9999999999962, 27.083333333242
1791, 6, 4.9999999999962, 29.166666666572
1792, 6, 4.9999999999962, 31.249999999902
1793, 6, 4.9999999999962, 33.333333333242
1794, 6, 4.9999999999962, 35.416666666587
1795, 6, 4.9999999999962, 37.499999999932
1796, 6, 4.9999999999962, 39.583333333276
1797, 6, 4.9999999999962, 41.666666666621
1798, 6, 4.9999999999962, 43.749999999966
1799, 6, 4.9999999999962, 45.833333333311
1800, 6, 4.9999999999962, 47.916666666655
1801, 6.9999999999937, 4.9999999999962, 50
1802, 6.9999999999949, 3.9999999999923, 50
1803, 6.9999999999962, 2.9999999999886, 50
1804, 6.9999999999975, 1.9999999999921, 50
1805, 6.9999999999987, 0.99999999999564, 50
1806, 7.9999999999948, 4.9999999999962, 50
1807, 7.9999999999958, 3.9999999999923, 50
1808, 7.9999999999969, 2.9999999999886, 50
1809, 7.9999999999979, 1.999999999992, 50
1810, 7.999999999999, 0.99999999999564, 50
1811, 8.9999999999961, 4.9999999999962, 50
1812, 8.9999999999969, 3.9999999999923, 50
1813, 8.9999999999977, 2.9999999999886, 50
1814, 8.9999999999984, 1.9999999999921, 50
1815, 8.9999999999992, 0.99999999999564, 50
1816, 9.9999999999974, 4.9999999999962, 50
1817, 9.9999999999979, 3.9999999999923, 50
1818, 9.9999999999984, 2.9999999999886, 50
1819, 9.999999999999, 1.999999999992, 50
1820, 9.9999999999995, 0.99999999999564, 50
1821, 10.999999999999, 4.9999999999962, 50
1822, 10.999999999999, 3.9999999999923, 50
1823, 10.999999999999, 2.9999999999886, 50
1824, 10.999999999999, 1.9999999999921, 50
1825, 11, 0.99999999999564, 50
1826, 0.99999999999565, 0, 2.083333333325
1827, 0.99999999999565, 0, 4.1666666666503
1828, 0.99999999999564, 0, 6.2499999999763
1829, 0.99999999999565, 0, 8.333333333299
1830, 0.99999999999564, 0, 10.416666666622
1831, 0.99999999999565, 0, 12.499999999944
1832, 0.99999999999565, 0, 14.583333333267
1833, 0.99999999999565, 0, 16.666666666592
1834, 0.99999999999565, 0, 18.749999999922
1835, 0.99999999999565, 0, 20.833333333252
1836, 0.99999999999565, 0, 22.916666666582
1837, 0.99999999999565, 0, 24.999999999912
1838, 0.99999999999565, 0, 27.083333333242
1839, 0.99999999999565, 0, 29.166666666572
1840, 0.99999999999565, 0, 31.249999999902
1841, 0.99999999999565, 0, 33.333333333242
1842, 0.99999999999565, 0, 35.416666666587
1843, 0.99999999999565, 0, 37.499999999932
1844, 0.99999999999565, 0, 39.583333333276
1845, 0.99999999999565, 0, 41.666666666621
1846, 0.99999999999565, 0, 43.749999999966
1847, 0.99999999999564, 0, 45.833333333311
1848, 0.99999999999565, 0, 47.916666666655
1849, 1.9999999999921, 0, 2.083333333325
1850, 1.9999999999921, 0, 4.1666666666503
1851, 1.9999999999921, 0, 6.2499999999763
1852, 1.9999999999921, 0, 8.333333333299
1853, 1.999999999992, 0, 10.416666666622
1854, 1.9999999999921, 0, 12.499999999944
1855, 1.999999999992, 0, 14.583333333267
1856, 1.9999999999921, 0, 16.666666666592
1857, 1.999999999992, 0, 18.749999999922
1858, 1.999999999992, 0, 20.833333333252
1859, 1.999999999992, 0, 22.916666666582
1860, 1.9999999999921, 0, 24.999999999912
1861, 1.9999999999921, 0, 27.083333333242
1862, 1.999999999992, 0, 29.166666666572
1863, 1.9999999999921, 0, 31.249999999902
1864, 1.9999999999921, 0, 33.333333333242
1865, 1.9999999999921, 0, 35.416666666587
1866, 1.999999999992, 0, 37.499999999932
1867, 1.999999999992, 0, 39.583333333276
1868, 1.999999999992, 0, 41.666666666621
1869, 1.999999999992, 0, 43.749999999966
1870, 1.999999999992, 0, 45.833333333311
1871, 1.999999999992, 0, 47.916666666655
1872, 2.9999999999886, 0, 2.083333333325
1873, 2.9999999999886, 0, 4.1666666666503
1874, 2.9999999999886, 0, 6.2499999999763
1875, 2.9999999999886, 0, 8.333333333299
1876, 2.9999999999886, 0, 10.416666666622
1877, 2.9999999999886, 0, 12.499999999944
1878, 2.9999999999886, 0, 14.583333333267
1879, 2.9999999999886, 0, 16.666666666592
1880, 2.9999999999886, 0, 18.749999999922
1881, 2.9999999999886, 0, 20.833333333252
1882, 2.9999999999886, 0, 22.916666666582
1883, 2.9999999999886, 0, 24.999999999912
1884, 2.9999999999886, 0, 27.083333333242
1885, 2.9999999999886, 0, 29.166666666572
1886, 2.9999999999886, 0, 31.249999999902
1887, 2.9999999999886, 0, 33.333333333242
1888, 2.9999999999886, 0, 35.416666666587
1889, 2.9999999999886, 0, 37.499999999932
1890, 2.9999999999886, 0, 39.583333333276
1891, 2.9999999999886, 0, 41.666666666621
1892, 2.9999999999886, 0, 43.749999999966
1893, 2.9999999999886, 0, 45.833333333311
1894, 2.9999999999886, 0, 47.916666666655
1895, 3.9999999999923, 0, 2.083333333325
1896, 3.9999999999923, 0, 4.1666666666503
1897, 3.9999999999923, 0, 6.2499999999763
1898, 3.9999999999923, 0, 8.333333333299
1899, 3.9999999999923, 0, 10.416666666622
1900, 3.9999999999923, 0, 12.499999999944
1901, 3.9999999999923, 0, 14.583333333267
1902, 3.9999999999923, 0, 16.666666666592
1903, 3.9999999999923, 0, 18.749999999922
1904, 3.9999999999923, 0, 20.833333333252
1905, 3.9999999999923, 0, 22.916666666582
1906, 3.9999999999923, 0, 24.999999999912
1907, 3.9999999999923, 0, 27.083333333242
1908, 3.9999999999923, 0, 29.166666666572
1909, 3.9999999999923, 0, 31.249999999902
1910, 3.9999999999923, 0, 33.333333333242
1911, 3.9999999999923, 0, 35.416666666587
1912, 3.9999999999923, 0, 37.499999999932
1913, 3.9999999999923, 0, 39.583333333276
1914, 3.9999999999923, 0, 41.666666666621
1915, 3.9999999999923, 0, 43.749999999966
1916, 3.9999999999923, 0, 45.833333333311
1917, 3.9999999999923, 0, 47.916666666655
1918, 4.9999999999962, 0, 2.083333333325
1919, 4.9999999999962, 0, 4.1666666666503
1920, 4.9999999999962, 0, 6.2499999999763
1921, 4.9999999999962, 0, 8.333333333299
1922, 4.9999999999962, 0, 10.416666666622
1923, 4.9999999999962, 0, 12.499999999944
1924, 4.9999999999962, 0, 14.583333333267
1925, 4.9999999999962, 0, 16.666666666592
1926, 4.9999999999962, 0, 18.749999999922
1927, 4.9999999999962, 0, 20.833333333252
1928, 4.9999999999962, 0, 22.916666666582
1929, 4.9999999999962, 0, 24.999999999912
1930, 4.9999999999962, 0, 27.083333333242
1931, 4.9999999999962, 0, 29.166666666572
1932, 4.9999999999962, 0, 31.249999999902
1933, 4.9999999999962, 0, 33.333333333242
1934, 4.9999999999962, 0, 35.416666666587
1935, 4.9999999999962, 0, 37.499999999932
1936, 4.9999999999962, 0, 39.583333333276
1937, 4.9999999999962, 0, 41.666666666621
1938, 4.9999999999962, 0, 43.749999999966
1939, 4.9999999999962, 0, 45.833333333311
1940, 4.9999999999962, 0, 47.916666666655
1941, 0.99999999999594, 6, 2.083333333325
1942, 0.99999999999624, 6, 4.1666666666503
1943, 0.99999999999654, 6, 6.2499999999763
1944, 0.99999999999684, 6, 8.333333333299
1945, 0.99999999999714, 6, 10.416666666622
1946, 0.99999999999744, 6, 12.499999999944
1947, 0.99999999999773, 6, 14.583333333267
1948, 0.99999999999803, 6, 16.666666666592
1949, 0.99999999999833, 6, 18.749999999922
1950, 0.99999999999863, 6, 20.833333333252
1951, 0.99999999999893, 6, 22.916666666582
1952, 0.99999999999923, 6, 24.999999999912
1953, 0.99999999999952, 6, 27.083333333242
1954, 0.99999999999982, 6, 29.166666666572
1955, 1.0000000000001, 6, 31.249999999902
1956, 1.0000000000004, 6, 33.333333333242
1957, 1.0000000000007, 6, 35.416666666587
1958, 1.000000000001, 6, 37.499999999932
1959, 1.0000000000013, 6, 39.583333333276
1960, 1.0000000000016, 6, 41.666666666621
1961, 1.0000000000019, 6, 43.749999999966
1962, 1.0000000000022, 6, 45.833333333311
1963, 1.0000000000025, 6, 47.916666666655
1964, 1.9999999999926, 6, 2.083333333325
1965, 1.9999999999932, 6, 4.1666666666503
1966, 1.9999999999937, 6, 6.2499999999763
1967, 1.9999999999943, 6, 8.333333333299
1968, 1.9999999999949, 6, 10.416666666622
1969, 1.9999999999954, 6, 12.499999999944
1970, 1.999999999996, 6, 14.583333333267
1971, 1.9999999999966, 6, 16.666666666592
1972, 1.9999999999971, 6, 18.749999999922
1973, 1.9999999999977, 6, 20.833333333252
1974, 1.9999999999983, 6, 22.916666666582
1975, 1.9999999999988, 6, 24.999999999912
1976, 1.9999999999994, 6, 27.083333333242
1977, 2, 6, 29.166666666572
1978, 2.0000000000005, 6, 31.249999999902
1979, 2.0000000000011, 6, 33.333333333242
1980, 2.0000000000017, 6, 35.416666666587
1981, 2.0000000000022, 6, 37.499999999932
1982, 2.0000000000028, 6, 39.583333333276
1983, 2.0000000000033, 6, 41.666666666621
1984, 2.0000000000039, 6, 43.749999999966
1985, 2.0000000000045, 6, 45.833333333311
1986, 2.000000000005, 6, 47.916666666655
1987, 2.9999999999894, 6, 2.083333333325
1988, 2.9999999999902, 6, 4.1666666666503
1989, 2.999999999991, 6, 6.2499999999763
1990, 2.9999999999919, 6, 8.333333333299
1991, 2.9999999999927, 6, 10.416666666622
1992, 2.9999999999935, 6, 12.499999999944
1993, 2.9999999999943, 6, 14.583333333267
1994, 2.9999999999952, 6, 16.666666666592
1995, 2.999999999996, 6, 18.749999999922
1996, 2.9999999999968, 6, 20.833333333252
1997, 2.9999999999976, 6, 22.916666666582
1998, 2.9999999999984, 6, 24.999999999912
1999, 2.9999999999993, 6, 27.083333333242
2000, 3.0000000000001, 6, 29.166666666572
2001, 3.0000000000009, 6, 31.249999999902
2002, 3.0000000000017, 6, 33.333333333242
2003, 3.0000000000026, 6, 35.416666666587
2004, 3.0000000000034, 6, 37.499999999932
2005, 3.0000000000042, 6, 39.583333333276
2006, 3.000000000005, 6, 41.666666666621
2007, 3.0000000000059, 6, 43.749999999966
2008, 3.0000000000067, 6, 45.833333333311
2009, 3.0000000000075, 6, 47.916666666655
2010, 3.9999999999928, 6, 2.083333333325
2011, 3.9999999999933, 6, 4.1666666666503
2012, 3.9999999999938, 6, 6.2499999999763
2013, 3.9999999999942, 6, 8.333333333299
2014, 3.9999999999947, 6, 10.416666666622
2015, 3.9999999999952, 6, 12.499999999944
2016, 3.9999999999957, 6, 14.583333333267
2017, 3.9999999999962, 6, 16.666666666592
2018, 3.9999999999967, 6, 18.749999999922
2019, 3.9999999999971, 6, 20.833333333252
2020, 3.9999999999976, 6, 22.916666666582
2021, 3.9999999999981, 6, 24.999999999912
2022, 3.9999999999986, 6, 27.083333333242
2023, 3.9999999999991, 6, 29.166666666572
2024, 3.9999999999995, 6, 31.249999999902
2025, 4, 6, 33.333333333242
2026, 4.0000000000005, 6, 35.416666666587
2027, 4.000000000001, 6, 37.499999999932
2028, 4.0000000000015, 6, 39.583333333276
2029, 4.0000000000019, 6, 41.666666666621
2030, 4.0000000000024, 6, 43.749999999966
2031, 4.0000000000029, 6, 45.833333333311
2032, 4.0000000000034, 6, 47.916666666655
2033, 4.9999999999966, 6, 2.083333333325
2034, 4.999999999997, 6, 4.1666666666503
2035, 4.9999999999974, 6, 6.2499999999763
2036, 4.9999999999979, 6, 8.333333333299
2037, 4.9999999999983, 6, 10.416666666622
2038, 4.9999999999987, 6, 12.499999999944
2039, 4.9999999999991, 6, 14.583333333267
2040, 4.9999999999996, 6, 16.666666666592
2041, 5, 6, 18.749999999922
2042, 5.0000000000004, 6, 20.833333333252
2043, 5.0000000000008, 6, 22.916666666582
2044, 5.0000000000012, 6, 24.999999999912
2045, 5.0000000000017, 6, 27.083333333242
2046, 5.0000000000021, 6, 29.166666666572
2047, 5.0000000000025, 6, 31.249999999902
2048, 5.0000000000029, 6, 33.333333333242
2049, 5.0000000000034, 6, 35.416666666587
2050, 5.0000000000038, 6, 37.499999999932
2051, 5.0000000000042, 6, 39.583333333276
2052, 5.0000000000046, 6, 41.666666666621
2053, 5.0000000000051, 6, 43.749999999966
2054, 5.0000000000055, 6, 45.833333333311
2055, 5.0000000000059, 6, 47.916666666655
2056, 0, 0.99999999999594, 2.083333333325
2057, 0, 0.99999999999624, 4.1666666666503
2058, 0, 0.99999999999654, 6.2499999999763
2059, 0, 0.99999999999684, 8.333333333299
2060, 0, 0.99999999999714, 10.416666666622
2061, 0, 0.99999999999744, 12.499999999944
2062, 0, 0.99999999999773, 14.583333333267
2063, 0, 0.99999999999803, 16.666666666592
2064, 0, 0.99999999999833, 18.749999999922
2065, 0, 0.99999999999863, 20.833333333252
2066, 0, 0.99999999999893, 22.916666666582
2067, 0, 0.99999999999923, 24.999999999912
2068, 0, 0.99999999999952, 27.083333333242
2069, 0, 0.99999999999982, 29.166666666572
2070, 0, 1.0000000000001, 31.249999999902
2071, 0, 1.0000000000004, 33.333333333242
2072, 0, 1.0000000000007, 35.416666666587
2073, 0, 1.000000000001, 37.499999999932
2074, 0, 1.0000000000013, 39.583333333276
2075, 0, 1.0000000000016, 41.666666666621
2076, 0, 1.0000000000019, 43.749999999966
2077, 0, 1.0000000000022, 45.833333333311
2078, 0, 1.0000000000025, 47.916666666655
2079, 0, 1.9999999999926, 2.083333333325
2080, 0, 1.9999999999932, 4.1666666666503
2081, 0, 1.9999999999937, 6.2499999999763
2082, 0, 1.9999999999943, 8.333333333299
2083, 0, 1.9999999999949, 10.416666666622
2084, 0, 1.9999999999954, 12.499999999944
2085, 0, 1.999999999996, 14.583333333267
2086, 0, 1.9999999999966, 16.666666666592
2087, 0, 1.9999999999971, 18.749999999922
2088, 0, 1.9999999999977, 20.833333333252
2089, 0, 1.9999999999983, 22.916666666582
2090, 0, 1.9999999999988, 24.999999999912
2091, 0, 1.9999999999994, 27.083333333242
2092, 0, 2, 29.166666666572
2093, 0, 2.0000000000005, 31.249999999902
2094, 0, 2.0000000000011, 33.333333333242
2095, 0, 2.0000000000017, 35.416666666587
2096, 0, 2.0000000000022, 37.499999999932
2097, 0, 2.0000000000028, 39.583333333276
2098, 0, 2.0000000000033, 41.666666666621
2099, 0, 2.0000000000039, 43.749999999966
2100, 0, 2.0000000000045, 45.833333333311
2101, 0, 2.000000000005, 47.916666666655
2102, 0, 2.9999999999894, 2.083333333325
2103, 0, 2.9999999999902, 4.1666666666503
2104, 0, 2.999999999991, 6.2499999999763
2105, 0, 2.9999999999919, 8.333333333299
2106, 0, 2.9999999999927, 10.416666666622
2107, 0, 2.9999999999935, 12.499999999944
2108, 0, 2.9999999999943, 14.583333333267
2109, 0, 2.9999999999952, 16.666666666592
2110, 0, 2.999999999996, 18.749999999922
2111, 0, 2.9999999999968, 20.833333333252
2112, 0, 2.9999999999976, 22.916666666582
2113, 0, 2.9999999999984, 24.999999999912
2114, 0, 2.9999999999993, 27.083333333242
2115, 0, 3.0000000000001, 29.166666666572
2116, 0, 3.0000000000009, 31.249999999902
2117, 0, 3.0000000000017, 33.333333333242
2118, 0, 3.0000000000026, 35.416666666587
2119, 0, 3.0000000000034, 37.499999999932
2120, 0, 3.0000000000042, 39.583333333276
2121, 0, 3.000000000005, 41.666666666621
2122, 0, 3.0000000000059, 43.749999999966
2123, 0, 3.0000000000067, 45.833333333311
2124, 0, 3.0000000000075, 47.916666666655
2125, 0, 3.9999999999928, 2.083333333325
2126, 0, 3.9999999999933, 4.1666666666503
2127, 0, 3.9999999999938, 6.2499999999763
2128, 0, 3.9999999999942, 8.333333333299
2129, 0, 3.9999999999947, 10.416666666622
2130, 0, 3.9999999999952, 12.499999999944
2131, 0, 3.9999999999957, 14.583333333267
2132, 0, 3.9999999999962, 16.666666666592
2133, 0, 3.9999999999967, 18.749999999922
2134, 0, 3.9999999999971, 20.833333333252
2135, 0, 3.9999999999976, 22.916666666582
2136, 0, 3.9999999999981, 24.999999999912
2137, 0, 3.9999999999986, 27.083333333242
2138, 0, 3.9999999999991, 29.166666666572
2139, 0, 3.9999999999995, 31.249999999902
2140, 0, 4, 33.333333333242
2141, 0, 4.0000000000005, 35.416666666587
2142, 0, 4.000000000001, 37.499999999932
2143, 0, 4.0000000000015, 39.583333333276
2144, 0, 4.0000000000019, 41.666666666621
2145, 0, 4.0000000000024, 43.749999999966
2146, 0, 4.0000000000029, 45.833333333311
2147, 0, 4.0000000000034, 47.916666666655
2148, 0, 4.9999999999966, 2.083333333325
2149, 0, 4.999999999997, 4.1666666666503
2150, 0, 4.9999999999974, 6.2499999999763
2151, 0, 4.9999999999979, 8.333333333299
2152, 0, 4.9999999999983, 10.416666666622
2153, 0, 4.9999999999987, 12.499999999944
2154, 0, 4.9999999999991, 14.583333333267
2155, 0, 4.9999999999996, 16.666666666592
2156, 0, 5, 18.749999999922
2157, 0, 5.0000000000004, 20.833333333252
2158, 0, 5.0000000000008, 22.916666666582
2159, 0, 5.0000000000012, 24.999999999912
2160, 0, 5.0000000000017, 27.083333333242
2161, 0, 5.0000000000021, 29.166666666572
2162, 0, 5.0000000000025, 31.249999999902
2163, 0, 5.0000000000029, 33.333333333242
2164, 0, 5.0000000000034, 35.416666666587
2165, 0, 5.0000000000038, 37.499999999932
2166, 0, 5.0000000000042, 39.583333333276
2167, 0, 5.0000000000046, 41.666666666621
2168, 0, 5.0000000000051, 43.749999999966
2169, 0, 5.0000000000055, 45.833333333311
2170, 0, 5.0000000000059, 47.916666666655
2171, 0.99999999999684, 1.0000000000016, 50
2172, 0.99999999999803, 2.0000000000033, 50
2173, 0.99999999999922, 3.000000000005, 50
2174, 1.0000000000004, 4.000000000002, 50
2175, 1.0000000000016, 5.0000000000046, 50
2176, 1.9999999999943, 1.0000000000004, 50
2177, 1.9999999999966, 2.0000000000011, 50
2178, 1.9999999999988, 3.0000000000017, 50
2179, 2.0000000000011, 4, 50
2180, 2.0000000000033, 5.0000000000029, 50
2181, 2.9999999999919, 0.99999999999922, 50
2182, 2.9999999999952, 1.9999999999988, 50
2183, 2.9999999999984, 2.9999999999984, 50
2184, 3.0000000000017, 3.9999999999981, 50
2185, 3.000000000005, 5.0000000000012, 50
2186, 3.9999999999942, 0.99999999999803, 50
2187, 3.9999999999962, 1.9999999999966, 50
2188, 3.9999999999981, 2.9999999999952, 50
2189, 4, 3.9999999999962, 50
2190, 4.000000000002, 4.9999999999996, 50
2191, 4.9999999999979, 0.99999999999684, 50
2192, 4.9999999999996, 1.9999999999943, 50
2193, 5.0000000000012, 2.9999999999919, 50
2194, 5.0000000000029, 3.9999999999942, 50
2195, 5.0000000000046, 4.9999999999979, 50
2196, 26.888888888921, 4.333333333327, 0.69444444444167
2197, 19.642203157704, 5.229201001245, 44.791666666638
2198, 48.079130100322, 4.7523686323904, 3.6159881949278
2199, 45.463990520239, 4.8773690377781, 11.166132543627
2200, 19.322018769102, 3.1619674766868, 6.423930627622
2201, 19.876983226526, 4.5147191234829, 5.2083333333133
2202, 19.642203157691, 5.2292010012706, 23.958333333247
2203, 19.618240832508, 5.2725083129033, 15.624999999929
2204, 18.598609695409, 3.451856885463, 23.958333333247
2205, 19.954623624267, 4.3867823434694, 20.056912645534
2206, 19.970807680446, 5.0729074416669, 32.272412648132
2207, 19.6422031577, 5.2292010012523, 36.458333333259
2208, 22.940035795581, 3.0688052095474, 29.030174932232
2209, 19.618240832509, 5.2725083129022, 28.124999999907
2210, 19.901416570913, 4.9738501791948, 33.787821713187
2211, 19.760686063948, 3.9517370646139, 38.629710583862
2212, 30.444444444506, 1.7124476429645, 47.198912629404
2213, 48.458456290946, 2.6354531275901, 32.260099104066
2214, 48.558526596426, 2.7815904393381, 28.200922398671
2215, 48.26651810616, 0.73368386129613, 30.247969079977
2216, 48.357796842336, 0.77079899871603, 40.624999999949
2217, 45.079384045887, 3.9250501945252, 45.110720183056
2218, 37.555555555608, 1.0000000000001, 49.305555555552
2219, 49.344618055556, 2.5000000000037, 45.805005685173
2220, 44.844886752124, 3.7423355913273, 48.61056803445
2221, 22.602558066371, 3.0387458037861, 42.480515760913
2222, 40.222222222241, 5.0454545454557, 49.337121212118
2223, 30.202320186533, 4.9710318667415, 38.60906644143
2224, 49.13944469038, 3.5604675388885, 34.23564597248
2225, 48.385012907529, 4.3158241379882, 23.958333333247
2226, 33.757875742095, 4.9710318667497, 24.025733108041
2227, 44.960564763071, 3.3408886934626, 20.576386186377
2228, 48.414273807884, 4.8156633743154, 15.574530462026
2229, 41.111111111123, 4.9999999999962, 0.69444444444167
2230, 37.555555555573, 5.3333333333308, 0.69444444444167
2231, 48.244493062787, 4.53924708398, 11.122165488088
2232, 48.330025599148, 2.7126173431952, 1.139467152006
2233, 48.946997725738, 2.649163421225, 7.5015436583834
2234, 30.444444444472, 4.333333333327, 0.69444444444167
2235, 23.575457591396, 1.0289681333393, 7.2242668918992
2236, 26.888888888922, 2.4596097211491, 6.180123264
2237, 37.797679813579, 1.028968133328, 11.390933558554
2238, 38.082950592315, 1.2593143804681, 13.583352575595
2239, 48.31453577114, 1.2425974513849, 15.999294778896
2240, 44.451433030701, 2.1125825620801, 25.947795135638
2241, 48.297091930535, 1.4059743075243, 23.958333333247
2242, 40.868986853181, 1.028968133324, 9.4423997747426
2243, 47.973119987974, 1.6587725641525, 3.5084329557573
2244, 48.067577261118, 1.6114421113839, 9.6354794619457
2245, 18.907284933806, 2.5849440850195, 46.719732165306
2246, 26.88888888894, 0.99999999999756, 49.305555555551
2247, 19.642203157697, 5.2292010012577, 21.874999999917
2248, 22.620452991924, 4.8690965501148, 46.874999999983
2249, 22.620452991773, 1.1309034500745, 38.541666666604
2250, 22.620452991747, 1.1309034501059, 23.958333333247
2251, 22.620452991715, 1.1309034501433, 7.2916666666377
2252, 45.379547008348, 4.8690965497718, 32.291666666571
2253, 44.490321073922, 3.6374961432585, 6.9555483719887
2254, 45.125933662151, 3.9802813777665, 47.200563242889
2255, 45.379547008622, 4.8690965494479, 28.124999999906
2256, 45.379547008742, 1.1309034506928, 23.958333333248
2257, 45.615208365066, 4.5897942010744, 15.624999999929
2258, 46.323365016024, 1.427549896026, 34.374999999915
2259, 21.322664620466, 2.2535345018992, 19.791666666587
2260, 22.092547563815, 2.8844527707432, 3.8525536252252
2261, 46.677335379672, 3.7464654978723, 9.3749999999598
2262, 46.677335379674, 3.7464654978699, 3.1249999999872
2263, 30.118257690705, 3.1820493422714, 42.796554442823
2264, 41.11111111113, 3.0000000000023, 14.146500419252
2265, 33.893557138652, 3.1019845131072, 28.400506429274
2266, 38.048627750293, 2.8587452502891, 6.0738946389782
2267, 44.666666666685, 0.62647437878387, 46.883272229663
2268, 33.866945823284, 2.9031472006358, 19.616858997541
2269, 36.756851055706, 1.3663104855443, 23.272026142798
2270, 30.444444444472, 3.0000000000082, 34.350109958158
2271, 32.840004840422, 2.9033262552067, 38.464122740079
2272, 23.251054827029, 3.0671122140289, 11.13967439622
2273, 47.450034446654, 3.4642485504971, 23.958333333246
2274, 20.394438781668, 3.3074275417694, 44.791666666638
2275, 20.394438781659, 3.3074275418012, 36.458333333259
2276, 20.394438781653, 3.3074275418247, 21.874999999917
2277, 21.88595937843, 2.8745513620368, 31.498219064499
2278, 20.394438781637, 3.3074275418805, 23.958333333247
2279, 47.605561218397, 2.6925724580616, 40.624999999948
2280, 35.098637202355, 3.2253034106578, 10.017036936924
2281, 43.397926385676, 3.3400574517835, 10.707566513267
2282, 20.341325528026, 3.4962746658311, 15.624999999929
2283, 20.341325528028, 3.4962746658262, 28.124999999907
2284, 46.98105961685, 2.4703711100663, 30.469406952884
2285, 46.706037998832, 2.4975727081814, 26.795324660077
2286, 20.341325527995, 3.4962746659415, 34.374999999915
2287, 37.555555555585, 3.0000000000043, 17.241190875917
2288, 26.888888888921, 2.9999999999986, 8.907857542571
2289, 36.920035248631, 3.3766046263376, 14.841845935084
2290, 41.679492610033, 3.0684348378403, 5.3913405036291
2291, 47.707355708155, 2.6297342483245, 15.62499999993
2292, 47.897448752554, 4.1328858724702, 32.375402126365
2293, 30.444444444496, 4.1578371626643, 46.892905720279
2294, 20.032230237665, 1.9443940531716, 38.541666666604
2295, 21.560232133797, 3.6125384960248, 41.37344035922
2296, 47.937295036269, 2.7137161994471, 11.458333333283
2297, 20.699688538965, 3.1211347320651, 8.5353237153155
2298, 46.720609332863, 2.60642732458, 6.0202161926635
2299, 47.242465681349, 2.9260642295376, 45.557184142503
2300, 20.621527777777, 2.4999999999903, 48.007317884752
2301, 47.891327543919, 4.0796320960312, 28.124999999906
2302, 44.187181913929, 3.0000000000047, 42.012417762528
2303, 47.007264028598, 3.346338628295, 35.961605731773
2304, 20.621527777793, 3.4999999999904, 11.458333333283
2305, 47.079287446428, 2.7845250279471, 19.567724012844
2306, 44.144693813125, 2.0452073469806, 17.04186382588
2307, 15.112391087694, 2.1731403114167, 1.0312602380021
2308, 15.031569124398, 4.715996042922, 0.2629934507766
2309, 17.279183999274, 0.77513055855521, 3.0207045614798
2310, 16.229218337977, 1.1639362259343, 11.135503534741
2311, 13.300330653737, 4.6062334294682, 11.364222195515
2312, 12.786527935256, 4.8943619294326, 3.0984197333672
2313, 12.539999999995, 5.5499999999983, 0.93749999999625
2314, 12.50406098394, 2.4538899518406, 0.35042568387276
2315, 13.836430525703, 0.57302258149181, 0.72023690060665
2316, 12.77247500851, 1.2531529016982, 2.8932919615711
2317, 13.585191726978, 4.2776314210401, 18.001548304382
2318, 12.476273897967, 4.9724960270505, 13.816042956374
2319, 12.497498797569, 5.523512834514, 15.624999999929
2320, 12.399999999996, 4.9999999999962, 21.874999999917
2321, 12.974659670288, 5.2191603057974, 19.806750352681
2322, 13.063698505192, 5.2053422774717, 24.062415308607
2323, 14.582821095195, 0.80394733445169, 21.874999999918
2324, 15.27523259906, 1.4474365575987, 15.798373219073
2325, 17.720817604803, 2.5309845992307, 15.640948345688
2326, 12.693653043307, 2.5611702545677, 9.4129790497056
2327, 16.41152133191, 4.5511111607088, 7.1944042250696
2328, 17.204711443368, 0.75810750266165, 13.541666666605
2329, 17.262601679463, 1.183814957959, 19.791666666587
2330, 17.139703059685, 1.2365493908808, 21.874999999917
2331, 13.937752982152, 1.4432643888331, 46.801554867939
2332, 12.905165582258, 4.5158412543225, 46.732037819102
2333, 13.917489057057, 4.9643960447158, 49.056566426909
2334, 15.024658807622, 3.7993521092907, 49.777975356721
2335, 17.365948436946, 3.4999999999919, 48.949512499553
2336, 12.560160911524, 5.4171719531129, 48.995269973169
2337, 12.795288556637, 5.2418924973265, 44.791666666638
2338, 17.268642982395, 2.6993608610367, 38.414351922874
2339, 17.144397064681, 0.82822451883727, 40.624999999949
2340, 16.522837761066, 2.015226629209, 44.684039662088
2341, 14.901808936606, 1.2273628013954, 36.854610083003
2342, 16.985454874499, 3.3564749514383, 36.356666487036
2343, 17.130515483939, 1.2775482368782, 28.227089852764
2344, 16.991623723359, 1.3060810070325, 30.058434922261
2345, 17.256689766638, 0.69809612239754, 26.041666666577
2346, 12.795288556643, 5.2418924973188, 34.374999999915
2347, 13.699901951461, 5.1278210632486, 38.313808540571
2348, 13.442094982004, 4.7663566223139, 42.975187618299
2349, 12.768384200711, 4.8608114465395, 25.92169297851
2350, 12.79528855668, 5.2418924972762, 30.208333333237
2351, 12.743310233341, 5.3019038776217, 32.291666666572
2352, 17.495939016134, 1.5461100482275, 49.649574316176
2353, 17.184003822692, 0.76443726570379, 47.002139354305
2354, 17.204711443343, 0.75810750269672, 38.541666666604
2355, 17.204711443367, 0.75810750266136, 9.3749999999601
2356, 17.144397064658, 0.82822451885711, 7.2916666666375
2357, 14.999999999971, 4.1392280675695, 4.8421550839724
2358, 15, 1.8607719332419, 45.157844917204
2359, 17.202388094276, 4.7019104754124, 9.3749999999603
2360, 17.20238809389, 1.2980895249162, 11.458333333283
2361, 16.652751384768, 1.6115415621951, 17.615090974715
2362, 12.797611906849, 4.7019104745106, 38.541666666604
2363, 12.797611906916, 4.7019104744875, 15.624999999929
2364, 12.797611906968, 1.298089525548, 36.458333333259
2365, 15.787299382871, 1.9630671995581, 42.922792745232
2366, 15, 4.1966889949017, 23.684632152571
2367, 13.799999999994, 3.104640817458, 47.138788518092
2368, 14.651525922538, 3.4415649586387, 20.000117929049
2369, 16.356870143649, 3.4999999999994, 47.543423016183
2370, 13.799999999982, 4.2800000000131, 39.095022543967
2371, 15.605269540365, 4.1312624159661, 35.381877485881
2372, 13.633447726801, 2.4999999999903, 2.4816666666578
2373, 16.263570148468, 2.4999999999903, 2.4954777814809
2374, 16.557932854615, 2.9966010333102, 21.578435794357
2375, 12.56004611574, 2.5830273654254, 21.874999999919
2376, 15.433204547266, 4.2221796375549, 14.076545641329
2377, 15.120488368621, 2.9845860423402, 7.7298997386171
2378, 15.621618708768, 2.6340575495068, 7.2916666666377
2379, 15.621618708815, 2.6340575494129, 40.624999999949
2380, 14.169436784683, 3.8509301312491, 3.2710061741138
2381, 14.918629721378, 3.3279095522726, 16.946912802177
2382, 15.277592928751, 3.0133271605373, 11.169744376431
2383, 14.999999999988, 2.7592064983765, 14.14825841065
2384, 14.23485729775, 3.578906543667, 29.73598290934
2385, 15.592983870139, 2.3786066942809, 38.696759941751
2386, 14.139043800037, 3.6531474399722, 34.374999999915
2387, 14.139043800011, 3.6531474400036, 44.791666666638
2388, 15.860956200045, 2.346852559967, 9.3749999999603
2389, 16.207089451649, 2.141527602937, 13.216334773636
2390, 14.884426583287, 3.2885485190345, 26.337492628785
2391, 16.066862508958, 2.0997649892549, 26.041666666577
2392, 16.066862508976, 2.0997649892189, 46.874999999983
2393, 13.933137490978, 3.9002350108387, 32.291666666572
2394, 16.195163334848, 1.596575267746, 48.594183905547
2395, 16.883270419214, 2.6239383969517, 15.688793382964
2396, 16.095537690991, 2.072365051326, 36.273585444087
2397, 15, 2.7596027524256, 48.39389250457
2398, 15.549595093752, 1.9736302110112, 21.921819910413
2399, 14.222560415887, 3.6055980263897, 42.198988235825
2400, 16.071804294184, 3.8313786439137, 44.96039308756
2401, 14.999999999971, 3.587253675078, 1.5473046317466
2402, 13.746012845808, 1.8956522414421, 15.745570324915
2403, 13.799999999994, 3.65816467953, 48.645749599639
2404, 14.271610170791, 3.755286944335, 12.62878991102
2405, 14.999999999971, 0.5999278079096, 0.65759736225895
2406, 13.566872306581, 3.7553369347883, 9.3749999999603
2407, 14.265021232111, 3.1994070698265, 37.110644494275
2408, 15.593168069585, 2.6500088278952, 32.807038527533
2409, 12.599999999996, 4.3604201299256, 48.411334995694
2410, 15.676734713778, 2.4999999999903, 28.749906771194
2411, 15.790722601514, 1.9655664390886, 30.916615166672
2412, 14.040597555804, 1.6881493083418, 9.5269161989416
2413, 14.936634358422, 1.8692744098167, 23.947462337998
2414, 16.199999999993, 2.1512486354056, 19.791666666586
2415, 16.256206331211, 4.3186263703879, 37.561664471001
2416, 15.204853679094, 4.351815423733, 48.276943229142
2417, 14.99999999999, 5.2752341236029, 49.455221173659
2418, 13.874255251203, 1.6269572693303, 1.3547259587858
2419, 13.981543134878, 4.1710741190772, 25.26291079222
2420, 6.4955547812537, 4.9816756827873, 15.624999999929
2422, 9.5759978504957, 0.83493211895412, 13.93234377974
2423, 11.227729498589, 2.6809786142173, 15.788283625478
2424, 10.888856977809, 1.2338723505357, 19.965300880104
2425, 11.267029877536, 0.73297012246306, 21.874999999917
2426, 9.5401290785935, 1.1230204924791, 31.968695524899
2427, 11.198950145467, 2.0572136746378, 29.874964410578
2428, 6.7329701224945, 5.2670298775036, 21.874999999917
2429, 6.732970122501, 5.2670298774971, 23.958333333247
2430, 6.7329701224629, 5.2670298775353, 30.208333333237
2431, 7.1587580888661, 4.751687844173, 28.347043049768
2432, 6.7329701224708, 5.2670298775274, 34.374999999915
2433, 10.69154587351, 1.7749411748266, 38.357904143991
2434, 7.1095530002473, 2.6872807335311, 42.659031672003
2435, 7.0720877540972, 5.2045146418322, 40.624999999949
2436, 6.7616643252823, 3.8805773986737, 46.410288561348
2437, 8.6321868866105, 5.4382753363783, 49.035476837643
2438, 9.5316153731379, 5.5665330722668, 49.709343462137
2439, 11.454172814032, 4.4999999999942, 49.075983820376
2440, 11.705188706928, 1.4198112930699, 46.874999999983
2441, 11.267029877531, 0.73297012246848, 36.458333333259
2442, 11.289197151452, 0.75197442718744, 30.133327356479
2443, 11.267029877557, 0.73297012244195, 26.041666666577
2444, 11.566533072286, 2.5316153731203, 49.709343462147
2445, 6.5571288674385, 4.4240403712677, 44.801071959264
2446, 6.7329701224804, 5.2670298775177, 42.708333333293
2447, 6.7329701224939, 5.2670298775042, 46.874999999983
2448, 6.7731020771854, 5.2268979228131, 36.458333333259
2449, 10.689787001644, 1.1366020335306, 17.354726504901
2450, 11.144424526587, 1.1158378580775, 11.690696220055
2451, 11.327300369015, 2.4473324335095, 7.3509917972297
2452, 7.8417288207911, 4.697498472447, 4.930383718261
2453, 6.4334669277956, 2.4683846269121, 0.2906565379166
2454, 8.4694359090526, 1.2813628274742, 0.27257347440302
2455, 9.5587719093902, 0.36102014206348, 0.33588457380321
2456, 11.549999999999, 0.44999999999804, 0.93749999999624
2457, 10.468384626945, 0.43346692776884, 0.2906565379274
2458, 9.8115716773487, 0.93069488144405, 3.1874325543082
2459, 11.496361846317, 0.50363815368255, 5.2083333333133
2460, 11.55874857951, 0.44125142048843, 9.4628282153065
2461, 7.3229748795376, 3.5341503978592, 1.05759563808
2462, 7.0150334772827, 4.7199442575831, 9.1544101692769
2463, 6.7329701224721, 5.267029877526, 11.458333333283
2464, 6.5395989130747, 5.5259295609431, 1.0932634506988
2465, 7.4806777056379, 0.5788591035289, 1.0337088265198
2466, 7.4003943283011, 1.0816363418966, 13.272170826743
2467, 6.7329701224994, 5.2670298774988, 17.708333333257
2468, 11.013099346959, 0.98690065305168, 9.3749999999603
2469, 10.820754827712, 1.1792451722982, 46.874999999983
2470, 7.1792451729634, 4.8207548270456, 15.624999999929
2471, 7.2220961484127, 4.7779038515951, 32.291666666572
2472, 10.77790385121, 1.2220961487991, 5.2083333333133
2473, 8.5736027331833, 1.6952697460597, 11.373395183974
2474, 7.7452350472491, 4.2547649527575, 3.1249999999878
2475, 7.9864488934812, 4.3186416185089, 7.4065038488961
2476, 7.745235047541, 4.2547649524642, 38.541666666604
2477, 9.5126603096205, 2.48733969039, 28.124999999907
2478, 8.4873396907653, 3.5126603092422, 19.791666666587
2479, 9.6142581251147, 2.6612333015856, 45.044587161699
2480, 8.4393024262187, 3.8299156513058, 14.01456545573
2481, 9.4999999999961, 2.4999999999903, 2.4678440126135
2482, 9.499999999998, 3.4999999999902, 47.518333333324
2483, 8.8618508503063, 3.1041626013809, 31.536502896851
2484, 8.9656747580708, 2.8104498387128, 41.869261138091
2485, 8.3180709751655, 3.6819290248495, 36.458333333259
2486, 8.7060677819257, 3.896966109044, 9.8593185493418
2487, 9.4958229472328, 2.4956305854035, 23.838107412874
2488, 8.1559027147648, 3.8440972852484, 23.958333333247
2489, 8.1559027147581, 3.844097285255, 17.708333333257
2490, 8.1559027147385, 3.8440972852747, 21.874999999917
2491, 8.1559027147361, 3.8440972852771, 46.874999999983
2492, 8.1559027146814, 3.8440972853318, 42.708333333293
2493, 8.155902714648, 3.8440972853652, 11.458333333283
2494, 8.1559027146425, 3.8440972853707, 34.374999999915
2495, 9.942944824512, 2.0087486572897, 36.291706962246
2496, 8.1559027146105, 3.8440972854026, 30.208333333237
2497, 9.8440972854005, 2.1559027146056, 21.874999999917
2498, 9.6991630714453, 1.9384146251962, 30.205719285053
2499, 10.818754078829, 2.8023495637779, 32.009427460973
2500, 9.8440972854858, 2.1559027145202, 26.041666666577
2501, 8.9420380996561, 3.0423661503174, 5.18055548305
2502, 7.4999999999931, 5.029483026234, 1.458578883266
2503, 8.2032525365064, 3.4741485973259, 1.5361423723869
2504, 9.3092014760616, 2.289329734067, 7.5289671890057
2505, 9.4109266188554, 2.4865463073048, 39.364321311413
2506, 10.490521132774, 1.6046064601824, 1.9390222860279
2507, 10.310791107127, 2.4999999999901, 48.387513064752
2508, 7.3554084144776, 1.6706389733839, 2.1915433100489
2509, 9.4272245296224, 2.3652953701555, 16.239966211567
2510, 8.4999999999954, 4.3862796218503, 48.423747551817
2511, 10.386279621874, 4.4999999999941, 48.42374755183
2512, 10.173295229424, 2.1534095411565, 18.304869971355
2513, 9.7829093586994, 2.378701230357, 12.884082416013
2514, 9.5213976802486, 2.2747681623042, 33.337561878532
2515, 7.4067789535508, 3.6272725359051, 40.624999999949
2516, 10.745668506304, 0.68255968565468, 18.666808348562
2517, 8.4999999999982, 1.8593145321151, 48.133391382501
2518, 8.1621483551831, 4.0591026440707, 26.975413396983
2519, 8.228515469754, 4.1961614850881, 44.829287837142
2520, 9.4999999999961, 4.4999999999942, 1.4202298107564
2521, 10.567646784292, 3.8311809949424, 15.624999999929
2522, 9.6627106978455, 5.4999999999986, 48.608200239748
2523, 8.4999999999945, 2.2293124518188, 1.2313280920031
2524, 8.0298517512456, 1.9951699468138, 43.491809752334
2525, 5.138317087367, 1.300521362366, 11.382065488423
2526, 4.7786431601314, 1.2097525671429, 7.1589398136573
2527, 5.2670298775153, 0.73297012248335, 13.541666666605
2529, 5.2499999999981, 5.4166666666645, 11.516203703653
2530, 5.2037588015449, 2.4184499395549, 9.3311225173473
2531, 0.81818181817869, 5.1818181818152, 3.0080303030225
2532, 0.90968081653184, 4.6879689760165, 7.5342536846051
2533, 2.4683846269216, 5.5665330722933, 0.29065653793085
2534, 5.4541728139908, 4.4999999999942, 0.92401617964639
2535, 5.5665330722812, 2.4683846269148, 0.29065653793979
2536, 5.2670298775351, 0.73297012246354, 5.2083333333133
2537, 1.3763114376029, 1.9633046111707, 20.03486863386
2538, 1.0549322124651, 4.577397077061, 15.598946511037
2539, 0.73297012247991, 5.2670298775196, 13.541666666605
2540, 0.44125142042685, 5.5587485795729, 11.370505117916
2541, 5.1825358511564, 1.394149085378, 15.24302818628
2542, 5.8178504701539, 2.2112478537701, 17.689076707266
2543, 0.74646584384141, 4.2993423198275, 17.166428643418
2544, 0.73297012247923, 5.2670298775206, 19.791666666587
2545, 0.50363815356239, 5.4963618464391, 21.874999999917
2546, 0.73297012249532, 5.2670298775048, 23.958333333247
2547, 2.9301525265055, 4.9512285824463, 28.200689711576
2548, 1.1203308117073, 5.3432022630457, 30.208333333237
2549, 0.61139265748841, 4.8332286727991, 36.458333333259
2550, 0.43346692776678, 3.5316153731329, 49.709343462145
2551, 1.2813628274394, 2.5305640910464, 49.727426525669
2553, 1.4999999999947, 0.54509663778816, 49.076534443189
2554, 3.5316153731211, 0.43346692779433, 49.709343462143
2555, 5.2670298775114, 0.7329701224873, 40.624999999949
2556, 4.7370288064004, 1.1698880012248, 38.195344019017
2557, 5.2670298775198, 0.73297012247882, 36.458333333259
2558, 4.9528955109808, 1.1690122000611, 44.644239697131
2559, 2.2723879271048, 4.6608481947222, 42.825272942447
2560, 0.58333333333097, 0.74999999999988, 28.067129629536
2561, 0.53897567865159, 3.5860243213472, 26.041666666577
2562, 0.73297012246473, 5.2670298775355, 26.041666666577
2563, 0.7136437226838, 3.9379766476841, 24.440586419654
2564, 3.4325239461202, 0.73558451045574, 21.874999999918
2565, 5.2670298775134, 0.73297012248525, 19.791666666587
2566, 5.2670298775062, 0.7329701224925, 23.958333333247
2567, 5.2670298775231, 0.7329701224756, 26.041666666577
2568, 5.4610243213208, 2.4139756786743, 23.958333333247
2569, 4.9737043645967, 2.8083315981769, 30.562757423703
2570, 3.8095862464324, 1.2956452739592, 31.978143739846
2571, 3.0765700609901, 4.8829930449605, 32.350442708593
2572, 5.5486129438426, 1.8347052550036, 21.839836483905
2573, 0.50363815363001, 5.4963618463727, 32.291666666572
2574, 0.89407813773454, 4.77384993311, 46.924640729659
2575, 1.4035783662631, 4.8617015719623, 44.907660741151
2576, 0.43346692776456, 4.5316153731213, 49.709343462128
2577, 1.6781312693395, 5.431083929309, 5.0962152326536
2578, 0.98690065279871, 5.0130993472166, 11.458333333283
2579, 1.2220961483009, 4.7779038517126, 21.874999999917
2580, 1.2220961485771, 4.7779038514365, 32.291666666572
2581, 1.2220961487004, 4.7779038513132, 9.3749999999603
2582, 4.7779038512374, 1.2220961487635, 28.124999999906
2583, 4.7779038509315, 1.2220961490626, 42.708333333293
2584, 3.4999999999904, 4.73570193947, 9.3120594714019
2585, 1.7452350473232, 4.2547649526863, 17.708333333257
2586, 1.7452350474956, 4.254764952514, 30.208333333237
2587, 2.8201174508094, 2.4999999999996, 47.211020580562
2588, 2.4873396903985, 3.5126603096133, 7.2916666666377
2589, 2.5307969488453, 3.4692030511662, 21.874999999917
2590, 2.5307969488944, 3.469203051117, 15.624999999929
2591, 2.257019827138, 1.2985086961692, 10.381602829365
2592, 2.8625116361508, 3.1374883638478, 36.458333333259
2593, 2.9568185340391, 2.8621209773094, 24.834287363791
2594, 2.4999999999903, 3.4999999999904, 2.4816666666795
2595, 2.987676823855, 3.1438569626574, 12.657668568597
2596, 2.6982451559362, 3.3017548440616, 44.45329745412
2597, 2.5000000000042, 3.1151389708379, 41.535148456703
2598, 3.1402771650336, 2.8597228349654, 33.215150664871
2599, 0.27466875705375, 3.855774765886, 43.110738615483
2600, 2.3874241915229, 5.3531139433709, 34.78741672377
2601, 3.2798087641415, 2.1987838895436, 39.042217719067
2602, 3.0783837429819, 3.2309489851474, 27.756142775997
2603, 2.8147261694397, 2.4708849768041, 19.401812556738
2604, 4.5275357017523, 4.71164555411, 18.556486497384
2605, 2.1559027147306, 3.8440972852696, 23.958333333247
2606, 3.8440972852834, 2.1559027147261, 23.958333333247
2607, 5.6417314801356, 2.7484899247722, 21.329140402135
2608, 3.8440972853044, 2.1559027147051, 40.624999999949
2609, 3.8440972853127, 2.1559027146968, 19.791666666587
2610, 3.8440972853204, 2.1559027146891, 13.541666666605
2611, 2.1559027146713, 3.8440972853331, 13.541666666605
2612, 2.1559027146668, 3.8440972853352, 19.791666666587
2613, 3.8440972853517, 2.1559027146578, 26.041666666577
2614, 3.8440972853387, 2.1559027146708, 36.458333333259
2615, 3.8440972854004, 2.155902714609, 5.2083333333133
2616, 2.1559027146063, 3.8440972853931, 26.041666666577
2617, 3.4449976160924, 2.1255657032852, 30.523833736551
2618, 5.2845847992341, 2.2852154466278, 31.737892199621
2619, 1.9652950196272, 5.752821406686, 28.124999999906
2620, 2.3045448630657, 2.5802943704985, 29.386625602452
2621, 4.3183554816364, 2.2273521976482, 2.2794071706034
2622, 3.4999999999939, 1.6892088931292, 48.387513064628
2623, 1.6892088930854, 4.5000000000025, 48.38751306465
2624, 2.3330351815659, 4.0834824092157, 46.158645370223
2625, 1.5000000000029, 3.3533019235513, 43.703017775923
2626, 4.3862796216913, 4.4999999999942, 1.5762524482539
2627, 1.4999999999963, 1.6103847933549, 48.425348632519
2628, 1.9814827896719, 3.3189170249281, 5.0217549267987
2629, 3.6298488969988, 1.803774859236, 8.4991418178495
2630, 3.3981723538999, 2.2603490605968, 17.524959022204
2631, 0.93791772159509, 4.1657839672475, 44.857748615127
2632, 3.6272725359235, 1.4067789535461, 11.458333333283
2633, 4.3353411492906, 1.9068424333669, 21.898512369695
2634, 4.1534384270293, 4.2088116395885, 31.19290690438
2635, 3.5000000000009, 3.9847530984917, 48.172287377389
2636, 2.4999999999903, 4.4616689098395, 1.3184035273372
2637, 3.8747821948104, 4.3121372980973, 42.708333333293
2638, 5.2489854899912, 0.70528502789009, 32.15690200086
2639, 2.2135474993255, 1.652670002532, 2.4191927359766
2640, 4.2149595776118, 2.0156209970158, 45.723175132107
2641, 4.2738777518578, 2.6830515752504, 15.641997280504
2642, 2.1803889118413, 1.4990941246386, 21.874999999917
2643, 4.0486485262132, 2.8228444187131, 10.142448377198
2644, 1.5000000000012, 3.9417734312871, 36.458333333259
2645, 2.0138074955852, 3.9861925044148, 38.627175746006
2646, 0.80935413706384, 5.4183171169223, 42.78175876257
******* E L E M E N T S *************
*ELEMENT, type=T3D2, ELSET=Line1
21, 1, 21
22, 21, 22
23, 22, 23
24, 23, 24
25, 24, 25
26, 25, 2
*ELEMENT, type=T3D2, ELSET=Line2
27, 2, 26
28, 26, 27
29, 27, 28
30, 28, 29
31, 29, 30
32, 30, 3
*ELEMENT, type=T3D2, ELSET=Line3
33, 3, 31
34, 31, 32
35, 32, 33
36, 33, 34
37, 34, 4
*ELEMENT, type=T3D2, ELSET=Line4
38, 4, 35
39, 35, 36
40, 36, 37
41, 37, 38
42, 38, 39
43, 39, 40
44, 40, 41
45, 41, 42
46, 42, 5
*ELEMENT, type=T3D2, ELSET=Line5
47, 10, 43
48, 43, 44
49, 44, 45
50, 45, 46
51, 46, 47
52, 47, 9
*ELEMENT, type=T3D2, ELSET=Line6
53, 9, 48
54, 48, 49
55, 49, 50
56, 50, 51
57, 51, 52
58, 52, 8
*ELEMENT, type=T3D2, ELSET=Line7
59, 8, 53
60, 53, 54
61, 54, 55
62, 55, 56
63, 56, 7
*ELEMENT, type=T3D2, ELSET=Line8
64, 7, 57
65, 57, 58
66, 58, 59
67, 59, 60
68, 60, 61
69, 61, 62
70, 62, 63
71, 63, 64
72, 64, 6
*ELEMENT, type=T3D2, ELSET=Line9
73, 1, 65
74, 65, 66
75, 66, 67
76, 67, 68
77, 68, 69
78, 69, 10
*ELEMENT, type=T3D2, ELSET=Line10
79, 2, 70
80, 70, 71
81, 71, 72
82, 72, 73
83, 73, 74
84, 74, 9
*ELEMENT, type=T3D2, ELSET=Line11
85, 3, 75
86, 75, 76
87, 76, 77
88, 77, 78
89, 78, 79
90, 79, 8
*ELEMENT, type=T3D2, ELSET=Line12
91, 4, 80
92, 80, 81
93, 81, 82
94, 82, 83
95, 83, 84
96, 84, 7
*ELEMENT, type=T3D2, ELSET=Line13
97, 5, 85
98, 85, 86
99, 86, 87
100, 87, 88
101, 88, 89
102, 89, 6
*ELEMENT, type=T3D2, ELSET=Line15
103, 11, 90
104, 90, 91
105, 91, 92
106, 92, 93
107, 93, 94
108, 94, 12
*ELEMENT, type=T3D2, ELSET=Line16
109, 12, 95
110, 95, 96
111, 96, 97
112, 97, 98
113, 98, 99
114, 99, 100
115, 100, 101
116, 101, 102
117, 102, 13
*ELEMENT, type=T3D2, ELSET=Line17
118, 13, 103
119, 103, 104
120, 104, 105
121, 105, 106
122, 106, 107
123, 107, 14
*ELEMENT, type=T3D2, ELSET=Line18
124, 14, 108
125, 108, 109
126, 109, 110
127, 110, 111
128, 111, 112
129, 112, 113
130, 113, 114
131, 114, 115
132, 115, 11
*ELEMENT, type=T3D2, ELSET=Line20
133, 4, 116
134, 116, 117
135, 117, 118
136, 118, 119
137, 119, 120
138, 120, 121
139, 121, 122
140, 122, 123
141, 123, 124
142, 124, 125
143, 125, 126
144, 126, 127
145, 127, 128
146, 128, 129
147, 129, 130
148, 130, 131
149, 131, 132
150, 132, 133
151, 133, 134
152, 134, 135
153, 135, 136
154, 136, 137
155, 137, 138
156, 138, 11
*ELEMENT, type=T3D2, ELSET=Line21
157, 7, 139
158, 139, 140
159, 140, 141
160, 141, 142
161, 142, 143
162, 143, 144
163, 144, 145
164, 145, 146
165, 146, 147
166, 147, 148
167, 148, 149
168, 149, 150
169, 150, 151
170, 151, 152
171, 152, 153
172, 153, 154
173, 154, 155
174, 155, 156
175, 156, 157
176, 157, 158
177, 158, 159
178, 159, 160
179, 160, 161
180, 161, 12
*ELEMENT, type=T3D2, ELSET=Line25
181, 6, 162
182, 162, 163
183, 163, 164
184, 164, 165
185, 165, 166
186, 166, 167
187, 167, 168
188, 168, 169
189, 169, 170
190, 170, 171
191, 171, 172
192, 172, 173
193, 173, 174
194, 174, 175
195, 175, 176
196, 176, 177
197, 177, 178
198, 178, 179
199, 179, 180
200, 180, 181
201, 181, 182
202, 182, 183
203, 183, 184
204, 184, 13
*ELEMENT, type=T3D2, ELSET=Line29
205, 5, 185
206, 185, 186
207, 186, 187
208, 187, 188
209, 188, 189
210, 189, 190
211, 190, 191
212, 191, 192
213, 192, 193
214, 193, 194
215, 194, 195
216, 195, 196
217, 196, 197
218, 197, 198
219, 198, 199
220, 199, 200
221, 200, 201
222, 201, 202
223, 202, 203
224, 203, 204
225, 204, 205
226, 205, 206
227, 206, 207
228, 207, 14
*ELEMENT, type=T3D2, ELSET=Line37
229, 15, 208
230, 208, 209
231, 209, 210
232, 210, 211
233, 211, 12
*ELEMENT, type=T3D2, ELSET=Line39
234, 11, 212
235, 212, 213
236, 213, 214
237, 214, 215
238, 215, 16
*ELEMENT, type=T3D2, ELSET=Line40
239, 16, 216
240, 216, 217
241, 217, 218
242, 218, 219
243, 219, 220
244, 220, 15
*ELEMENT, type=T3D2, ELSET=Line42
245, 8, 221
246, 221, 222
247, 222, 223
248, 223, 224
249, 224, 225
250, 225, 226
251, 226, 227
252, 227, 228
253, 228, 229
254, 229, 230
255, 230, 231
256, 231, 232
257, 232, 233
258, 233, 234
259, 234, 235
260, 235, 236
261, 236, 237
262, 237, 238
263, 238, 239
264, 239, 240
265, 240, 241
266, 241, 242
267, 242, 243
268, 243, 15
*ELEMENT, type=T3D2, ELSET=Line51
269, 3, 244
270, 244, 245
271, 245, 246
272, 246, 247
273, 247, 248
274, 248, 249
275, 249, 250
276, 250, 251
277, 251, 252
278, 252, 253
279, 253, 254
280, 254, 255
281, 255, 256
282, 256, 257
283, 257, 258
284, 258, 259
285, 259, 260
286, 260, 261
287, 261, 262
288, 262, 263
289, 263, 264
290, 264, 265
291, 265, 266
292, 266, 16
*ELEMENT, type=T3D2, ELSET=Line59
293, 17, 267
294, 267, 268
295, 268, 269
296, 269, 270
297, 270, 271
298, 271, 15
*ELEMENT, type=T3D2, ELSET=Line61
299, 16, 272
300, 272, 273
301, 273, 274
302, 274, 275
303, 275, 276
304, 276, 18
*ELEMENT, type=T3D2, ELSET=Line62
305, 18, 277
306, 277, 278
307, 278, 279
308, 279, 280
309, 280, 281
310, 281, 17
*ELEMENT, type=T3D2, ELSET=Line64
311, 9, 282
312, 282, 283
313, 283, 284
314, 284, 285
315, 285, 286
316, 286, 287
317, 287, 288
318, 288, 289
319, 289, 290
320, 290, 291
321, 291, 292
322, 292, 293
323, 293, 294
324, 294, 295
325, 295, 296
326, 296, 297
327, 297, 298
328, 298, 299
329, 299, 300
330, 300, 301
331, 301, 302
332, 302, 303
333, 303, 304
334, 304, 17
*ELEMENT, type=T3D2, ELSET=Line73
335, 2, 305
336, 305, 306
337, 306, 307
338, 307, 308
339, 308, 309
340, 309, 310
341, 310, 311
342, 311, 312
343, 312, 313
344, 313, 314
345, 314, 315
346, 315, 316
347, 316, 317
348, 317, 318
349, 318, 319
350, 319, 320
351, 320, 321
352, 321, 322
353, 322, 323
354, 323, 324
355, 324, 325
356, 325, 326
357, 326, 327
358, 327, 18
*ELEMENT, type=T3D2, ELSET=Line81
359, 19, 328
360, 328, 329
361, 329, 330
362, 330, 331
363, 331, 332
364, 332, 18
*ELEMENT, type=T3D2, ELSET=Line83
365, 17, 333
366, 333, 334
367, 334, 335
368, 335, 336
369, 336, 337
370, 337, 20
*ELEMENT, type=T3D2, ELSET=Line84
371, 20, 338
372, 338, 339
373, 339, 340
374, 340, 341
375, 341, 342
376, 342, 19
*ELEMENT, type=T3D2, ELSET=Line86
377, 1, 343
378, 343, 344
379, 344, 345
380, 345, 346
381, 346, 347
382, 347, 348
383, 348, 349
384, 349, 350
385, 350, 351
386, 351, 352
387, 352, 353
388, 353, 354
389, 354, 355
390, 355, 356
391, 356, 357
392, 357, 358
393, 358, 359
394, 359, 360
395, 360, 361
396, 361, 362
397, 362, 363
398, 363, 364
399, 364, 365
400, 365, 19
*ELEMENT, type=T3D2, ELSET=Line95
401, 10, 366
402, 366, 367
403, 367, 368
404, 368, 369
405, 369, 370
406, 370, 371
407, 371, 372
408, 372, 373
409, 373, 374
410, 374, 375
411, 375, 376
412, 376, 377
413, 377, 378
414, 378, 379
415, 379, 380
416, 380, 381
417, 381, 382
418, 382, 383
419, 383, 384
420, 384, 385
421, 385, 386
422, 386, 387
423, 387, 388
424, 388, 20
*ELEMENT, type=CPS3, ELSET=Surface1
425, 1, 21, 65
426, 25, 2, 409
427, 409, 2, 70
428, 47, 74, 9
429, 10, 393, 43
430, 69, 393, 10
431, 21, 22, 389
432, 65, 21, 389
433, 22, 23, 394
434, 389, 22, 394
435, 23, 24, 399
436, 394, 23, 399
437, 24, 25, 404
438, 399, 24, 404
439, 404, 25, 409
440, 43, 398, 44
441, 393, 398, 43
442, 44, 403, 45
443, 398, 403, 44
444, 45, 408, 46
445, 403, 408, 45
446, 46, 413, 47
447, 408, 413, 46
448, 413, 74, 47
449, 65, 389, 66
450, 66, 390, 67
451, 66, 389, 390
452, 67, 391, 68
453, 67, 390, 391
454, 68, 392, 69
455, 68, 391, 392
456, 69, 392, 393
457, 410, 70, 71
458, 409, 70, 410
459, 411, 71, 72
460, 410, 71, 411
461, 412, 72, 73
462, 411, 72, 412
463, 413, 73, 74
464, 412, 73, 413
465, 389, 394, 390
466, 390, 395, 391
467, 390, 394, 395
468, 391, 396, 392
469, 391, 395, 396
470, 392, 397, 393
471, 392, 396, 397
472, 393, 397, 398
473, 394, 399, 395
474, 395, 400, 396
475, 395, 399, 400
476, 396, 401, 397
477, 396, 400, 401
478, 397, 402, 398
479, 397, 401, 402
480, 398, 402, 403
481, 399, 404, 400
482, 400, 405, 401
483, 400, 404, 405
484, 401, 406, 402
485, 401, 405, 406
486, 402, 407, 403
487, 402, 406, 407
488, 403, 407, 408
489, 404, 409, 405
490, 405, 410, 406
491, 405, 409, 410
492, 406, 411, 407
493, 406, 410, 411
494, 407, 412, 408
495, 407, 411, 412
496, 408, 412, 413
*ELEMENT, type=CPS3, ELSET=Surface2
497, 2, 418, 26
498, 70, 418, 2
499, 30, 75, 3
500, 52, 8, 434
501, 434, 8, 79
502, 9, 48, 74
503, 26, 423, 27
504, 418, 423, 26
505, 27, 428, 28
506, 423, 428, 27
507, 28, 433, 29
508, 428, 433, 28
509, 29, 438, 30
510, 433, 438, 29
511, 438, 75, 30
512, 48, 49, 414
513, 74, 48, 414
514, 49, 50, 419
515, 414, 49, 419
516, 50, 51, 424
517, 419, 50, 424
518, 51, 52, 429
519, 424, 51, 429
520, 429, 52, 434
521, 71, 417, 70
522, 70, 417, 418
523, 72, 416, 71
524, 71, 416, 417
525, 73, 415, 72
526, 72, 415, 416
527, 74, 414, 73
528, 73, 414, 415
529, 438, 76, 75
530, 437, 77, 76
531, 437, 76, 438
532, 436, 78, 77
533, 436, 77, 437
534, 435, 79, 78
535, 435, 78, 436
536, 434, 79, 435
537, 414, 419, 415
538, 415, 420, 416
539, 415, 419, 420
540, 416, 421, 417
541, 416, 420, 421
542, 417, 422, 418
543, 417, 421, 422
544, 418, 422, 423
545, 419, 424, 420
546, 420, 425, 421
547, 420, 424, 425
548, 421, 426, 422
549, 421, 425, 426
550, 422, 427, 423
551, 422, 426, 427
552, 423, 427, 428
553, 424, 429, 425
554, 425, 430, 426
555, 425, 429, 430
556, 426, 431, 427
557, 426, 430, 431
558, 427, 432, 428
559, 427, 431, 432
560, 428, 432, 433
561, 429, 434, 430
562, 430, 435, 431
563, 430, 434, 435
564, 431, 436, 432
565, 431, 435, 436
566, 432, 437, 433
567, 432, 436, 437
568, 433, 437, 438
*ELEMENT, type=CPS3, ELSET=Surface3
569, 3, 443, 31
570, 75, 443, 3
571, 34, 80, 4
572, 56, 7, 454
573, 454, 7, 84
574, 8, 53, 79
575, 31, 448, 32
576, 443, 448, 31
577, 32, 453, 33
578, 448, 453, 32
579, 33, 458, 34
580, 453, 458, 33
581, 458, 80, 34
582, 53, 54, 439
583, 79, 53, 439
584, 54, 55, 444
585, 439, 54, 444
586, 55, 56, 449
587, 444, 55, 449
588, 449, 56, 454
589, 76, 442, 75
590, 75, 442, 443
591, 77, 441, 76
592, 76, 441, 442
593, 78, 440, 77
594, 77, 440, 441
595, 79, 439, 78
596, 78, 439, 440
597, 458, 81, 80
598, 457, 82, 81
599, 457, 81, 458
600, 456, 83, 82
601, 456, 82, 457
602, 455, 84, 83
603, 455, 83, 456
604, 454, 84, 455
605, 439, 444, 440
606, 440, 445, 441
607, 440, 444, 445
608, 441, 446, 442
609, 441, 445, 446
610, 442, 447, 443
611, 442, 446, 447
612, 443, 447, 448
613, 444, 449, 445
614, 445, 450, 446
615, 445, 449, 450
616, 446, 451, 447
617, 446, 450, 451
618, 447, 452, 448
619, 447, 451, 452
620, 448, 452, 453
621, 449, 454, 450
622, 450, 455, 451
623, 450, 454, 455
624, 451, 456, 452
625, 451, 455, 456
626, 452, 457, 453
627, 452, 456, 457
628, 453, 457, 458
*ELEMENT, type=CPS3, ELSET=Surface4
629, 4, 80, 35
630, 42, 466, 5
631, 5, 466, 85
632, 89, 64, 6
633, 491, 7, 57
634, 84, 7, 491
635, 35, 459, 36
636, 35, 80, 459
637, 36, 460, 37
638, 36, 459, 460
639, 37, 461, 38
640, 37, 460, 461
641, 38, 462, 39
642, 38, 461, 462
643, 39, 463, 40
644, 39, 462, 463
645, 40, 464, 41
646, 40, 463, 464
647, 41, 465, 42
648, 41, 464, 465
649, 42, 465, 466
650, 492, 57, 58
651, 491, 57, 492
652, 493, 58, 59
653, 492, 58, 493
654, 494, 59, 60
655, 493, 59, 494
656, 495, 60, 61
657, 494, 60, 495
658, 496, 61, 62
659, 495, 61, 496
660, 497, 62, 63
661, 496, 62, 497
662, 498, 63, 64
663, 497, 63, 498
664, 498, 64, 89
665, 80, 81, 459
666, 81, 82, 467
667, 459, 81, 467
668, 82, 83, 475
669, 467, 82, 475
670, 83, 84, 483
671, 475, 83, 483
672, 483, 84, 491
673, 85, 474, 86
674, 466, 474, 85
675, 86, 482, 87
676, 474, 482, 86
677, 87, 490, 88
678, 482, 490, 87
679, 88, 498, 89
680, 490, 498, 88
681, 459, 467, 460
682, 460, 468, 461
683, 460, 467, 468
684, 461, 469, 462
685, 461, 468, 469
686, 462, 470, 463
687, 462, 469, 470
688, 463, 471, 464
689, 463, 470, 471
690, 464, 472, 465
691, 464, 471, 472
692, 465, 473, 466
693, 465, 472, 473
694, 466, 473, 474
695, 467, 475, 468
696, 468, 476, 469
697, 468, 475, 476
698, 469, 477, 470
699, 469, 476, 477
700, 470, 478, 471
701, 470, 477, 478
702, 471, 479, 472
703, 471, 478, 479
704, 472, 480, 473
705, 472, 479, 480
706, 473, 481, 474
707, 473, 480, 481
708, 474, 481, 482
709, 475, 483, 476
710, 476, 484, 477
711, 476, 483, 484
712, 477, 485, 478
713, 477, 484, 485
714, 478, 486, 479
715, 478, 485, 486
716, 479, 487, 480
717, 479, 486, 487
718, 480, 488, 481
719, 480, 487, 488
720, 481, 489, 482
721, 481, 488, 489
722, 482, 489, 490
723, 483, 491, 484
724, 484, 492, 485
725, 484, 491, 492
726, 485, 493, 486
727, 485, 492, 493
728, 486, 494, 487
729, 486, 493, 494
730, 487, 495, 488
731, 487, 494, 495
732, 488, 496, 489
733, 488, 495, 496
734, 489, 497, 490
735, 489, 496, 497
736, 490, 497, 498
*ELEMENT, type=CPS3, ELSET=Surface22
737, 4, 80, 116
738, 84, 7, 591
739, 591, 7, 139
740, 11, 521, 90
741, 138, 521, 11
742, 94, 161, 12
743, 80, 81, 499
744, 116, 80, 499
745, 81, 82, 522
746, 499, 81, 522
747, 82, 83, 545
748, 522, 82, 545
749, 83, 84, 568
750, 545, 83, 568
751, 568, 84, 591
752, 90, 544, 91
753, 521, 544, 90
754, 91, 567, 92
755, 544, 567, 91
756, 92, 590, 93
757, 567, 590, 92
758, 93, 613, 94
759, 590, 613, 93
760, 613, 161, 94
761, 116, 499, 117
762, 117, 500, 118
763, 117, 499, 500
764, 118, 501, 119
765, 118, 500, 501
766, 119, 502, 120
767, 119, 501, 502
768, 120, 503, 121
769, 120, 502, 503
770, 121, 504, 122
771, 121, 503, 504
772, 122, 505, 123
773, 122, 504, 505
774, 123, 506, 124
775, 123, 505, 506
776, 124, 507, 125
777, 124, 506, 507
778, 125, 508, 126
779, 125, 507, 508
780, 126, 509, 127
781, 126, 508, 509
782, 127, 510, 128
783, 127, 509, 510
784, 128, 511, 129
785, 128, 510, 511
786, 129, 512, 130
787, 129, 511, 512
788, 130, 513, 131
789, 130, 512, 513
790, 131, 514, 132
791, 131, 513, 514
792, 132, 515, 133
793, 132, 514, 515
794, 133, 516, 134
795, 133, 515, 516
796, 134, 517, 135
797, 134, 516, 517
798, 135, 518, 136
799, 135, 517, 518
800, 136, 519, 137
801, 136, 518, 519
802, 137, 520, 138
803, 137, 519, 520
804, 138, 520, 521
805, 592, 139, 140
806, 591, 139, 592
807, 593, 140, 141
808, 592, 140, 593
809, 594, 141, 142
810, 593, 141, 594
811, 595, 142, 143
812, 594, 142, 595
813, 596, 143, 144
814, 595, 143, 596
815, 597, 144, 145
816, 596, 144, 597
817, 598, 145, 146
818, 597, 145, 598
819, 599, 146, 147
820, 598, 146, 599
821, 600, 147, 148
822, 599, 147, 600
823, 601, 148, 149
824, 600, 148, 601
825, 602, 149, 150
826, 601, 149, 602
827, 603, 150, 151
828, 602, 150, 603
829, 604, 151, 152
830, 603, 151, 604
831, 605, 152, 153
832, 604, 152, 605
833, 606, 153, 154
834, 605, 153, 606
835, 607, 154, 155
836, 606, 154, 607
837, 608, 155, 156
838, 607, 155, 608
839, 609, 156, 157
840, 608, 156, 609
841, 610, 157, 158
842, 609, 157, 610
843, 611, 158, 159
844, 610, 158, 611
845, 612, 159, 160
846, 611, 159, 612
847, 613, 160, 161
848, 612, 160, 613
849, 499, 522, 500
850, 500, 523, 501
851, 500, 522, 523
852, 501, 524, 502
853, 501, 523, 524
854, 502, 525, 503
855, 502, 524, 525
856, 503, 526, 504
857, 503, 525, 526
858, 504, 527, 505
859, 504, 526, 527
860, 505, 528, 506
861, 505, 527, 528
862, 506, 529, 507
863, 506, 528, 529
864, 507, 530, 508
865, 507, 529, 530
866, 508, 531, 509
867, 508, 530, 531
868, 509, 532, 510
869, 509, 531, 532
870, 510, 533, 511
871, 510, 532, 533
872, 511, 534, 512
873, 511, 533, 534
874, 512, 535, 513
875, 512, 534, 535
876, 513, 536, 514
877, 513, 535, 536
878, 514, 537, 515
879, 514, 536, 537
880, 515, 538, 516
881, 515, 537, 538
882, 516, 539, 517
883, 516, 538, 539
884, 517, 540, 518
885, 517, 539, 540
886, 518, 541, 519
887, 518, 540, 541
888, 519, 542, 520
889, 519, 541, 542
890, 520, 543, 521
891, 520, 542, 543
892, 521, 543, 544
893, 522, 545, 523
894, 523, 546, 524
895, 523, 545, 546
896, 524, 547, 525
897, 524, 546, 547
898, 525, 548, 526
899, 525, 547, 548
900, 526, 549, 527
901, 526, 548, 549
902, 527, 550, 528
903, 527, 549, 550
904, 528, 551, 529
905, 528, 550, 551
906, 529, 552, 530
907, 529, 551, 552
908, 530, 553, 531
909, 530, 552, 553
910, 531, 554, 532
911, 531, 553, 554
912, 532, 555, 533
913, 532, 554, 555
914, 533, 556, 534
915, 533, 555, 556
916, 534, 557, 535
917, 534, 556, 557
918, 535, 558, 536
919, 535, 557, 558
920, 536, 559, 537
921, 536, 558, 559
922, 537, 560, 538
923, 537, 559, 560
924, 538, 561, 539
925, 538, 560, 561
926, 539, 562, 540
927, 539, 561, 562
928, 540, 563, 541
929, 540, 562, 563
930, 541, 564, 542
931, 541, 563, 564
932, 542, 565, 543
933, 542, 564, 565
934, 543, 566, 544
935, 543, 565, 566
936, 544, 566, 567
937, 545, 568, 546
938, 546, 569, 547
939, 546, 568, 569
940, 547, 570, 548
941, 547, 569, 570
942, 548, 571, 549
943, 548, 570, 571
944, 549, 572, 550
945, 549, 571, 572
946, 550, 573, 551
947, 550, 572, 573
948, 551, 574, 552
949, 551, 573, 574
950, 552, 575, 553
951, 552, 574, 575
952, 553, 576, 554
953, 553, 575, 576
954, 554, 577, 555
955, 554, 576, 577
956, 555, 578, 556
957, 555, 577, 578
958, 556, 579, 557
959, 556, 578, 579
960, 557, 580, 558
961, 557, 579, 580
962, 558, 581, 559
963, 558, 580, 581
964, 559, 582, 560
965, 559, 581, 582
966, 560, 583, 561
967, 560, 582, 583
968, 561, 584, 562
969, 561, 583, 584
970, 562, 585, 563
971, 562, 584, 585
972, 563, 586, 564
973, 563, 585, 586
974, 564, 587, 565
975, 564, 586, 587
976, 565, 588, 566
977, 565, 587, 588
978, 566, 589, 567
979, 566, 588, 589
980, 567, 589, 590
981, 568, 591, 569
982, 569, 592, 570
983, 569, 591, 592
984, 570, 593, 571
985, 570, 592, 593
986, 571, 594, 572
987, 571, 593, 594
988, 572, 595, 573
989, 572, 594, 595
990, 573, 596, 574
991, 573, 595, 596
992, 574, 597, 575
993, 574, 596, 597
994, 575, 598, 576
995, 575, 597, 598
996, 576, 599, 577
997, 576, 598, 599
998, 577, 600, 578
999, 577, 599, 600
1000, 578, 601, 579
1001, 578, 600, 601
1002, 579, 602, 580
1003, 579, 601, 602
1004, 580, 603, 581
1005, 580, 602, 603
1006, 581, 604, 582
1007, 581, 603, 604
1008, 582, 605, 583
1009, 582, 604, 605
1010, 583, 606, 584
1011, 583, 605, 606
1012, 584, 607, 585
1013, 584, 606, 607
1014, 585, 608, 586
1015, 585, 607, 608
1016, 586, 609, 587
1017, 586, 608, 609
1018, 587, 610, 588
1019, 587, 609, 610
1020, 588, 611, 589
1021, 588, 610, 611
1022, 589, 612, 590
1023, 589, 611, 612
1024, 590, 612, 613
*ELEMENT, type=CPS3, ELSET=Surface26
1025, 64, 6, 775
1026, 775, 6, 162
1027, 7, 57, 139
1028, 12, 636, 95
1029, 161, 636, 12
1030, 102, 184, 13
1031, 57, 58, 614
1032, 139, 57, 614
1033, 58, 59, 637
1034, 614, 58, 637
1035, 59, 60, 660
1036, 637, 59, 660
1037, 60, 61, 683
1038, 660, 60, 683
1039, 61, 62, 706
1040, 683, 61, 706
1041, 62, 63, 729
1042, 706, 62, 729
1043, 63, 64, 752
1044, 729, 63, 752
1045, 752, 64, 775
1046, 95, 659, 96
1047, 636, 659, 95
1048, 96, 682, 97
1049, 659, 682, 96
1050, 97, 705, 98
1051, 682, 705, 97
1052, 98, 728, 99
1053, 705, 728, 98
1054, 99, 751, 100
1055, 728, 751, 99
1056, 100, 774, 101
1057, 751, 774, 100
1058, 101, 797, 102
1059, 774, 797, 101
1060, 797, 184, 102
1061, 139, 614, 140
1062, 140, 615, 141
1063, 140, 614, 615
1064, 141, 616, 142
1065, 141, 615, 616
1066, 142, 617, 143
1067, 142, 616, 617
1068, 143, 618, 144
1069, 143, 617, 618
1070, 144, 619, 145
1071, 144, 618, 619
1072, 145, 620, 146
1073, 145, 619, 620
1074, 146, 621, 147
1075, 146, 620, 621
1076, 147, 622, 148
1077, 147, 621, 622
1078, 148, 623, 149
1079, 148, 622, 623
1080, 149, 624, 150
1081, 149, 623, 624
1082, 150, 625, 151
1083, 150, 624, 625
1084, 151, 626, 152
1085, 151, 625, 626
1086, 152, 627, 153
1087, 152, 626, 627
1088, 153, 628, 154
1089, 153, 627, 628
1090, 154, 629, 155
1091, 154, 628, 629
1092, 155, 630, 156
1093, 155, 629, 630
1094, 156, 631, 157
1095, 156, 630, 631
1096, 157, 632, 158
1097, 157, 631, 632
1098, 158, 633, 159
1099, 158, 632, 633
1100, 159, 634, 160
1101, 159, 633, 634
1102, 160, 635, 161
1103, 160, 634, 635
1104, 161, 635, 636
1105, 776, 162, 163
1106, 775, 162, 776
1107, 777, 163, 164
1108, 776, 163, 777
1109, 778, 164, 165
1110, 777, 164, 778
1111, 779, 165, 166
1112, 778, 165, 779
1113, 780, 166, 167
1114, 779, 166, 780
1115, 781, 167, 168
1116, 780, 167, 781
1117, 782, 168, 169
1118, 781, 168, 782
1119, 783, 169, 170
1120, 782, 169, 783
1121, 784, 170, 171
1122, 783, 170, 784
1123, 785, 171, 172
1124, 784, 171, 785
1125, 786, 172, 173
1126, 785, 172, 786
1127, 787, 173, 174
1128, 786, 173, 787
1129, 788, 174, 175
1130, 787, 174, 788
1131, 789, 175, 176
1132, 788, 175, 789
1133, 790, 176, 177
1134, 789, 176, 790
1135, 791, 177, 178
1136, 790, 177, 791
1137, 792, 178, 179
1138, 791, 178, 792
1139, 793, 179, 180
1140, 792, 179, 793
1141, 794, 180, 181
1142, 793, 180, 794
1143, 795, 181, 182
1144, 794, 181, 795
1145, 796, 182, 183
1146, 795, 182, 796
1147, 797, 183, 184
1148, 796, 183, 797
1149, 614, 637, 615
1150, 615, 638, 616
1151, 615, 637, 638
1152, 616, 639, 617
1153, 616, 638, 639
1154, 617, 640, 618
1155, 617, 639, 640
1156, 618, 641, 619
1157, 618, 640, 641
1158, 619, 642, 620
1159, 619, 641, 642
1160, 620, 643, 621
1161, 620, 642, 643
1162, 621, 644, 622
1163, 621, 643, 644
1164, 622, 645, 623
1165, 622, 644, 645
1166, 623, 646, 624
1167, 623, 645, 646
1168, 624, 647, 625
1169, 624, 646, 647
1170, 625, 648, 626
1171, 625, 647, 648
1172, 626, 649, 627
1173, 626, 648, 649
1174, 627, 650, 628
1175, 627, 649, 650
1176, 628, 651, 629
1177, 628, 650, 651
1178, 629, 652, 630
1179, 629, 651, 652
1180, 630, 653, 631
1181, 630, 652, 653
1182, 631, 654, 632
1183, 631, 653, 654
1184, 632, 655, 633
1185, 632, 654, 655
1186, 633, 656, 634
1187, 633, 655, 656
1188, 634, 657, 635
1189, 634, 656, 657
1190, 635, 658, 636
1191, 635, 657, 658
1192, 636, 658, 659
1193, 637, 660, 638
1194, 638, 661, 639
1195, 638, 660, 661
1196, 639, 662, 640
1197, 639, 661, 662
1198, 640, 663, 641
1199, 640, 662, 663
1200, 641, 664, 642
1201, 641, 663, 664
1202, 642, 665, 643
1203, 642, 664, 665
1204, 643, 666, 644
1205, 643, 665, 666
1206, 644, 667, 645
1207, 644, 666, 667
1208, 645, 668, 646
1209, 645, 667, 668
1210, 646, 669, 647
1211, 646, 668, 669
1212, 647, 670, 648
1213, 647, 669, 670
1214, 648, 671, 649
1215, 648, 670, 671
1216, 649, 672, 650
1217, 649, 671, 672
1218, 650, 673, 651
1219, 650, 672, 673
1220, 651, 674, 652
1221, 651, 673, 674
1222, 652, 675, 653
1223, 652, 674, 675
1224, 653, 676, 654
1225, 653, 675, 676
1226, 654, 677, 655
1227, 654, 676, 677
1228, 655, 678, 656
1229, 655, 677, 678
1230, 656, 679, 657
1231, 656, 678, 679
1232, 657, 680, 658
1233, 657, 679, 680
1234, 658, 681, 659
1235, 658, 680, 681
1236, 659, 681, 682
1237, 660, 683, 661
1238, 661, 684, 662
1239, 661, 683, 684
1240, 662, 685, 663
1241, 662, 684, 685
1242, 663, 686, 664
1243, 663, 685, 686
1244, 664, 687, 665
1245, 664, 686, 687
1246, 665, 688, 666
1247, 665, 687, 688
1248, 666, 689, 667
1249, 666, 688, 689
1250, 667, 690, 668
1251, 667, 689, 690
1252, 668, 691, 669
1253, 668, 690, 691
1254, 669, 692, 670
1255, 669, 691, 692
1256, 670, 693, 671
1257, 670, 692, 693
1258, 671, 694, 672
1259, 671, 693, 694
1260, 672, 695, 673
1261, 672, 694, 695
1262, 673, 696, 674
1263, 673, 695, 696
1264, 674, 697, 675
1265, 674, 696, 697
1266, 675, 698, 676
1267, 675, 697, 698
1268, 676, 699, 677
1269, 676, 698, 699
1270, 677, 700, 678
1271, 677, 699, 700
1272, 678, 701, 679
1273, 678, 700, 701
1274, 679, 702, 680
1275, 679, 701, 702
1276, 680, 703, 681
1277, 680, 702, 703
1278, 681, 704, 682
1279, 681, 703, 704
1280, 682, 704, 705
1281, 683, 706, 684
1282, 684, 707, 685
1283, 684, 706, 707
1284, 685, 708, 686
1285, 685, 707, 708
1286, 686, 709, 687
1287, 686, 708, 709
1288, 687, 710, 688
1289, 687, 709, 710
1290, 688, 711, 689
1291, 688, 710, 711
1292, 689, 712, 690
1293, 689, 711, 712
1294, 690, 713, 691
1295, 690, 712, 713
1296, 691, 714, 692
1297, 691, 713, 714
1298, 692, 715, 693
1299, 692, 714, 715
1300, 693, 716, 694
1301, 693, 715, 716
1302, 694, 717, 695
1303, 694, 716, 717
1304, 695, 718, 696
1305, 695, 717, 718
1306, 696, 719, 697
1307, 696, 718, 719
1308, 697, 720, 698
1309, 697, 719, 720
1310, 698, 721, 699
1311, 698, 720, 721
1312, 699, 722, 700
1313, 699, 721, 722
1314, 700, 723, 701
1315, 700, 722, 723
1316, 701, 724, 702
1317, 701, 723, 724
1318, 702, 725, 703
1319, 702, 724, 725
1320, 703, 726, 704
1321, 703, 725, 726
1322, 704, 727, 705
1323, 704, 726, 727
1324, 705, 727, 728
1325, 706, 729, 707
1326, 707, 730, 708
1327, 707, 729, 730
1328, 708, 731, 709
1329, 708, 730, 731
1330, 709, 732, 710
1331, 709, 731, 732
1332, 710, 733, 711
1333, 710, 732, 733
1334, 711, 734, 712
1335, 711, 733, 734
1336, 712, 735, 713
1337, 712, 734, 735
1338, 713, 736, 714
1339, 713, 735, 736
1340, 714, 737, 715
1341, 714, 736, 737
1342, 715, 738, 716
1343, 715, 737, 738
1344, 716, 739, 717
1345, 716, 738, 739
1346, 717, 740, 718
1347, 717, 739, 740
1348, 718, 741, 719
1349, 718, 740, 741
1350, 719, 742, 720
1351, 719, 741, 742
1352, 720, 743, 721
1353, 720, 742, 743
1354, 721, 744, 722
1355, 721, 743, 744
1356, 722, 745, 723
1357, 722, 744, 745
1358, 723, 746, 724
1359, 723, 745, 746
1360, 724, 747, 725
1361, 724, 746, 747
1362, 725, 748, 726
1363, 725, 747, 748
1364, 726, 749, 727
1365, 726, 748, 749
1366, 727, 750, 728
1367, 727, 749, 750
1368, 728, 750, 751
1369, 729, 752, 730
1370, 730, 753, 731
1371, 730, 752, 753
1372, 731, 754, 732
1373, 731, 753, 754
1374, 732, 755, 733
1375, 732, 754, 755
1376, 733, 756, 734
1377, 733, 755, 756
1378, 734, 757, 735
1379, 734, 756, 757
1380, 735, 758, 736
1381, 735, 757, 758
1382, 736, 759, 737
1383, 736, 758, 759
1384, 737, 760, 738
1385, 737, 759, 760
1386, 738, 761, 739
1387, 738, 760, 761
1388, 739, 762, 740
1389, 739, 761, 762
1390, 740, 763, 741
1391, 740, 762, 763
1392, 741, 764, 742
1393, 741, 763, 764
1394, 742, 765, 743
1395, 742, 764, 765
1396, 743, 766, 744
1397, 743, 765, 766
1398, 744, 767, 745
1399, 744, 766, 767
1400, 745, 768, 746
1401, 745, 767, 768
1402, 746, 769, 747
1403, 746, 768, 769
1404, 747, 770, 748
1405, 747, 769, 770
1406, 748, 771, 749
1407, 748, 770, 771
1408, 749, 772, 750
1409, 749, 771, 772
1410, 750, 773, 751
1411, 750, 772, 773
1412, 751, 773, 774
1413, 752, 775, 753
1414, 753, 776, 754
1415, 753, 775, 776
1416, 754, 777, 755
1417, 754, 776, 777
1418, 755, 778, 756
1419, 755, 777, 778
1420, 756, 779, 757
1421, 756, 778, 779
1422, 757, 780, 758
1423, 757, 779, 780
1424, 758, 781, 759
1425, 758, 780, 781
1426, 759, 782, 760
1427, 759, 781, 782
1428, 760, 783, 761
1429, 760, 782, 783
1430, 761, 784, 762
1431, 761, 783, 784
1432, 762, 785, 763
1433, 762, 784, 785
1434, 763, 786, 764
1435, 763, 785, 786
1436, 764, 787, 765
1437, 764, 786, 787
1438, 765, 788, 766
1439, 765, 787, 788
1440, 766, 789, 767
1441, 766, 788, 789
1442, 767, 790, 768
1443, 767, 789, 790
1444, 768, 791, 769
1445, 768, 790, 791
1446, 769, 792, 770
1447, 769, 791, 792
1448, 770, 793, 771
1449, 770, 792, 793
1450, 771, 794, 772
1451, 771, 793, 794
1452, 772, 795, 773
1453, 772, 794, 795
1454, 773, 796, 774
1455, 773, 795, 796
1456, 774, 796, 797
*ELEMENT, type=CPS3, ELSET=Surface30
1457, 5, 185, 85
1458, 89, 890, 6
1459, 890, 162, 6
1460, 103, 13, 184
1461, 14, 107, 820
1462, 207, 14, 820
1463, 85, 798, 86
1464, 185, 798, 85
1465, 86, 821, 87
1466, 798, 821, 86
1467, 87, 844, 88
1468, 821, 844, 87
1469, 88, 867, 89
1470, 844, 867, 88
1471, 867, 890, 89
1472, 104, 103, 912
1473, 912, 103, 184
1474, 105, 104, 889
1475, 889, 104, 912
1476, 106, 105, 866
1477, 866, 105, 889
1478, 107, 106, 843
1479, 843, 106, 866
1480, 820, 107, 843
1481, 891, 163, 162
1482, 890, 891, 162
1483, 892, 164, 163
1484, 891, 892, 163
1485, 893, 165, 164
1486, 892, 893, 164
1487, 894, 166, 165
1488, 893, 894, 165
1489, 895, 167, 166
1490, 894, 895, 166
1491, 896, 168, 167
1492, 895, 896, 167
1493, 897, 169, 168
1494, 896, 897, 168
1495, 898, 170, 169
1496, 897, 898, 169
1497, 899, 171, 170
1498, 898, 899, 170
1499, 900, 172, 171
1500, 899, 900, 171
1501, 901, 173, 172
1502, 900, 901, 172
1503, 902, 174, 173
1504, 901, 902, 173
1505, 903, 175, 174
1506, 902, 903, 174
1507, 904, 176, 175
1508, 903, 904, 175
1509, 905, 177, 176
1510, 904, 905, 176
1511, 906, 178, 177
1512, 905, 906, 177
1513, 907, 179, 178
1514, 906, 907, 178
1515, 908, 180, 179
1516, 907, 908, 179
1517, 909, 181, 180
1518, 908, 909, 180
1519, 910, 182, 181
1520, 909, 910, 181
1521, 911, 183, 182
1522, 910, 911, 182
1523, 912, 184, 183
1524, 911, 912, 183
1525, 185, 186, 798
1526, 186, 187, 799
1527, 186, 799, 798
1528, 187, 188, 800
1529, 187, 800, 799
1530, 188, 189, 801
1531, 188, 801, 800
1532, 189, 190, 802
1533, 189, 802, 801
1534, 190, 191, 803
1535, 190, 803, 802
1536, 191, 192, 804
1537, 191, 804, 803
1538, 192, 193, 805
1539, 192, 805, 804
1540, 193, 194, 806
1541, 193, 806, 805
1542, 194, 195, 807
1543, 194, 807, 806
1544, 195, 196, 808
1545, 195, 808, 807
1546, 196, 197, 809
1547, 196, 809, 808
1548, 197, 198, 810
1549, 197, 810, 809
1550, 198, 199, 811
1551, 198, 811, 810
1552, 199, 200, 812
1553, 199, 812, 811
1554, 200, 201, 813
1555, 200, 813, 812
1556, 201, 202, 814
1557, 201, 814, 813
1558, 202, 203, 815
1559, 202, 815, 814
1560, 203, 204, 816
1561, 203, 816, 815
1562, 204, 205, 817
1563, 204, 817, 816
1564, 205, 206, 818
1565, 205, 818, 817
1566, 206, 207, 819
1567, 206, 819, 818
1568, 207, 820, 819
1569, 798, 799, 821
1570, 799, 800, 822
1571, 799, 822, 821
1572, 800, 801, 823
1573, 800, 823, 822
1574, 801, 802, 824
1575, 801, 824, 823
1576, 802, 803, 825
1577, 802, 825, 824
1578, 803, 804, 826
1579, 803, 826, 825
1580, 804, 805, 827
1581, 804, 827, 826
1582, 805, 806, 828
1583, 805, 828, 827
1584, 806, 807, 829
1585, 806, 829, 828
1586, 807, 808, 830
1587, 807, 830, 829
1588, 808, 809, 831
1589, 808, 831, 830
1590, 809, 810, 832
1591, 809, 832, 831
1592, 810, 811, 833
1593, 810, 833, 832
1594, 811, 812, 834
1595, 811, 834, 833
1596, 812, 813, 835
1597, 812, 835, 834
1598, 813, 814, 836
1599, 813, 836, 835
1600, 814, 815, 837
1601, 814, 837, 836
1602, 815, 816, 838
1603, 815, 838, 837
1604, 816, 817, 839
1605, 816, 839, 838
1606, 817, 818, 840
1607, 817, 840, 839
1608, 818, 819, 841
1609, 818, 841, 840
1610, 819, 820, 842
1611, 819, 842, 841
1612, 820, 843, 842
1613, 821, 822, 844
1614, 822, 823, 845
1615, 822, 845, 844
1616, 823, 824, 846
1617, 823, 846, 845
1618, 824, 825, 847
1619, 824, 847, 846
1620, 825, 826, 848
1621, 825, 848, 847
1622, 826, 827, 849
1623, 826, 849, 848
1624, 827, 828, 850
1625, 827, 850, 849
1626, 828, 829, 851
1627, 828, 851, 850
1628, 829, 830, 852
1629, 829, 852, 851
1630, 830, 831, 853
1631, 830, 853, 852
1632, 831, 832, 854
1633, 831, 854, 853
1634, 832, 833, 855
1635, 832, 855, 854
1636, 833, 834, 856
1637, 833, 856, 855
1638, 834, 835, 857
1639, 834, 857, 856
1640, 835, 836, 858
1641, 835, 858, 857
1642, 836, 837, 859
1643, 836, 859, 858
1644, 837, 838, 860
1645, 837, 860, 859
1646, 838, 839, 861
1647, 838, 861, 860
1648, 839, 840, 862
1649, 839, 862, 861
1650, 840, 841, 863
1651, 840, 863, 862
1652, 841, 842, 864
1653, 841, 864, 863
1654, 842, 843, 865
1655, 842, 865, 864
1656, 843, 866, 865
1657, 844, 845, 867
1658, 845, 846, 868
1659, 845, 868, 867
1660, 846, 847, 869
1661, 846, 869, 868
1662, 847, 848, 870
1663, 847, 870, 869
1664, 848, 849, 871
1665, 848, 871, 870
1666, 849, 850, 872
1667, 849, 872, 871
1668, 850, 851, 873
1669, 850, 873, 872
1670, 851, 852, 874
1671, 851, 874, 873
1672, 852, 853, 875
1673, 852, 875, 874
1674, 853, 854, 876
1675, 853, 876, 875
1676, 854, 855, 877
1677, 854, 877, 876
1678, 855, 856, 878
1679, 855, 878, 877
1680, 856, 857, 879
1681, 856, 879, 878
1682, 857, 858, 880
1683, 857, 880, 879
1684, 858, 859, 881
1685, 858, 881, 880
1686, 859, 860, 882
1687, 859, 882, 881
1688, 860, 861, 883
1689, 860, 883, 882
1690, 861, 862, 884
1691, 861, 884, 883
1692, 862, 863, 885
1693, 862, 885, 884
1694, 863, 864, 886
1695, 863, 886, 885
1696, 864, 865, 887
1697, 864, 887, 886
1698, 865, 866, 888
1699, 865, 888, 887
1700, 866, 889, 888
1701, 867, 868, 890
1702, 868, 869, 891
1703, 868, 891, 890
1704, 869, 870, 892
1705, 869, 892, 891
1706, 870, 871, 893
1707, 870, 893, 892
1708, 871, 872, 894
1709, 871, 894, 893
1710, 872, 873, 895
1711, 872, 895, 894
1712, 873, 874, 896
1713, 873, 896, 895
1714, 874, 875, 897
1715, 874, 897, 896
1716, 875, 876, 898
1717, 875, 898, 897
1718, 876, 877, 899
1719, 876, 899, 898
1720, 877, 878, 900
1721, 877, 900, 899
1722, 878, 879, 901
1723, 878, 901, 900
1724, 879, 880, 902
1725, 879, 902, 901
1726, 880, 881, 903
1727, 880, 903, 902
1728, 881, 882, 904
1729, 881, 904, 903
1730, 882, 883, 905
1731, 882, 905, 904
1732, 883, 884, 906
1733, 883, 906, 905
1734, 884, 885, 907
1735, 884, 907, 906
1736, 885, 886, 908
1737, 885, 908, 907
1738, 886, 887, 909
1739, 886, 909, 908
1740, 887, 888, 910
1741, 887, 910, 909
1742, 888, 889, 911
1743, 888, 911, 910
1744, 889, 912, 911
*ELEMENT, type=CPS3, ELSET=Surface34
1745, 4, 116, 35
1746, 42, 1074, 5
1747, 1074, 185, 5
1748, 11, 115, 935
1749, 138, 11, 935
1750, 108, 14, 207
1751, 35, 913, 36
1752, 116, 913, 35
1753, 36, 936, 37
1754, 913, 936, 36
1755, 37, 959, 38
1756, 936, 959, 37
1757, 38, 982, 39
1758, 959, 982, 38
1759, 39, 1005, 40
1760, 982, 1005, 39
1761, 40, 1028, 41
1762, 1005, 1028, 40
1763, 41, 1051, 42
1764, 1028, 1051, 41
1765, 1051, 1074, 42
1766, 109, 108, 1096
1767, 1096, 108, 207
1768, 110, 109, 1073
1769, 1073, 109, 1096
1770, 111, 110, 1050
1771, 1050, 110, 1073
1772, 112, 111, 1027
1773, 1027, 111, 1050
1774, 113, 112, 1004
1775, 1004, 112, 1027
1776, 114, 113, 981
1777, 981, 113, 1004
1778, 115, 114, 958
1779, 958, 114, 981
1780, 935, 115, 958
1781, 116, 117, 913
1782, 117, 118, 914
1783, 117, 914, 913
1784, 118, 119, 915
1785, 118, 915, 914
1786, 119, 120, 916
1787, 119, 916, 915
1788, 120, 121, 917
1789, 120, 917, 916
1790, 121, 122, 918
1791, 121, 918, 917
1792, 122, 123, 919
1793, 122, 919, 918
1794, 123, 124, 920
1795, 123, 920, 919
1796, 124, 125, 921
1797, 124, 921, 920
1798, 125, 126, 922
1799, 125, 922, 921
1800, 126, 127, 923
1801, 126, 923, 922
1802, 127, 128, 924
1803, 127, 924, 923
1804, 128, 129, 925
1805, 128, 925, 924
1806, 129, 130, 926
1807, 129, 926, 925
1808, 130, 131, 927
1809, 130, 927, 926
1810, 131, 132, 928
1811, 131, 928, 927
1812, 132, 133, 929
1813, 132, 929, 928
1814, 133, 134, 930
1815, 133, 930, 929
1816, 134, 135, 931
1817, 134, 931, 930
1818, 135, 136, 932
1819, 135, 932, 931
1820, 136, 137, 933
1821, 136, 933, 932
1822, 137, 138, 934
1823, 137, 934, 933
1824, 138, 935, 934
1825, 1075, 186, 185
1826, 1074, 1075, 185
1827, 1076, 187, 186
1828, 1075, 1076, 186
1829, 1077, 188, 187
1830, 1076, 1077, 187
1831, 1078, 189, 188
1832, 1077, 1078, 188
1833, 1079, 190, 189
1834, 1078, 1079, 189
1835, 1080, 191, 190
1836, 1079, 1080, 190
1837, 1081, 192, 191
1838, 1080, 1081, 191
1839, 1082, 193, 192
1840, 1081, 1082, 192
1841, 1083, 194, 193
1842, 1082, 1083, 193
1843, 1084, 195, 194
1844, 1083, 1084, 194
1845, 1085, 196, 195
1846, 1084, 1085, 195
1847, 1086, 197, 196
1848, 1085, 1086, 196
1849, 1087, 198, 197
1850, 1086, 1087, 197
1851, 1088, 199, 198
1852, 1087, 1088, 198
1853, 1089, 200, 199
1854, 1088, 1089, 199
1855, 1090, 201, 200
1856, 1089, 1090, 200
1857, 1091, 202, 201
1858, 1090, 1091, 201
1859, 1092, 203, 202
1860, 1091, 1092, 202
1861, 1093, 204, 203
1862, 1092, 1093, 203
1863, 1094, 205, 204
1864, 1093, 1094, 204
1865, 1095, 206, 205
1866, 1094, 1095, 205
1867, 1096, 207, 206
1868, 1095, 1096, 206
1869, 913, 914, 936
1870, 914, 915, 937
1871, 914, 937, 936
1872, 915, 916, 938
1873, 915, 938, 937
1874, 916, 917, 939
1875, 916, 939, 938
1876, 917, 918, 940
1877, 917, 940, 939
1878, 918, 919, 941
1879, 918, 941, 940
1880, 919, 920, 942
1881, 919, 942, 941
1882, 920, 921, 943
1883, 920, 943, 942
1884, 921, 922, 944
1885, 921, 944, 943
1886, 922, 923, 945
1887, 922, 945, 944
1888, 923, 924, 946
1889, 923, 946, 945
1890, 924, 925, 947
1891, 924, 947, 946
1892, 925, 926, 948
1893, 925, 948, 947
1894, 926, 927, 949
1895, 926, 949, 948
1896, 927, 928, 950
1897, 927, 950, 949
1898, 928, 929, 951
1899, 928, 951, 950
1900, 929, 930, 952
1901, 929, 952, 951
1902, 930, 931, 953
1903, 930, 953, 952
1904, 931, 932, 954
1905, 931, 954, 953
1906, 932, 933, 955
1907, 932, 955, 954
1908, 933, 934, 956
1909, 933, 956, 955
1910, 934, 935, 957
1911, 934, 957, 956
1912, 935, 958, 957
1913, 936, 937, 959
1914, 937, 938, 960
1915, 937, 960, 959
1916, 938, 939, 961
1917, 938, 961, 960
1918, 939, 940, 962
1919, 939, 962, 961
1920, 940, 941, 963
1921, 940, 963, 962
1922, 941, 942, 964
1923, 941, 964, 963
1924, 942, 943, 965
1925, 942, 965, 964
1926, 943, 944, 966
1927, 943, 966, 965
1928, 944, 945, 967
1929, 944, 967, 966
1930, 945, 946, 968
1931, 945, 968, 967
1932, 946, 947, 969
1933, 946, 969, 968
1934, 947, 948, 970
1935, 947, 970, 969
1936, 948, 949, 971
1937, 948, 971, 970
1938, 949, 950, 972
1939, 949, 972, 971
1940, 950, 951, 973
1941, 950, 973, 972
1942, 951, 952, 974
1943, 951, 974, 973
1944, 952, 953, 975
1945, 952, 975, 974
1946, 953, 954, 976
1947, 953, 976, 975
1948, 954, 955, 977
1949, 954, 977, 976
1950, 955, 956, 978
1951, 955, 978, 977
1952, 956, 957, 979
1953, 956, 979, 978
1954, 957, 958, 980
1955, 957, 980, 979
1956, 958, 981, 980
1957, 959, 960, 982
1958, 960, 961, 983
1959, 960, 983, 982
1960, 961, 962, 984
1961, 961, 984, 983
1962, 962, 963, 985
1963, 962, 985, 984
1964, 963, 964, 986
1965, 963, 986, 985
1966, 964, 965, 987
1967, 964, 987, 986
1968, 965, 966, 988
1969, 965, 988, 987
1970, 966, 967, 989
1971, 966, 989, 988
1972, 967, 968, 990
1973, 967, 990, 989
1974, 968, 969, 991
1975, 968, 991, 990
1976, 969, 970, 992
1977, 969, 992, 991
1978, 970, 971, 993
1979, 970, 993, 992
1980, 971, 972, 994
1981, 971, 994, 993
1982, 972, 973, 995
1983, 972, 995, 994
1984, 973, 974, 996
1985, 973, 996, 995
1986, 974, 975, 997
1987, 974, 997, 996
1988, 975, 976, 998
1989, 975, 998, 997
1990, 976, 977, 999
1991, 976, 999, 998
1992, 977, 978, 1000
1993, 977, 1000, 999
1994, 978, 979, 1001
1995, 978, 1001, 1000
1996, 979, 980, 1002
1997, 979, 1002, 1001
1998, 980, 981, 1003
1999, 980, 1003, 1002
2000, 981, 1004, 1003
2001, 982, 983, 1005
2002, 983, 984, 1006
2003, 983, 1006, 1005
2004, 984, 985, 1007
2005, 984, 1007, 1006
2006, 985, 986, 1008
2007, 985, 1008, 1007
2008, 986, 987, 1009
2009, 986, 1009, 1008
2010, 987, 988, 1010
2011, 987, 1010, 1009
2012, 988, 989, 1011
2013, 988, 1011, 1010
2014, 989, 990, 1012
2015, 989, 1012, 1011
2016, 990, 991, 1013
2017, 990, 1013, 1012
2018, 991, 992, 1014
2019, 991, 1014, 1013
2020, 992, 993, 1015
2021, 992, 1015, 1014
2022, 993, 994, 1016
2023, 993, 1016, 1015
2024, 994, 995, 1017
2025, 994, 1017, 1016
2026, 995, 996, 1018
2027, 995, 1018, 1017
2028, 996, 997, 1019
2029, 996, 1019, 1018
2030, 997, 998, 1020
2031, 997, 1020, 1019
2032, 998, 999, 1021
2033, 998, 1021, 1020
2034, 999, 1000, 1022
2035, 999, 1022, 1021
2036, 1000, 1001, 1023
2037, 1000, 1023, 1022
2038, 1001, 1002, 1024
2039, 1001, 1024, 1023
2040, 1002, 1003, 1025
2041, 1002, 1025, 1024
2042, 1003, 1004, 1026
2043, 1003, 1026, 1025
2044, 1004, 1027, 1026
2045, 1005, 1006, 1028
2046, 1006, 1007, 1029
2047, 1006, 1029, 1028
2048, 1007, 1008, 1030
2049, 1007, 1030, 1029
2050, 1008, 1009, 1031
2051, 1008, 1031, 1030
2052, 1009, 1010, 1032
2053, 1009, 1032, 1031
2054, 1010, 1011, 1033
2055, 1010, 1033, 1032
2056, 1011, 1012, 1034
2057, 1011, 1034, 1033
2058, 1012, 1013, 1035
2059, 1012, 1035, 1034
2060, 1013, 1014, 1036
2061, 1013, 1036, 1035
2062, 1014, 1015, 1037
2063, 1014, 1037, 1036
2064, 1015, 1016, 1038
2065, 1015, 1038, 1037
2066, 1016, 1017, 1039
2067, 1016, 1039, 1038
2068, 1017, 1018, 1040
2069, 1017, 1040, 1039
2070, 1018, 1019, 1041
2071, 1018, 1041, 1040
2072, 1019, 1020, 1042
2073, 1019, 1042, 1041
2074, 1020, 1021, 1043
2075, 1020, 1043, 1042
2076, 1021, 1022, 1044
2077, 1021, 1044, 1043
2078, 1022, 1023, 1045
2079, 1022, 1045, 1044
2080, 1023, 1024, 1046
2081, 1023, 1046, 1045
2082, 1024, 1025, 1047
2083, 1024, 1047, 1046
2084, 1025, 1026, 1048
2085, 1025, 1048, 1047
2086, 1026, 1027, 1049
2087, 1026, 1049, 1048
2088, 1027, 1050, 1049
2089, 1028, 1029, 1051
2090, 1029, 1030, 1052
2091, 1029, 1052, 1051
2092, 1030, 1031, 1053
2093, 1030, 1053, 1052
2094, 1031, 1032, 1054
2095, 1031, 1054, 1053
2096, 1032, 1033, 1055
2097, 1032, 1055, 1054
2098, 1033, 1034, 1056
2099, 1033, 1056, 1055
2100, 1034, 1035, 1057
2101, 1034, 1057, 1056
2102, 1035, 1036, 1058
2103, 1035, 1058, 1057
2104, 1036, 1037, 1059
2105, 1036, 1059, 1058
2106, 1037, 1038, 1060
2107, 1037, 1060, 1059
2108, 1038, 1039, 1061
2109, 1038, 1061, 1060
2110, 1039, 1040, 1062
2111, 1039, 1062, 1061
2112, 1040, 1041, 1063
2113, 1040, 1063, 1062
2114, 1041, 1042, 1064
2115, 1041, 1064, 1063
2116, 1042, 1043, 1065
2117, 1042, 1065, 1064
2118, 1043, 1044, 1066
2119, 1043, 1066, 1065
2120, 1044, 1045, 1067
2121, 1044, 1067, 1066
2122, 1045, 1046, 1068
2123, 1045, 1068, 1067
2124, 1046, 1047, 1069
2125, 1046, 1069, 1068
2126, 1047, 1048, 1070
2127, 1047, 1070, 1069
2128, 1048, 1049, 1071
2129, 1048, 1071, 1070
2130, 1049, 1050, 1072
2131, 1049, 1072, 1071
2132, 1050, 1073, 1072
2133, 1051, 1052, 1074
2134, 1052, 1053, 1075
2135, 1052, 1075, 1074
2136, 1053, 1054, 1076
2137, 1053, 1076, 1075
2138, 1054, 1055, 1077
2139, 1054, 1077, 1076
2140, 1055, 1056, 1078
2141, 1055, 1078, 1077
2142, 1056, 1057, 1079
2143, 1056, 1079, 1078
2144, 1057, 1058, 1080
2145, 1057, 1080, 1079
2146, 1058, 1059, 1081
2147, 1058, 1081, 1080
2148, 1059, 1060, 1082
2149, 1059, 1082, 1081
2150, 1060, 1061, 1083
2151, 1060, 1083, 1082
2152, 1061, 1062, 1084
2153, 1061, 1084, 1083
2154, 1062, 1063, 1085
2155, 1062, 1085, 1084
2156, 1063, 1064, 1086
2157, 1063, 1086, 1085
2158, 1064, 1065, 1087
2159, 1064, 1087, 1086
2160, 1065, 1066, 1088
2161, 1065, 1088, 1087
2162, 1066, 1067, 1089
2163, 1066, 1089, 1088
2164, 1067, 1068, 1090
2165, 1067, 1090, 1089
2166, 1068, 1069, 1091
2167, 1068, 1091, 1090
2168, 1069, 1070, 1092
2169, 1069, 1092, 1091
2170, 1070, 1071, 1093
2171, 1070, 1093, 1092
2172, 1071, 1072, 1094
2173, 1071, 1094, 1093
2174, 1072, 1073, 1095
2175, 1072, 1095, 1094
2176, 1073, 1096, 1095
*ELEMENT, type=CPS3, ELSET=Surface35
2177, 11, 90, 115
2178, 94, 12, 1129
2179, 1129, 12, 95
2180, 103, 102, 13
2181, 14, 1104, 107
2182, 108, 1104, 14
2183, 90, 91, 1097
2184, 115, 90, 1097
2185, 91, 92, 1105
2186, 1097, 91, 1105
2187, 92, 93, 1113
2188, 1105, 92, 1113
2189, 93, 94, 1121
2190, 1113, 93, 1121
2191, 1121, 94, 1129
2192, 1130, 95, 96
2193, 1129, 95, 1130
2194, 1131, 96, 97
2195, 1130, 96, 1131
2196, 1132, 97, 98
2197, 1131, 97, 1132
2198, 1133, 98, 99
2199, 1132, 98, 1133
2200, 1134, 99, 100
2201, 1133, 99, 1134
2202, 1135, 100, 101
2203, 1134, 100, 1135
2204, 1136, 101, 102
2205, 1135, 101, 1136
2206, 1136, 102, 103
2207, 104, 1136, 103
2208, 105, 1128, 104
2209, 1128, 1136, 104
2210, 106, 1120, 105
2211, 1120, 1128, 105
2212, 107, 1112, 106
2213, 1112, 1120, 106
2214, 1104, 1112, 107
2215, 109, 1103, 108
2216, 108, 1103, 1104
2217, 110, 1102, 109
2218, 109, 1102, 1103
2219, 111, 1101, 110
2220, 110, 1101, 1102
2221, 112, 1100, 111
2222, 111, 1100, 1101
2223, 113, 1099, 112
2224, 112, 1099, 1100
2225, 114, 1098, 113
2226, 113, 1098, 1099
2227, 115, 1097, 114
2228, 114, 1097, 1098
2229, 1097, 1105, 1098
2230, 1098, 1106, 1099
2231, 1098, 1105, 1106
2232, 1099, 1107, 1100
2233, 1099, 1106, 1107
2234, 1100, 1108, 1101
2235, 1100, 1107, 1108
2236, 1101, 1109, 1102
2237, 1101, 1108, 1109
2238, 1102, 1110, 1103
2239, 1102, 1109, 1110
2240, 1103, 1111, 1104
2241, 1103, 1110, 1111
2242, 1104, 1111, 1112
2243, 1105, 1113, 1106
2244, 1106, 1114, 1107
2245, 1106, 1113, 1114
2246, 1107, 1115, 1108
2247, 1107, 1114, 1115
2248, 1108, 1116, 1109
2249, 1108, 1115, 1116
2250, 1109, 1117, 1110
2251, 1109, 1116, 1117
2252, 1110, 1118, 1111
2253, 1110, 1117, 1118
2254, 1111, 1119, 1112
2255, 1111, 1118, 1119
2256, 1112, 1119, 1120
2257, 1113, 1121, 1114
2258, 1114, 1122, 1115
2259, 1114, 1121, 1122
2260, 1115, 1123, 1116
2261, 1115, 1122, 1123
2262, 1116, 1124, 1117
2263, 1116, 1123, 1124
2264, 1117, 1125, 1118
2265, 1117, 1124, 1125
2266, 1118, 1126, 1119
2267, 1118, 1125, 1126
2268, 1119, 1127, 1120
2269, 1119, 1126, 1127
2270, 1120, 1127, 1128
2271, 1121, 1129, 1122
2272, 1122, 1130, 1123
2273, 1122, 1129, 1130
2274, 1123, 1131, 1124
2275, 1123, 1130, 1131
2276, 1124, 1132, 1125
2277, 1124, 1131, 1132
2278, 1125, 1133, 1126
2279, 1125, 1132, 1133
2280, 1126, 1134, 1127
2281, 1126, 1133, 1134
2282, 1127, 1135, 1128
2283, 1127, 1134, 1135
2284, 1128, 1135, 1136
*ELEMENT, type=CPS3, ELSET=Surface44
2285, 56, 7, 1206
2286, 1206, 7, 139
2287, 8, 53, 221
2288, 211, 161, 12
2289, 15, 1159, 208
2290, 243, 1159, 15
2291, 53, 54, 1137
2292, 221, 53, 1137
2293, 54, 55, 1160
2294, 1137, 54, 1160
2295, 55, 56, 1183
2296, 1160, 55, 1183
2297, 1183, 56, 1206
2298, 1207, 139, 140
2299, 1206, 139, 1207
2300, 1208, 140, 141
2301, 1207, 140, 1208
2302, 1209, 141, 142
2303, 1208, 141, 1209
2304, 1210, 142, 143
2305, 1209, 142, 1210
2306, 1211, 143, 144
2307, 1210, 143, 1211
2308, 1212, 144, 145
2309, 1211, 144, 1212
2310, 1213, 145, 146
2311, 1212, 145, 1213
2312, 1214, 146, 147
2313, 1213, 146, 1214
2314, 1215, 147, 148
2315, 1214, 147, 1215
2316, 1216, 148, 149
2317, 1215, 148, 1216
2318, 1217, 149, 150
2319, 1216, 149, 1217
2320, 1218, 150, 151
2321, 1217, 150, 1218
2322, 1219, 151, 152
2323, 1218, 151, 1219
2324, 1220, 152, 153
2325, 1219, 152, 1220
2326, 1221, 153, 154
2327, 1220, 153, 1221
2328, 1222, 154, 155
2329, 1221, 154, 1222
2330, 1223, 155, 156
2331, 1222, 155, 1223
2332, 1224, 156, 157
2333, 1223, 156, 1224
2334, 1225, 157, 158
2335, 1224, 157, 1225
2336, 1226, 158, 159
2337, 1225, 158, 1226
2338, 1227, 159, 160
2339, 1226, 159, 1227
2340, 1228, 160, 161
2341, 1227, 160, 1228
2342, 1228, 161, 211
2343, 208, 1182, 209
2344, 1159, 1182, 208
2345, 209, 1205, 210
2346, 1182, 1205, 209
2347, 210, 1228, 211
2348, 1205, 1228, 210
2349, 221, 1137, 222
2350, 222, 1138, 223
2351, 222, 1137, 1138
2352, 223, 1139, 224
2353, 223, 1138, 1139
2354, 224, 1140, 225
2355, 224, 1139, 1140
2356, 225, 1141, 226
2357, 225, 1140, 1141
2358, 226, 1142, 227
2359, 226, 1141, 1142
2360, 227, 1143, 228
2361, 227, 1142, 1143
2362, 228, 1144, 229
2363, 228, 1143, 1144
2364, 229, 1145, 230
2365, 229, 1144, 1145
2366, 230, 1146, 231
2367, 230, 1145, 1146
2368, 231, 1147, 232
2369, 231, 1146, 1147
2370, 232, 1148, 233
2371, 232, 1147, 1148
2372, 233, 1149, 234
2373, 233, 1148, 1149
2374, 234, 1150, 235
2375, 234, 1149, 1150
2376, 235, 1151, 236
2377, 235, 1150, 1151
2378, 236, 1152, 237
2379, 236, 1151, 1152
2380, 237, 1153, 238
2381, 237, 1152, 1153
2382, 238, 1154, 239
2383, 238, 1153, 1154
2384, 239, 1155, 240
2385, 239, 1154, 1155
2386, 240, 1156, 241
2387, 240, 1155, 1156
2388, 241, 1157, 242
2389, 241, 1156, 1157
2390, 242, 1158, 243
2391, 242, 1157, 1158
2392, 243, 1158, 1159
2393, 1137, 1160, 1138
2394, 1138, 1161, 1139
2395, 1138, 1160, 1161
2396, 1139, 1162, 1140
2397, 1139, 1161, 1162
2398, 1140, 1163, 1141
2399, 1140, 1162, 1163
2400, 1141, 1164, 1142
2401, 1141, 1163, 1164
2402, 1142, 1165, 1143
2403, 1142, 1164, 1165
2404, 1143, 1166, 1144
2405, 1143, 1165, 1166
2406, 1144, 1167, 1145
2407, 1144, 1166, 1167
2408, 1145, 1168, 1146
2409, 1145, 1167, 1168
2410, 1146, 1169, 1147
2411, 1146, 1168, 1169
2412, 1147, 1170, 1148
2413, 1147, 1169, 1170
2414, 1148, 1171, 1149
2415, 1148, 1170, 1171
2416, 1149, 1172, 1150
2417, 1149, 1171, 1172
2418, 1150, 1173, 1151
2419, 1150, 1172, 1173
2420, 1151, 1174, 1152
2421, 1151, 1173, 1174
2422, 1152, 1175, 1153
2423, 1152, 1174, 1175
2424, 1153, 1176, 1154
2425, 1153, 1175, 1176
2426, 1154, 1177, 1155
2427, 1154, 1176, 1177
2428, 1155, 1178, 1156
2429, 1155, 1177, 1178
2430, 1156, 1179, 1157
2431, 1156, 1178, 1179
2432, 1157, 1180, 1158
2433, 1157, 1179, 1180
2434, 1158, 1181, 1159
2435, 1158, 1180, 1181
2436, 1159, 1181, 1182
2437, 1160, 1183, 1161
2438, 1161, 1184, 1162
2439, 1161, 1183, 1184
2440, 1162, 1185, 1163
2441, 1162, 1184, 1185
2442, 1163, 1186, 1164
2443, 1163, 1185, 1186
2444, 1164, 1187, 1165
2445, 1164, 1186, 1187
2446, 1165, 1188, 1166
2447, 1165, 1187, 1188
2448, 1166, 1189, 1167
2449, 1166, 1188, 1189
2450, 1167, 1190, 1168
2451, 1167, 1189, 1190
2452, 1168, 1191, 1169
2453, 1168, 1190, 1191
2454, 1169, 1192, 1170
2455, 1169, 1191, 1192
2456, 1170, 1193, 1171
2457, 1170, 1192, 1193
2458, 1171, 1194, 1172
2459, 1171, 1193, 1194
2460, 1172, 1195, 1173
2461, 1172, 1194, 1195
2462, 1173, 1196, 1174
2463, 1173, 1195, 1196
2464, 1174, 1197, 1175
2465, 1174, 1196, 1197
2466, 1175, 1198, 1176
2467, 1175, 1197, 1198
2468, 1176, 1199, 1177
2469, 1176, 1198, 1199
2470, 1177, 1200, 1178
2471, 1177, 1199, 1200
2472, 1178, 1201, 1179
2473, 1178, 1200, 1201
2474, 1179, 1202, 1180
2475, 1179, 1201, 1202
2476, 1180, 1203, 1181
2477, 1180, 1202, 1203
2478, 1181, 1204, 1182
2479, 1181, 1203, 1204
2480, 1182, 1204, 1205
2481, 1183, 1206, 1184
2482, 1184, 1207, 1185
2483, 1184, 1206, 1207
2484, 1185, 1208, 1186
2485, 1185, 1207, 1208
2486, 1186, 1209, 1187
2487, 1186, 1208, 1209
2488, 1187, 1210, 1188
2489, 1187, 1209, 1210
2490, 1188, 1211, 1189
2491, 1188, 1210, 1211
2492, 1189, 1212, 1190
2493, 1189, 1211, 1212
2494, 1190, 1213, 1191
2495, 1190, 1212, 1213
2496, 1191, 1214, 1192
2497, 1191, 1213, 1214
2498, 1192, 1215, 1193
2499, 1192, 1214, 1215
2500, 1193, 1216, 1194
2501, 1193, 1215, 1216
2502, 1194, 1217, 1195
2503, 1194, 1216, 1217
2504, 1195, 1218, 1196
2505, 1195, 1217, 1218
2506, 1196, 1219, 1197
2507, 1196, 1218, 1219
2508, 1197, 1220, 1198
2509, 1197, 1219, 1220
2510, 1198, 1221, 1199
2511, 1198, 1220, 1221
2512, 1199, 1222, 1200
2513, 1199, 1221, 1222
2514, 1200, 1223, 1201
2515, 1200, 1222, 1223
2516, 1201, 1224, 1202
2517, 1201, 1223, 1224
2518, 1202, 1225, 1203
2519, 1202, 1224, 1225
2520, 1203, 1226, 1204
2521, 1203, 1225, 1226
2522, 1204, 1227, 1205
2523, 1204, 1226, 1227
2524, 1205, 1227, 1228
*ELEMENT, type=CPS3, ELSET=Surface52
2525, 3, 244, 31
2526, 34, 1298, 4
2527, 1298, 116, 4
2528, 212, 11, 138
2529, 16, 215, 1251
2530, 266, 16, 1251
2531, 31, 1229, 32
2532, 244, 1229, 31
2533, 32, 1252, 33
2534, 1229, 1252, 32
2535, 33, 1275, 34
2536, 1252, 1275, 33
2537, 1275, 1298, 34
2538, 1299, 117, 116
2539, 1298, 1299, 116
2540, 1300, 118, 117
2541, 1299, 1300, 117
2542, 1301, 119, 118
2543, 1300, 1301, 118
2544, 1302, 120, 119
2545, 1301, 1302, 119
2546, 1303, 121, 120
2547, 1302, 1303, 120
2548, 1304, 122, 121
2549, 1303, 1304, 121
2550, 1305, 123, 122
2551, 1304, 1305, 122
2552, 1306, 124, 123
2553, 1305, 1306, 123
2554, 1307, 125, 124
2555, 1306, 1307, 124
2556, 1308, 126, 125
2557, 1307, 1308, 125
2558, 1309, 127, 126
2559, 1308, 1309, 126
2560, 1310, 128, 127
2561, 1309, 1310, 127
2562, 1311, 129, 128
2563, 1310, 1311, 128
2564, 1312, 130, 129
2565, 1311, 1312, 129
2566, 1313, 131, 130
2567, 1312, 1313, 130
2568, 1314, 132, 131
2569, 1313, 1314, 131
2570, 1315, 133, 132
2571, 1314, 1315, 132
2572, 1316, 134, 133
2573, 1315, 1316, 133
2574, 1317, 135, 134
2575, 1316, 1317, 134
2576, 1318, 136, 135
2577, 1317, 1318, 135
2578, 1319, 137, 136
2579, 1318, 1319, 136
2580, 1320, 138, 137
2581, 1319, 1320, 137
2582, 1320, 212, 138
2583, 213, 212, 1320
2584, 214, 213, 1297
2585, 1297, 213, 1320
2586, 215, 214, 1274
2587, 1274, 214, 1297
2588, 1251, 215, 1274
2589, 244, 245, 1229
2590, 245, 246, 1230
2591, 245, 1230, 1229
2592, 246, 247, 1231
2593, 246, 1231, 1230
2594, 247, 248, 1232
2595, 247, 1232, 1231
2596, 248, 249, 1233
2597, 248, 1233, 1232
2598, 249, 250, 1234
2599, 249, 1234, 1233
2600, 250, 251, 1235
2601, 250, 1235, 1234
2602, 251, 252, 1236
2603, 251, 1236, 1235
2604, 252, 253, 1237
2605, 252, 1237, 1236
2606, 253, 254, 1238
2607, 253, 1238, 1237
2608, 254, 255, 1239
2609, 254, 1239, 1238
2610, 255, 256, 1240
2611, 255, 1240, 1239
2612, 256, 257, 1241
2613, 256, 1241, 1240
2614, 257, 258, 1242
2615, 257, 1242, 1241
2616, 258, 259, 1243
2617, 258, 1243, 1242
2618, 259, 260, 1244
2619, 259, 1244, 1243
2620, 260, 261, 1245
2621, 260, 1245, 1244
2622, 261, 262, 1246
2623, 261, 1246, 1245
2624, 262, 263, 1247
2625, 262, 1247, 1246
2626, 263, 264, 1248
2627, 263, 1248, 1247
2628, 264, 265, 1249
2629, 264, 1249, 1248
2630, 265, 266, 1250
2631, 265, 1250, 1249
2632, 266, 1251, 1250
2633, 1229, 1230, 1252
2634, 1230, 1231, 1253
2635, 1230, 1253, 1252
2636, 1231, 1232, 1254
2637, 1231, 1254, 1253
2638, 1232, 1233, 1255
2639, 1232, 1255, 1254
2640, 1233, 1234, 1256
2641, 1233, 1256, 1255
2642, 1234, 1235, 1257
2643, 1234, 1257, 1256
2644, 1235, 1236, 1258
2645, 1235, 1258, 1257
2646, 1236, 1237, 1259
2647, 1236, 1259, 1258
2648, 1237, 1238, 1260
2649, 1237, 1260, 1259
2650, 1238, 1239, 1261
2651, 1238, 1261, 1260
2652, 1239, 1240, 1262
2653, 1239, 1262, 1261
2654, 1240, 1241, 1263
2655, 1240, 1263, 1262
2656, 1241, 1242, 1264
2657, 1241, 1264, 1263
2658, 1242, 1243, 1265
2659, 1242, 1265, 1264
2660, 1243, 1244, 1266
2661, 1243, 1266, 1265
2662, 1244, 1245, 1267
2663, 1244, 1267, 1266
2664, 1245, 1246, 1268
2665, 1245, 1268, 1267
2666, 1246, 1247, 1269
2667, 1246, 1269, 1268
2668, 1247, 1248, 1270
2669, 1247, 1270, 1269
2670, 1248, 1249, 1271
2671, 1248, 1271, 1270
2672, 1249, 1250, 1272
2673, 1249, 1272, 1271
2674, 1250, 1251, 1273
2675, 1250, 1273, 1272
2676, 1251, 1274, 1273
2677, 1252, 1253, 1275
2678, 1253, 1254, 1276
2679, 1253, 1276, 1275
2680, 1254, 1255, 1277
2681, 1254, 1277, 1276
2682, 1255, 1256, 1278
2683, 1255, 1278, 1277
2684, 1256, 1257, 1279
2685, 1256, 1279, 1278
2686, 1257, 1258, 1280
2687, 1257, 1280, 1279
2688, 1258, 1259, 1281
2689, 1258, 1281, 1280
2690, 1259, 1260, 1282
2691, 1259, 1282, 1281
2692, 1260, 1261, 1283
2693, 1260, 1283, 1282
2694, 1261, 1262, 1284
2695, 1261, 1284, 1283
2696, 1262, 1263, 1285
2697, 1262, 1285, 1284
2698, 1263, 1264, 1286
2699, 1263, 1286, 1285
2700, 1264, 1265, 1287
2701, 1264, 1287, 1286
2702, 1265, 1266, 1288
2703, 1265, 1288, 1287
2704, 1266, 1267, 1289
2705, 1266, 1289, 1288
2706, 1267, 1268, 1290
2707, 1267, 1290, 1289
2708, 1268, 1269, 1291
2709, 1268, 1291, 1290
2710, 1269, 1270, 1292
2711, 1269, 1292, 1291
2712, 1270, 1271, 1293
2713, 1270, 1293, 1292
2714, 1271, 1272, 1294
2715, 1271, 1294, 1293
2716, 1272, 1273, 1295
2717, 1272, 1295, 1294
2718, 1273, 1274, 1296
2719, 1273, 1296, 1295
2720, 1274, 1297, 1296
2721, 1275, 1276, 1298
2722, 1276, 1277, 1299
2723, 1276, 1299, 1298
2724, 1277, 1278, 1300
2725, 1277, 1300, 1299
2726, 1278, 1279, 1301
2727, 1278, 1301, 1300
2728, 1279, 1280, 1302
2729, 1279, 1302, 1301
2730, 1280, 1281, 1303
2731, 1280, 1303, 1302
2732, 1281, 1282, 1304
2733, 1281, 1304, 1303
2734, 1282, 1283, 1305
2735, 1282, 1305, 1304
2736, 1283, 1284, 1306
2737, 1283, 1306, 1305
2738, 1284, 1285, 1307
2739, 1284, 1307, 1306
2740, 1285, 1286, 1308
2741, 1285, 1308, 1307
2742, 1286, 1287, 1309
2743, 1286, 1309, 1308
2744, 1287, 1288, 1310
2745, 1287, 1310, 1309
2746, 1288, 1289, 1311
2747, 1288, 1311, 1310
2748, 1289, 1290, 1312
2749, 1289, 1312, 1311
2750, 1290, 1291, 1313
2751, 1290, 1313, 1312
2752, 1291, 1292, 1314
2753, 1291, 1314, 1313
2754, 1292, 1293, 1315
2755, 1292, 1315, 1314
2756, 1293, 1294, 1316
2757, 1293, 1316, 1315
2758, 1294, 1295, 1317
2759, 1294, 1317, 1316
2760, 1295, 1296, 1318
2761, 1295, 1318, 1317
2762, 1296, 1297, 1319
2763, 1296, 1319, 1318
2764, 1297, 1320, 1319
*ELEMENT, type=CPS3, ELSET=Surface56
2765, 3, 75, 244
2766, 79, 8, 1413
2767, 1413, 8, 221
2768, 220, 243, 15
2769, 16, 1343, 216
2770, 266, 1343, 16
2771, 75, 76, 1321
2772, 244, 75, 1321
2773, 76, 77, 1344
2774, 1321, 76, 1344
2775, 77, 78, 1367
2776, 1344, 77, 1367
2777, 78, 79, 1390
2778, 1367, 78, 1390
2779, 1390, 79, 1413
2780, 216, 1366, 217
2781, 1343, 1366, 216
2782, 217, 1389, 218
2783, 1366, 1389, 217
2784, 218, 1412, 219
2785, 1389, 1412, 218
2786, 219, 1435, 220
2787, 1412, 1435, 219
2788, 1435, 243, 220
2789, 1414, 221, 222
2790, 1413, 221, 1414
2791, 1415, 222, 223
2792, 1414, 222, 1415
2793, 1416, 223, 224
2794, 1415, 223, 1416
2795, 1417, 224, 225
2796, 1416, 224, 1417
2797, 1418, 225, 226
2798, 1417, 225, 1418
2799, 1419, 226, 227
2800, 1418, 226, 1419
2801, 1420, 227, 228
2802, 1419, 227, 1420
2803, 1421, 228, 229
2804, 1420, 228, 1421
2805, 1422, 229, 230
2806, 1421, 229, 1422
2807, 1423, 230, 231
2808, 1422, 230, 1423
2809, 1424, 231, 232
2810, 1423, 231, 1424
2811, 1425, 232, 233
2812, 1424, 232, 1425
2813, 1426, 233, 234
2814, 1425, 233, 1426
2815, 1427, 234, 235
2816, 1426, 234, 1427
2817, 1428, 235, 236
2818, 1427, 235, 1428
2819, 1429, 236, 237
2820, 1428, 236, 1429
2821, 1430, 237, 238
2822, 1429, 237, 1430
2823, 1431, 238, 239
2824, 1430, 238, 1431
2825, 1432, 239, 240
2826, 1431, 239, 1432
2827, 1433, 240, 241
2828, 1432, 240, 1433
2829, 1434, 241, 242
2830, 1433, 241, 1434
2831, 1435, 242, 243
2832, 1434, 242, 1435
2833, 244, 1321, 245
2834, 245, 1322, 246
2835, 245, 1321, 1322
2836, 246, 1323, 247
2837, 246, 1322, 1323
2838, 247, 1324, 248
2839, 247, 1323, 1324
2840, 248, 1325, 249
2841, 248, 1324, 1325
2842, 249, 1326, 250
2843, 249, 1325, 1326
2844, 250, 1327, 251
2845, 250, 1326, 1327
2846, 251, 1328, 252
2847, 251, 1327, 1328
2848, 252, 1329, 253
2849, 252, 1328, 1329
2850, 253, 1330, 254
2851, 253, 1329, 1330
2852, 254, 1331, 255
2853, 254, 1330, 1331
2854, 255, 1332, 256
2855, 255, 1331, 1332
2856, 256, 1333, 257
2857, 256, 1332, 1333
2858, 257, 1334, 258
2859, 257, 1333, 1334
2860, 258, 1335, 259
2861, 258, 1334, 1335
2862, 259, 1336, 260
2863, 259, 1335, 1336
2864, 260, 1337, 261
2865, 260, 1336, 1337
2866, 261, 1338, 262
2867, 261, 1337, 1338
2868, 262, 1339, 263
2869, 262, 1338, 1339
2870, 263, 1340, 264
2871, 263, 1339, 1340
2872, 264, 1341, 265
2873, 264, 1340, 1341
2874, 265, 1342, 266
2875, 265, 1341, 1342
2876, 266, 1342, 1343
2877, 1321, 1344, 1322
2878, 1322, 1345, 1323
2879, 1322, 1344, 1345
2880, 1323, 1346, 1324
2881, 1323, 1345, 1346
2882, 1324, 1347, 1325
2883, 1324, 1346, 1347
2884, 1325, 1348, 1326
2885, 1325, 1347, 1348
2886, 1326, 1349, 1327
2887, 1326, 1348, 1349
2888, 1327, 1350, 1328
2889, 1327, 1349, 1350
2890, 1328, 1351, 1329
2891, 1328, 1350, 1351
2892, 1329, 1352, 1330
2893, 1329, 1351, 1352
2894, 1330, 1353, 1331
2895, 1330, 1352, 1353
2896, 1331, 1354, 1332
2897, 1331, 1353, 1354
2898, 1332, 1355, 1333
2899, 1332, 1354, 1355
2900, 1333, 1356, 1334
2901, 1333, 1355, 1356
2902, 1334, 1357, 1335
2903, 1334, 1356, 1357
2904, 1335, 1358, 1336
2905, 1335, 1357, 1358
2906, 1336, 1359, 1337
2907, 1336, 1358, 1359
2908, 1337, 1360, 1338
2909, 1337, 1359, 1360
2910, 1338, 1361, 1339
2911, 1338, 1360, 1361
2912, 1339, 1362, 1340
2913, 1339, 1361, 1362
2914, 1340, 1363, 1341
2915, 1340, 1362, 1363
2916, 1341, 1364, 1342
2917, 1341, 1363, 1364
2918, 1342, 1365, 1343
2919, 1342, 1364, 1365
2920, 1343, 1365, 1366
2921, 1344, 1367, 1345
2922, 1345, 1368, 1346
2923, 1345, 1367, 1368
2924, 1346, 1369, 1347
2925, 1346, 1368, 1369
2926, 1347, 1370, 1348
2927, 1347, 1369, 1370
2928, 1348, 1371, 1349
2929, 1348, 1370, 1371
2930, 1349, 1372, 1350
2931, 1349, 1371, 1372
2932, 1350, 1373, 1351
2933, 1350, 1372, 1373
2934, 1351, 1374, 1352
2935, 1351, 1373, 1374
2936, 1352, 1375, 1353
2937, 1352, 1374, 1375
2938, 1353, 1376, 1354
2939, 1353, 1375, 1376
2940, 1354, 1377, 1355
2941, 1354, 1376, 1377
2942, 1355, 1378, 1356
2943, 1355, 1377, 1378
2944, 1356, 1379, 1357
2945, 1356, 1378, 1379
2946, 1357, 1380, 1358
2947, 1357, 1379, 1380
2948, 1358, 1381, 1359
2949, 1358, 1380, 1381
2950, 1359, 1382, 1360
2951, 1359, 1381, 1382
2952, 1360, 1383, 1361
2953, 1360, 1382, 1383
2954, 1361, 1384, 1362
2955, 1361, 1383, 1384
2956, 1362, 1385, 1363
2957, 1362, 1384, 1385
2958, 1363, 1386, 1364
2959, 1363, 1385, 1386
2960, 1364, 1387, 1365
2961, 1364, 1386, 1387
2962, 1365, 1388, 1366
2963, 1365, 1387, 1388
2964, 1366, 1388, 1389
2965, 1367, 1390, 1368
2966, 1368, 1391, 1369
2967, 1368, 1390, 1391
2968, 1369, 1392, 1370
2969, 1369, 1391, 1392
2970, 1370, 1393, 1371
2971, 1370, 1392, 1393
2972, 1371, 1394, 1372
2973, 1371, 1393, 1394
2974, 1372, 1395, 1373
2975, 1372, 1394, 1395
2976, 1373, 1396, 1374
2977, 1373, 1395, 1396
2978, 1374, 1397, 1375
2979, 1374, 1396, 1397
2980, 1375, 1398, 1376
2981, 1375, 1397, 1398
2982, 1376, 1399, 1377
2983, 1376, 1398, 1399
2984, 1377, 1400, 1378
2985, 1377, 1399, 1400
2986, 1378, 1401, 1379
2987, 1378, 1400, 1401
2988, 1379, 1402, 1380
2989, 1379, 1401, 1402
2990, 1380, 1403, 1381
2991, 1380, 1402, 1403
2992, 1381, 1404, 1382
2993, 1381, 1403, 1404
2994, 1382, 1405, 1383
2995, 1382, 1404, 1405
2996, 1383, 1406, 1384
2997, 1383, 1405, 1406
2998, 1384, 1407, 1385
2999, 1384, 1406, 1407
3000, 1385, 1408, 1386
3001, 1385, 1407, 1408
3002, 1386, 1409, 1387
3003, 1386, 1408, 1409
3004, 1387, 1410, 1388
3005, 1387, 1409, 1410
3006, 1388, 1411, 1389
3007, 1388, 1410, 1411
3008, 1389, 1411, 1412
3009, 1390, 1413, 1391
3010, 1391, 1414, 1392
3011, 1391, 1413, 1414
3012, 1392, 1415, 1393
3013, 1392, 1414, 1415
3014, 1393, 1416, 1394
3015, 1393, 1415, 1416
3016, 1394, 1417, 1395
3017, 1394, 1416, 1417
3018, 1395, 1418, 1396
3019, 1395, 1417, 1418
3020, 1396, 1419, 1397
3021, 1396, 1418, 1419
3022, 1397, 1420, 1398
3023, 1397, 1419, 1420
3024, 1398, 1421, 1399
3025, 1398, 1420, 1421
3026, 1399, 1422, 1400
3027, 1399, 1421, 1422
3028, 1400, 1423, 1401
3029, 1400, 1422, 1423
3030, 1401, 1424, 1402
3031, 1401, 1423, 1424
3032, 1402, 1425, 1403
3033, 1402, 1424, 1425
3034, 1403, 1426, 1404
3035, 1403, 1425, 1426
3036, 1404, 1427, 1405
3037, 1404, 1426, 1427
3038, 1405, 1428, 1406
3039, 1405, 1427, 1428
3040, 1406, 1429, 1407
3041, 1406, 1428, 1429
3042, 1407, 1430, 1408
3043, 1407, 1429, 1430
3044, 1408, 1431, 1409
3045, 1408, 1430, 1431
3046, 1409, 1432, 1410
3047, 1409, 1431, 1432
3048, 1410, 1433, 1411
3049, 1410, 1432, 1433
3050, 1411, 1434, 1412
3051, 1411, 1433, 1434
3052, 1412, 1434, 1435
*ELEMENT, type=CPS3, ELSET=Surface57
3053, 212, 90, 11
3054, 1451, 12, 94
3055, 211, 12, 1451
3056, 15, 208, 220
3057, 16, 1440, 215
3058, 216, 1440, 16
3059, 1455, 91, 90
3060, 1455, 90, 212
3061, 1454, 92, 91
3062, 1454, 91, 1455
3063, 1453, 93, 92
3064, 1453, 92, 1454
3065, 1452, 94, 93
3066, 1452, 93, 1453
3067, 1451, 94, 1452
3068, 208, 209, 1436
3069, 220, 208, 1436
3070, 209, 210, 1441
3071, 1436, 209, 1441
3072, 210, 211, 1446
3073, 1441, 210, 1446
3074, 1446, 211, 1451
3075, 213, 1455, 212
3076, 214, 1450, 213
3077, 1450, 1455, 213
3078, 215, 1445, 214
3079, 1445, 1450, 214
3080, 1440, 1445, 215
3081, 217, 1439, 216
3082, 216, 1439, 1440
3083, 218, 1438, 217
3084, 217, 1438, 1439
3085, 219, 1437, 218
3086, 218, 1437, 1438
3087, 220, 1436, 219
3088, 219, 1436, 1437
3089, 1436, 1441, 1437
3090, 1437, 1442, 1438
3091, 1437, 1441, 1442
3092, 1438, 1443, 1439
3093, 1438, 1442, 1443
3094, 1439, 1444, 1440
3095, 1439, 1443, 1444
3096, 1440, 1444, 1445
3097, 1441, 1446, 1442
3098, 1442, 1447, 1443
3099, 1442, 1446, 1447
3100, 1443, 1448, 1444
3101, 1443, 1447, 1448
3102, 1444, 1449, 1445
3103, 1444, 1448, 1449
3104, 1445, 1449, 1450
3105, 1446, 1451, 1447
3106, 1447, 1452, 1448
3107, 1447, 1451, 1452
3108, 1448, 1453, 1449
3109, 1448, 1452, 1453
3110, 1449, 1454, 1450
3111, 1449, 1453, 1454
3112, 1450, 1454, 1455
*ELEMENT, type=CPS3, ELSET=Surface66
3113, 52, 8, 1548
3114, 1548, 8, 221
3115, 9, 48, 282
3116, 271, 243, 15
3117, 17, 1478, 267
3118, 304, 1478, 17
3119, 48, 49, 1456
3120, 282, 48, 1456
3121, 49, 50, 1479
3122, 1456, 49, 1479
3123, 50, 51, 1502
3124, 1479, 50, 1502
3125, 51, 52, 1525
3126, 1502, 51, 1525
3127, 1525, 52, 1548
3128, 1549, 221, 222
3129, 1548, 221, 1549
3130, 1550, 222, 223
3131, 1549, 222, 1550
3132, 1551, 223, 224
3133, 1550, 223, 1551
3134, 1552, 224, 225
3135, 1551, 224, 1552
3136, 1553, 225, 226
3137, 1552, 225, 1553
3138, 1554, 226, 227
3139, 1553, 226, 1554
3140, 1555, 227, 228
3141, 1554, 227, 1555
3142, 1556, 228, 229
3143, 1555, 228, 1556
3144, 1557, 229, 230
3145, 1556, 229, 1557
3146, 1558, 230, 231
3147, 1557, 230, 1558
3148, 1559, 231, 232
3149, 1558, 231, 1559
3150, 1560, 232, 233
3151, 1559, 232, 1560
3152, 1561, 233, 234
3153, 1560, 233, 1561
3154, 1562, 234, 235
3155, 1561, 234, 1562
3156, 1563, 235, 236
3157, 1562, 235, 1563
3158, 1564, 236, 237
3159, 1563, 236, 1564
3160, 1565, 237, 238
3161, 1564, 237, 1565
3162, 1566, 238, 239
3163, 1565, 238, 1566
3164, 1567, 239, 240
3165, 1566, 239, 1567
3166, 1568, 240, 241
3167, 1567, 240, 1568
3168, 1569, 241, 242
3169, 1568, 241, 1569
3170, 1570, 242, 243
3171, 1569, 242, 1570
3172, 1570, 243, 271
3173, 267, 1501, 268
3174, 1478, 1501, 267
3175, 268, 1524, 269
3176, 1501, 1524, 268
3177, 269, 1547, 270
3178, 1524, 1547, 269
3179, 270, 1570, 271
3180, 1547, 1570, 270
3181, 282, 1456, 283
3182, 283, 1457, 284
3183, 283, 1456, 1457
3184, 284, 1458, 285
3185, 284, 1457, 1458
3186, 285, 1459, 286
3187, 285, 1458, 1459
3188, 286, 1460, 287
3189, 286, 1459, 1460
3190, 287, 1461, 288
3191, 287, 1460, 1461
3192, 288, 1462, 289
3193, 288, 1461, 1462
3194, 289, 1463, 290
3195, 289, 1462, 1463
3196, 290, 1464, 291
3197, 290, 1463, 1464
3198, 291, 1465, 292
3199, 291, 1464, 1465
3200, 292, 1466, 293
3201, 292, 1465, 1466
3202, 293, 1467, 294
3203, 293, 1466, 1467
3204, 294, 1468, 295
3205, 294, 1467, 1468
3206, 295, 1469, 296
3207, 295, 1468, 1469
3208, 296, 1470, 297
3209, 296, 1469, 1470
3210, 297, 1471, 298
3211, 297, 1470, 1471
3212, 298, 1472, 299
3213, 298, 1471, 1472
3214, 299, 1473, 300
3215, 299, 1472, 1473
3216, 300, 1474, 301
3217, 300, 1473, 1474
3218, 301, 1475, 302
3219, 301, 1474, 1475
3220, 302, 1476, 303
3221, 302, 1475, 1476
3222, 303, 1477, 304
3223, 303, 1476, 1477
3224, 304, 1477, 1478
3225, 1456, 1479, 1457
3226, 1457, 1480, 1458
3227, 1457, 1479, 1480
3228, 1458, 1481, 1459
3229, 1458, 1480, 1481
3230, 1459, 1482, 1460
3231, 1459, 1481, 1482
3232, 1460, 1483, 1461
3233, 1460, 1482, 1483
3234, 1461, 1484, 1462
3235, 1461, 1483, 1484
3236, 1462, 1485, 1463
3237, 1462, 1484, 1485
3238, 1463, 1486, 1464
3239, 1463, 1485, 1486
3240, 1464, 1487, 1465
3241, 1464, 1486, 1487
3242, 1465, 1488, 1466
3243, 1465, 1487, 1488
3244, 1466, 1489, 1467
3245, 1466, 1488, 1489
3246, 1467, 1490, 1468
3247, 1467, 1489, 1490
3248, 1468, 1491, 1469
3249, 1468, 1490, 1491
3250, 1469, 1492, 1470
3251, 1469, 1491, 1492
3252, 1470, 1493, 1471
3253, 1470, 1492, 1493
3254, 1471, 1494, 1472
3255, 1471, 1493, 1494
3256, 1472, 1495, 1473
3257, 1472, 1494, 1495
3258, 1473, 1496, 1474
3259, 1473, 1495, 1496
3260, 1474, 1497, 1475
3261, 1474, 1496, 1497
3262, 1475, 1498, 1476
3263, 1475, 1497, 1498
3264, 1476, 1499, 1477
3265, 1476, 1498, 1499
3266, 1477, 1500, 1478
3267, 1477, 1499, 1500
3268, 1478, 1500, 1501
3269, 1479, 1502, 1480
3270, 1480, 1503, 1481
3271, 1480, 1502, 1503
3272, 1481, 1504, 1482
3273, 1481, 1503, 1504
3274, 1482, 1505, 1483
3275, 1482, 1504, 1505
3276, 1483, 1506, 1484
3277, 1483, 1505, 1506
3278, 1484, 1507, 1485
3279, 1484, 1506, 1507
3280, 1485, 1508, 1486
3281, 1485, 1507, 1508
3282, 1486, 1509, 1487
3283, 1486, 1508, 1509
3284, 1487, 1510, 1488
3285, 1487, 1509, 1510
3286, 1488, 1511, 1489
3287, 1488, 1510, 1511
3288, 1489, 1512, 1490
3289, 1489, 1511, 1512
3290, 1490, 1513, 1491
3291, 1490, 1512, 1513
3292, 1491, 1514, 1492
3293, 1491, 1513, 1514
3294, 1492, 1515, 1493
3295, 1492, 1514, 1515
3296, 1493, 1516, 1494
3297, 1493, 1515, 1516
3298, 1494, 1517, 1495
3299, 1494, 1516, 1517
3300, 1495, 1518, 1496
3301, 1495, 1517, 1518
3302, 1496, 1519, 1497
3303, 1496, 1518, 1519
3304, 1497, 1520, 1498
3305, 1497, 1519, 1520
3306, 1498, 1521, 1499
3307, 1498, 1520, 1521
3308, 1499, 1522, 1500
3309, 1499, 1521, 1522
3310, 1500, 1523, 1501
3311, 1500, 1522, 1523
3312, 1501, 1523, 1524
3313, 1502, 1525, 1503
3314, 1503, 1526, 1504
3315, 1503, 1525, 1526
3316, 1504, 1527, 1505
3317, 1504, 1526, 1527
3318, 1505, 1528, 1506
3319, 1505, 1527, 1528
3320, 1506, 1529, 1507
3321, 1506, 1528, 1529
3322, 1507, 1530, 1508
3323, 1507, 1529, 1530
3324, 1508, 1531, 1509
3325, 1508, 1530, 1531
3326, 1509, 1532, 1510
3327, 1509, 1531, 1532
3328, 1510, 1533, 1511
3329, 1510, 1532, 1533
3330, 1511, 1534, 1512
3331, 1511, 1533, 1534
3332, 1512, 1535, 1513
3333, 1512, 1534, 1535
3334, 1513, 1536, 1514
3335, 1513, 1535, 1536
3336, 1514, 1537, 1515
3337, 1514, 1536, 1537
3338, 1515, 1538, 1516
3339, 1515, 1537, 1538
3340, 1516, 1539, 1517
3341, 1516, 1538, 1539
3342, 1517, 1540, 1518
3343, 1517, 1539, 1540
3344, 1518, 1541, 1519
3345, 1518, 1540, 1541
3346, 1519, 1542, 1520
3347, 1519, 1541, 1542
3348, 1520, 1543, 1521
3349, 1520, 1542, 1543
3350, 1521, 1544, 1522
3351, 1521, 1543, 1544
3352, 1522, 1545, 1523
3353, 1522, 1544, 1545
3354, 1523, 1546, 1524
3355, 1523, 1545, 1546
3356, 1524, 1546, 1547
3357, 1525, 1548, 1526
3358, 1526, 1549, 1527
3359, 1526, 1548, 1549
3360, 1527, 1550, 1528
3361, 1527, 1549, 1550
3362, 1528, 1551, 1529
3363, 1528, 1550, 1551
3364, 1529, 1552, 1530
3365, 1529, 1551, 1552
3366, 1530, 1553, 1531
3367, 1530, 1552, 1553
3368, 1531, 1554, 1532
3369, 1531, 1553, 1554
3370, 1532, 1555, 1533
3371, 1532, 1554, 1555
3372, 1533, 1556, 1534
3373, 1533, 1555, 1556
3374, 1534, 1557, 1535
3375, 1534, 1556, 1557
3376, 1535, 1558, 1536
3377, 1535, 1557, 1558
3378, 1536, 1559, 1537
3379, 1536, 1558, 1559
3380, 1537, 1560, 1538
3381, 1537, 1559, 1560
3382, 1538, 1561, 1539
3383, 1538, 1560, 1561
3384, 1539, 1562, 1540
3385, 1539, 1561, 1562
3386, 1540, 1563, 1541
3387, 1540, 1562, 1563
3388, 1541, 1564, 1542
3389, 1541, 1563, 1564
3390, 1542, 1565, 1543
3391, 1542, 1564, 1565
3392, 1543, 1566, 1544
3393, 1543, 1565, 1566
3394, 1544, 1567, 1545
3395, 1544, 1566, 1567
3396, 1545, 1568, 1546
3397, 1545, 1567, 1568
3398, 1546, 1569, 1547
3399, 1546, 1568, 1569
3400, 1547, 1569, 1570
*ELEMENT, type=CPS3, ELSET=Surface74
3401, 2, 305, 26
3402, 30, 1663, 3
3403, 1663, 244, 3
3404, 272, 16, 266
3405, 18, 276, 1593
3406, 327, 18, 1593
3407, 26, 1571, 27
3408, 305, 1571, 26
3409, 27, 1594, 28
3410, 1571, 1594, 27
3411, 28, 1617, 29
3412, 1594, 1617, 28
3413, 29, 1640, 30
3414, 1617, 1640, 29
3415, 1640, 1663, 30
3416, 1664, 245, 244
3417, 1663, 1664, 244
3418, 1665, 246, 245
3419, 1664, 1665, 245
3420, 1666, 247, 246
3421, 1665, 1666, 246
3422, 1667, 248, 247
3423, 1666, 1667, 247
3424, 1668, 249, 248
3425, 1667, 1668, 248
3426, 1669, 250, 249
3427, 1668, 1669, 249
3428, 1670, 251, 250
3429, 1669, 1670, 250
3430, 1671, 252, 251
3431, 1670, 1671, 251
3432, 1672, 253, 252
3433, 1671, 1672, 252
3434, 1673, 254, 253
3435, 1672, 1673, 253
3436, 1674, 255, 254
3437, 1673, 1674, 254
3438, 1675, 256, 255
3439, 1674, 1675, 255
3440, 1676, 257, 256
3441, 1675, 1676, 256
3442, 1677, 258, 257
3443, 1676, 1677, 257
3444, 1678, 259, 258
3445, 1677, 1678, 258
3446, 1679, 260, 259
3447, 1678, 1679, 259
3448, 1680, 261, 260
3449, 1679, 1680, 260
3450, 1681, 262, 261
3451, 1680, 1681, 261
3452, 1682, 263, 262
3453, 1681, 1682, 262
3454, 1683, 264, 263
3455, 1682, 1683, 263
3456, 1684, 265, 264
3457, 1683, 1684, 264
3458, 1685, 266, 265
3459, 1684, 1685, 265
3460, 1685, 272, 266
3461, 273, 272, 1685
3462, 274, 273, 1662
3463, 1662, 273, 1685
3464, 275, 274, 1639
3465, 1639, 274, 1662
3466, 276, 275, 1616
3467, 1616, 275, 1639
3468, 1593, 276, 1616
3469, 305, 306, 1571
3470, 306, 307, 1572
3471, 306, 1572, 1571
3472, 307, 308, 1573
3473, 307, 1573, 1572
3474, 308, 309, 1574
3475, 308, 1574, 1573
3476, 309, 310, 1575
3477, 309, 1575, 1574
3478, 310, 311, 1576
3479, 310, 1576, 1575
3480, 311, 312, 1577
3481, 311, 1577, 1576
3482, 312, 313, 1578
3483, 312, 1578, 1577
3484, 313, 314, 1579
3485, 313, 1579, 1578
3486, 314, 315, 1580
3487, 314, 1580, 1579
3488, 315, 316, 1581
3489, 315, 1581, 1580
3490, 316, 317, 1582
3491, 316, 1582, 1581
3492, 317, 318, 1583
3493, 317, 1583, 1582
3494, 318, 319, 1584
3495, 318, 1584, 1583
3496, 319, 320, 1585
3497, 319, 1585, 1584
3498, 320, 321, 1586
3499, 320, 1586, 1585
3500, 321, 322, 1587
3501, 321, 1587, 1586
3502, 322, 323, 1588
3503, 322, 1588, 1587
3504, 323, 324, 1589
3505, 323, 1589, 1588
3506, 324, 325, 1590
3507, 324, 1590, 1589
3508, 325, 326, 1591
3509, 325, 1591, 1590
3510, 326, 327, 1592
3511, 326, 1592, 1591
3512, 327, 1593, 1592
3513, 1571, 1572, 1594
3514, 1572, 1573, 1595
3515, 1572, 1595, 1594
3516, 1573, 1574, 1596
3517, 1573, 1596, 1595
3518, 1574, 1575, 1597
3519, 1574, 1597, 1596
3520, 1575, 1576, 1598
3521, 1575, 1598, 1597
3522, 1576, 1577, 1599
3523, 1576, 1599, 1598
3524, 1577, 1578, 1600
3525, 1577, 1600, 1599
3526, 1578, 1579, 1601
3527, 1578, 1601, 1600
3528, 1579, 1580, 1602
3529, 1579, 1602, 1601
3530, 1580, 1581, 1603
3531, 1580, 1603, 1602
3532, 1581, 1582, 1604
3533, 1581, 1604, 1603
3534, 1582, 1583, 1605
3535, 1582, 1605, 1604
3536, 1583, 1584, 1606
3537, 1583, 1606, 1605
3538, 1584, 1585, 1607
3539, 1584, 1607, 1606
3540, 1585, 1586, 1608
3541, 1585, 1608, 1607
3542, 1586, 1587, 1609
3543, 1586, 1609, 1608
3544, 1587, 1588, 1610
3545, 1587, 1610, 1609
3546, 1588, 1589, 1611
3547, 1588, 1611, 1610
3548, 1589, 1590, 1612
3549, 1589, 1612, 1611
3550, 1590, 1591, 1613
3551, 1590, 1613, 1612
3552, 1591, 1592, 1614
3553, 1591, 1614, 1613
3554, 1592, 1593, 1615
3555, 1592, 1615, 1614
3556, 1593, 1616, 1615
3557, 1594, 1595, 1617
3558, 1595, 1596, 1618
3559, 1595, 1618, 1617
3560, 1596, 1597, 1619
3561, 1596, 1619, 1618
3562, 1597, 1598, 1620
3563, 1597, 1620, 1619
3564, 1598, 1599, 1621
3565, 1598, 1621, 1620
3566, 1599, 1600, 1622
3567, 1599, 1622, 1621
3568, 1600, 1601, 1623
3569, 1600, 1623, 1622
3570, 1601, 1602, 1624
3571, 1601, 1624, 1623
3572, 1602, 1603, 1625
3573, 1602, 1625, 1624
3574, 1603, 1604, 1626
3575, 1603, 1626, 1625
3576, 1604, 1605, 1627
3577, 1604, 1627, 1626
3578, 1605, 1606, 1628
3579, 1605, 1628, 1627
3580, 1606, 1607, 1629
3581, 1606, 1629, 1628
3582, 1607, 1608, 1630
3583, 1607, 1630, 1629
3584, 1608, 1609, 1631
3585, 1608, 1631, 1630
3586, 1609, 1610, 1632
3587, 1609, 1632, 1631
3588, 1610, 1611, 1633
3589, 1610, 1633, 1632
3590, 1611, 1612, 1634
3591, 1611, 1634, 1633
3592, 1612, 1613, 1635
3593, 1612, 1635, 1634
3594, 1613, 1614, 1636
3595, 1613, 1636, 1635
3596, 1614, 1615, 1637
3597, 1614, 1637, 1636
3598, 1615, 1616, 1638
3599, 1615, 1638, 1637
3600, 1616, 1639, 1638
3601, 1617, 1618, 1640
3602, 1618, 1619, 1641
3603, 1618, 1641, 1640
3604, 1619, 1620, 1642
3605, 1619, 1642, 1641
3606, 1620, 1621, 1643
3607, 1620, 1643, 1642
3608, 1621, 1622, 1644
3609, 1621, 1644, 1643
3610, 1622, 1623, 1645
3611, 1622, 1645, 1644
3612, 1623, 1624, 1646
3613, 1623, 1646, 1645
3614, 1624, 1625, 1647
3615, 1624, 1647, 1646
3616, 1625, 1626, 1648
3617, 1625, 1648, 1647
3618, 1626, 1627, 1649
3619, 1626, 1649, 1648
3620, 1627, 1628, 1650
3621, 1627, 1650, 1649
3622, 1628, 1629, 1651
3623, 1628, 1651, 1650
3624, 1629, 1630, 1652
3625, 1629, 1652, 1651
3626, 1630, 1631, 1653
3627, 1630, 1653, 1652
3628, 1631, 1632, 1654
3629, 1631, 1654, 1653
3630, 1632, 1633, 1655
3631, 1632, 1655, 1654
3632, 1633, 1634, 1656
3633, 1633, 1656, 1655
3634, 1634, 1635, 1657
3635, 1634, 1657, 1656
3636, 1635, 1636, 1658
3637, 1635, 1658, 1657
3638, 1636, 1637, 1659
3639, 1636, 1659, 1658
3640, 1637, 1638, 1660
3641, 1637, 1660, 1659
3642, 1638, 1639, 1661
3643, 1638, 1661, 1660
3644, 1639, 1662, 1661
3645, 1640, 1641, 1663
3646, 1641, 1642, 1664
3647, 1641, 1664, 1663
3648, 1642, 1643, 1665
3649, 1642, 1665, 1664
3650, 1643, 1644, 1666
3651, 1643, 1666, 1665
3652, 1644, 1645, 1667
3653, 1644, 1667, 1666
3654, 1645, 1646, 1668
3655, 1645, 1668, 1667
3656, 1646, 1647, 1669
3657, 1646, 1669, 1668
3658, 1647, 1648, 1670
3659, 1647, 1670, 1669
3660, 1648, 1649, 1671
3661, 1648, 1671, 1670
3662, 1649, 1650, 1672
3663, 1649, 1672, 1671
3664, 1650, 1651, 1673
3665, 1650, 1673, 1672
3666, 1651, 1652, 1674
3667, 1651, 1674, 1673
3668, 1652, 1653, 1675
3669, 1652, 1675, 1674
3670, 1653, 1654, 1676
3671, 1653, 1676, 1675
3672, 1654, 1655, 1677
3673, 1654, 1677, 1676
3674, 1655, 1656, 1678
3675, 1655, 1678, 1677
3676, 1656, 1657, 1679
3677, 1656, 1679, 1678
3678, 1657, 1658, 1680
3679, 1657, 1680, 1679
3680, 1658, 1659, 1681
3681, 1658, 1681, 1680
3682, 1659, 1660, 1682
3683, 1659, 1682, 1681
3684, 1660, 1661, 1683
3685, 1660, 1683, 1682
3686, 1661, 1662, 1684
3687, 1661, 1684, 1683
3688, 1662, 1685, 1684
*ELEMENT, type=CPS3, ELSET=Surface78
3689, 2, 70, 305
3690, 74, 9, 1778
3691, 1778, 9, 282
3692, 281, 304, 17
3693, 18, 1708, 277
3694, 327, 1708, 18
3695, 70, 71, 1686
3696, 305, 70, 1686
3697, 71, 72, 1709
3698, 1686, 71, 1709
3699, 72, 73, 1732
3700, 1709, 72, 1732
3701, 73, 74, 1755
3702, 1732, 73, 1755
3703, 1755, 74, 1778
3704, 277, 1731, 278
3705, 1708, 1731, 277
3706, 278, 1754, 279
3707, 1731, 1754, 278
3708, 279, 1777, 280
3709, 1754, 1777, 279
3710, 280, 1800, 281
3711, 1777, 1800, 280
3712, 1800, 304, 281
3713, 1779, 282, 283
3714, 1778, 282, 1779
3715, 1780, 283, 284
3716, 1779, 283, 1780
3717, 1781, 284, 285
3718, 1780, 284, 1781
3719, 1782, 285, 286
3720, 1781, 285, 1782
3721, 1783, 286, 287
3722, 1782, 286, 1783
3723, 1784, 287, 288
3724, 1783, 287, 1784
3725, 1785, 288, 289
3726, 1784, 288, 1785
3727, 1786, 289, 290
3728, 1785, 289, 1786
3729, 1787, 290, 291
3730, 1786, 290, 1787
3731, 1788, 291, 292
3732, 1787, 291, 1788
3733, 1789, 292, 293
3734, 1788, 292, 1789
3735, 1790, 293, 294
3736, 1789, 293, 1790
3737, 1791, 294, 295
3738, 1790, 294, 1791
3739, 1792, 295, 296
3740, 1791, 295, 1792
3741, 1793, 296, 297
3742, 1792, 296, 1793
3743, 1794, 297, 298
3744, 1793, 297, 1794
3745, 1795, 298, 299
3746, 1794, 298, 1795
3747, 1796, 299, 300
3748, 1795, 299, 1796
3749, 1797, 300, 301
3750, 1796, 300, 1797
3751, 1798, 301, 302
3752, 1797, 301, 1798
3753, 1799, 302, 303
3754, 1798, 302, 1799
3755, 1800, 303, 304
3756, 1799, 303, 1800
3757, 305, 1686, 306
3758, 306, 1687, 307
3759, 306, 1686, 1687
3760, 307, 1688, 308
3761, 307, 1687, 1688
3762, 308, 1689, 309
3763, 308, 1688, 1689
3764, 309, 1690, 310
3765, 309, 1689, 1690
3766, 310, 1691, 311
3767, 310, 1690, 1691
3768, 311, 1692, 312
3769, 311, 1691, 1692
3770, 312, 1693, 313
3771, 312, 1692, 1693
3772, 313, 1694, 314
3773, 313, 1693, 1694
3774, 314, 1695, 315
3775, 314, 1694, 1695
3776, 315, 1696, 316
3777, 315, 1695, 1696
3778, 316, 1697, 317
3779, 316, 1696, 1697
3780, 317, 1698, 318
3781, 317, 1697, 1698
3782, 318, 1699, 319
3783, 318, 1698, 1699
3784, 319, 1700, 320
3785, 319, 1699, 1700
3786, 320, 1701, 321
3787, 320, 1700, 1701
3788, 321, 1702, 322
3789, 321, 1701, 1702
3790, 322, 1703, 323
3791, 322, 1702, 1703
3792, 323, 1704, 324
3793, 323, 1703, 1704
3794, 324, 1705, 325
3795, 324, 1704, 1705
3796, 325, 1706, 326
3797, 325, 1705, 1706
3798, 326, 1707, 327
3799, 326, 1706, 1707
3800, 327, 1707, 1708
3801, 1686, 1709, 1687
3802, 1687, 1710, 1688
3803, 1687, 1709, 1710
3804, 1688, 1711, 1689
3805, 1688, 1710, 1711
3806, 1689, 1712, 1690
3807, 1689, 1711, 1712
3808, 1690, 1713, 1691
3809, 1690, 1712, 1713
3810, 1691, 1714, 1692
3811, 1691, 1713, 1714
3812, 1692, 1715, 1693
3813, 1692, 1714, 1715
3814, 1693, 1716, 1694
3815, 1693, 1715, 1716
3816, 1694, 1717, 1695
3817, 1694, 1716, 1717
3818, 1695, 1718, 1696
3819, 1695, 1717, 1718
3820, 1696, 1719, 1697
3821, 1696, 1718, 1719
3822, 1697, 1720, 1698
3823, 1697, 1719, 1720
3824, 1698, 1721, 1699
3825, 1698, 1720, 1721
3826, 1699, 1722, 1700
3827, 1699, 1721, 1722
3828, 1700, 1723, 1701
3829, 1700, 1722, 1723
3830, 1701, 1724, 1702
3831, 1701, 1723, 1724
3832, 1702, 1725, 1703
3833, 1702, 1724, 1725
3834, 1703, 1726, 1704
3835, 1703, 1725, 1726
3836, 1704, 1727, 1705
3837, 1704, 1726, 1727
3838, 1705, 1728, 1706
3839, 1705, 1727, 1728
3840, 1706, 1729, 1707
3841, 1706, 1728, 1729
3842, 1707, 1730, 1708
3843, 1707, 1729, 1730
3844, 1708, 1730, 1731
3845, 1709, 1732, 1710
3846, 1710, 1733, 1711
3847, 1710, 1732, 1733
3848, 1711, 1734, 1712
3849, 1711, 1733, 1734
3850, 1712, 1735, 1713
3851, 1712, 1734, 1735
3852, 1713, 1736, 1714
3853, 1713, 1735, 1736
3854, 1714, 1737, 1715
3855, 1714, 1736, 1737
3856, 1715, 1738, 1716
3857, 1715, 1737, 1738
3858, 1716, 1739, 1717
3859, 1716, 1738, 1739
3860, 1717, 1740, 1718
3861, 1717, 1739, 1740
3862, 1718, 1741, 1719
3863, 1718, 1740, 1741
3864, 1719, 1742, 1720
3865, 1719, 1741, 1742
3866, 1720, 1743, 1721
3867, 1720, 1742, 1743
3868, 1721, 1744, 1722
3869, 1721, 1743, 1744
3870, 1722, 1745, 1723
3871, 1722, 1744, 1745
3872, 1723, 1746, 1724
3873, 1723, 1745, 1746
3874, 1724, 1747, 1725
3875, 1724, 1746, 1747
3876, 1725, 1748, 1726
3877, 1725, 1747, 1748
3878, 1726, 1749, 1727
3879, 1726, 1748, 1749
3880, 1727, 1750, 1728
3881, 1727, 1749, 1750
3882, 1728, 1751, 1729
3883, 1728, 1750, 1751
3884, 1729, 1752, 1730
3885, 1729, 1751, 1752
3886, 1730, 1753, 1731
3887, 1730, 1752, 1753
3888, 1731, 1753, 1754
3889, 1732, 1755, 1733
3890, 1733, 1756, 1734
3891, 1733, 1755, 1756
3892, 1734, 1757, 1735
3893, 1734, 1756, 1757
3894, 1735, 1758, 1736
3895, 1735, 1757, 1758
3896, 1736, 1759, 1737
3897, 1736, 1758, 1759
3898, 1737, 1760, 1738
3899, 1737, 1759, 1760
3900, 1738, 1761, 1739
3901, 1738, 1760, 1761
3902, 1739, 1762, 1740
3903, 1739, 1761, 1762
3904, 1740, 1763, 1741
3905, 1740, 1762, 1763
3906, 1741, 1764, 1742
3907, 1741, 1763, 1764
3908, 1742, 1765, 1743
3909, 1742, 1764, 1765
3910, 1743, 1766, 1744
3911, 1743, 1765, 1766
3912, 1744, 1767, 1745
3913, 1744, 1766, 1767
3914, 1745, 1768, 1746
3915, 1745, 1767, 1768
3916, 1746, 1769, 1747
3917, 1746, 1768, 1769
3918, 1747, 1770, 1748
3919, 1747, 1769, 1770
3920, 1748, 1771, 1749
3921, 1748, 1770, 1771
3922, 1749, 1772, 1750
3923, 1749, 1771, 1772
3924, 1750, 1773, 1751
3925, 1750, 1772, 1773
3926, 1751, 1774, 1752
3927, 1751, 1773, 1774
3928, 1752, 1775, 1753
3929, 1752, 1774, 1775
3930, 1753, 1776, 1754
3931, 1753, 1775, 1776
3932, 1754, 1776, 1777
3933, 1755, 1778, 1756
3934, 1756, 1779, 1757
3935, 1756, 1778, 1779
3936, 1757, 1780, 1758
3937, 1757, 1779, 1780
3938, 1758, 1781, 1759
3939, 1758, 1780, 1781
3940, 1759, 1782, 1760
3941, 1759, 1781, 1782
3942, 1760, 1783, 1761
3943, 1760, 1782, 1783
3944, 1761, 1784, 1762
3945, 1761, 1783, 1784
3946, 1762, 1785, 1763
3947, 1762, 1784, 1785
3948, 1763, 1786, 1764
3949, 1763, 1785, 1786
3950, 1764, 1787, 1765
3951, 1764, 1786, 1787
3952, 1765, 1788, 1766
3953, 1765, 1787, 1788
3954, 1766, 1789, 1767
3955, 1766, 1788, 1789
3956, 1767, 1790, 1768
3957, 1767, 1789, 1790
3958, 1768, 1791, 1769
3959, 1768, 1790, 1791
3960, 1769, 1792, 1770
3961, 1769, 1791, 1792
3962, 1770, 1793, 1771
3963, 1770, 1792, 1793
3964, 1771, 1794, 1772
3965, 1771, 1793, 1794
3966, 1772, 1795, 1773
3967, 1772, 1794, 1795
3968, 1773, 1796, 1774
3969, 1773, 1795, 1796
3970, 1774, 1797, 1775
3971, 1774, 1796, 1797
3972, 1775, 1798, 1776
3973, 1775, 1797, 1798
3974, 1776, 1799, 1777
3975, 1776, 1798, 1799
3976, 1777, 1799, 1800
*ELEMENT, type=CPS3, ELSET=Surface79
3977, 1821, 15, 220
3978, 271, 15, 1821
3979, 272, 216, 16
3980, 17, 267, 281
3981, 18, 1805, 276
3982, 277, 1805, 18
3983, 1825, 217, 216
3984, 1825, 216, 272
3985, 1824, 218, 217
3986, 1824, 217, 1825
3987, 1823, 219, 218
3988, 1823, 218, 1824
3989, 1822, 220, 219
3990, 1822, 219, 1823
3991, 1821, 220, 1822
3992, 267, 268, 1801
3993, 281, 267, 1801
3994, 268, 269, 1806
3995, 1801, 268, 1806
3996, 269, 270, 1811
3997, 1806, 269, 1811
3998, 270, 271, 1816
3999, 1811, 270, 1816
4000, 1816, 271, 1821
4001, 273, 1825, 272
4002, 274, 1820, 273
4003, 1820, 1825, 273
4004, 275, 1815, 274
4005, 1815, 1820, 274
4006, 276, 1810, 275
4007, 1810, 1815, 275
4008, 1805, 1810, 276
4009, 278, 1804, 277
4010, 277, 1804, 1805
4011, 279, 1803, 278
4012, 278, 1803, 1804
4013, 280, 1802, 279
4014, 279, 1802, 1803
4015, 281, 1801, 280
4016, 280, 1801, 1802
4017, 1801, 1806, 1802
4018, 1802, 1807, 1803
4019, 1802, 1806, 1807
4020, 1803, 1808, 1804
4021, 1803, 1807, 1808
4022, 1804, 1809, 1805
4023, 1804, 1808, 1809
4024, 1805, 1809, 1810
4025, 1806, 1811, 1807
4026, 1807, 1812, 1808
4027, 1807, 1811, 1812
4028, 1808, 1813, 1809
4029, 1808, 1812, 1813
4030, 1809, 1814, 1810
4031, 1809, 1813, 1814
4032, 1810, 1814, 1815
4033, 1811, 1816, 1812
4034, 1812, 1817, 1813
4035, 1812, 1816, 1817
4036, 1813, 1818, 1814
4037, 1813, 1817, 1818
4038, 1814, 1819, 1815
4039, 1814, 1818, 1819
4040, 1815, 1819, 1820
4041, 1816, 1821, 1817
4042, 1817, 1822, 1818
4043, 1817, 1821, 1822
4044, 1818, 1823, 1819
4045, 1818, 1822, 1823
4046, 1819, 1824, 1820
4047, 1819, 1823, 1824
4048, 1820, 1824, 1825
*ELEMENT, type=CPS3, ELSET=Surface88
4049, 1, 21, 343
4050, 25, 2, 1918
4051, 1918, 2, 305
4052, 332, 327, 18
4053, 19, 1848, 328
4054, 365, 1848, 19
4055, 21, 22, 1826
4056, 343, 21, 1826
4057, 22, 23, 1849
4058, 1826, 22, 1849
4059, 23, 24, 1872
4060, 1849, 23, 1872
4061, 24, 25, 1895
4062, 1872, 24, 1895
4063, 1895, 25, 1918
4064, 1919, 305, 306
4065, 1918, 305, 1919
4066, 1920, 306, 307
4067, 1919, 306, 1920
4068, 1921, 307, 308
4069, 1920, 307, 1921
4070, 1922, 308, 309
4071, 1921, 308, 1922
4072, 1923, 309, 310
4073, 1922, 309, 1923
4074, 1924, 310, 311
4075, 1923, 310, 1924
4076, 1925, 311, 312
4077, 1924, 311, 1925
4078, 1926, 312, 313
4079, 1925, 312, 1926
4080, 1927, 313, 314
4081, 1926, 313, 1927
4082, 1928, 314, 315
4083, 1927, 314, 1928
4084, 1929, 315, 316
4085, 1928, 315, 1929
4086, 1930, 316, 317
4087, 1929, 316, 1930
4088, 1931, 317, 318
4089, 1930, 317, 1931
4090, 1932, 318, 319
4091, 1931, 318, 1932
4092, 1933, 319, 320
4093, 1932, 319, 1933
4094, 1934, 320, 321
4095, 1933, 320, 1934
4096, 1935, 321, 322
4097, 1934, 321, 1935
4098, 1936, 322, 323
4099, 1935, 322, 1936
4100, 1937, 323, 324
4101, 1936, 323, 1937
4102, 1938, 324, 325
4103, 1937, 324, 1938
4104, 1939, 325, 326
4105, 1938, 325, 1939
4106, 1940, 326, 327
4107, 1939, 326, 1940
4108, 1940, 327, 332
4109, 328, 1871, 329
4110, 1848, 1871, 328
4111, 329, 1894, 330
4112, 1871, 1894, 329
4113, 330, 1917, 331
4114, 1894, 1917, 330
4115, 331, 1940, 332
4116, 1917, 1940, 331
4117, 343, 1826, 344
4118, 344, 1827, 345
4119, 344, 1826, 1827
4120, 345, 1828, 346
4121, 345, 1827, 1828
4122, 346, 1829, 347
4123, 346, 1828, 1829
4124, 347, 1830, 348
4125, 347, 1829, 1830
4126, 348, 1831, 349
4127, 348, 1830, 1831
4128, 349, 1832, 350
4129, 349, 1831, 1832
4130, 350, 1833, 351
4131, 350, 1832, 1833
4132, 351, 1834, 352
4133, 351, 1833, 1834
4134, 352, 1835, 353
4135, 352, 1834, 1835
4136, 353, 1836, 354
4137, 353, 1835, 1836
4138, 354, 1837, 355
4139, 354, 1836, 1837
4140, 355, 1838, 356
4141, 355, 1837, 1838
4142, 356, 1839, 357
4143, 356, 1838, 1839
4144, 357, 1840, 358
4145, 357, 1839, 1840
4146, 358, 1841, 359
4147, 358, 1840, 1841
4148, 359, 1842, 360
4149, 359, 1841, 1842
4150, 360, 1843, 361
4151, 360, 1842, 1843
4152, 361, 1844, 362
4153, 361, 1843, 1844
4154, 362, 1845, 363
4155, 362, 1844, 1845
4156, 363, 1846, 364
4157, 363, 1845, 1846
4158, 364, 1847, 365
4159, 364, 1846, 1847
4160, 365, 1847, 1848
4161, 1826, 1849, 1827
4162, 1827, 1850, 1828
4163, 1827, 1849, 1850
4164, 1828, 1851, 1829
4165, 1828, 1850, 1851
4166, 1829, 1852, 1830
4167, 1829, 1851, 1852
4168, 1830, 1853, 1831
4169, 1830, 1852, 1853
4170, 1831, 1854, 1832
4171, 1831, 1853, 1854
4172, 1832, 1855, 1833
4173, 1832, 1854, 1855
4174, 1833, 1856, 1834
4175, 1833, 1855, 1856
4176, 1834, 1857, 1835
4177, 1834, 1856, 1857
4178, 1835, 1858, 1836
4179, 1835, 1857, 1858
4180, 1836, 1859, 1837
4181, 1836, 1858, 1859
4182, 1837, 1860, 1838
4183, 1837, 1859, 1860
4184, 1838, 1861, 1839
4185, 1838, 1860, 1861
4186, 1839, 1862, 1840
4187, 1839, 1861, 1862
4188, 1840, 1863, 1841
4189, 1840, 1862, 1863
4190, 1841, 1864, 1842
4191, 1841, 1863, 1864
4192, 1842, 1865, 1843
4193, 1842, 1864, 1865
4194, 1843, 1866, 1844
4195, 1843, 1865, 1866
4196, 1844, 1867, 1845
4197, 1844, 1866, 1867
4198, 1845, 1868, 1846
4199, 1845, 1867, 1868
4200, 1846, 1869, 1847
4201, 1846, 1868, 1869
4202, 1847, 1870, 1848
4203, 1847, 1869, 1870
4204, 1848, 1870, 1871
4205, 1849, 1872, 1850
4206, 1850, 1873, 1851
4207, 1850, 1872, 1873
4208, 1851, 1874, 1852
4209, 1851, 1873, 1874
4210, 1852, 1875, 1853
4211, 1852, 1874, 1875
4212, 1853, 1876, 1854
4213, 1853, 1875, 1876
4214, 1854, 1877, 1855
4215, 1854, 1876, 1877
4216, 1855, 1878, 1856
4217, 1855, 1877, 1878
4218, 1856, 1879, 1857
4219, 1856, 1878, 1879
4220, 1857, 1880, 1858
4221, 1857, 1879, 1880
4222, 1858, 1881, 1859
4223, 1858, 1880, 1881
4224, 1859, 1882, 1860
4225, 1859, 1881, 1882
4226, 1860, 1883, 1861
4227, 1860, 1882, 1883
4228, 1861, 1884, 1862
4229, 1861, 1883, 1884
4230, 1862, 1885, 1863
4231, 1862, 1884, 1885
4232, 1863, 1886, 1864
4233, 1863, 1885, 1886
4234, 1864, 1887, 1865
4235, 1864, 1886, 1887
4236, 1865, 1888, 1866
4237, 1865, 1887, 1888
4238, 1866, 1889, 1867
4239, 1866, 1888, 1889
4240, 1867, 1890, 1868
4241, 1867, 1889, 1890
4242, 1868, 1891, 1869
4243, 1868, 1890, 1891
4244, 1869, 1892, 1870
4245, 1869, 1891, 1892
4246, 1870, 1893, 1871
4247, 1870, 1892, 1893
4248, 1871, 1893, 1894
4249, 1872, 1895, 1873
4250, 1873, 1896, 1874
4251, 1873, 1895, 1896
4252, 1874, 1897, 1875
4253, 1874, 1896, 1897
4254, 1875, 1898, 1876
4255, 1875, 1897, 1898
4256, 1876, 1899, 1877
4257, 1876, 1898, 1899
4258, 1877, 1900, 1878
4259, 1877, 1899, 1900
4260, 1878, 1901, 1879
4261, 1878, 1900, 1901
4262, 1879, 1902, 1880
4263, 1879, 1901, 1902
4264, 1880, 1903, 1881
4265, 1880, 1902, 1903
4266, 1881, 1904, 1882
4267, 1881, 1903, 1904
4268, 1882, 1905, 1883
4269, 1882, 1904, 1905
4270, 1883, 1906, 1884
4271, 1883, 1905, 1906
4272, 1884, 1907, 1885
4273, 1884, 1906, 1907
4274, 1885, 1908, 1886
4275, 1885, 1907, 1908
4276, 1886, 1909, 1887
4277, 1886, 1908, 1909
4278, 1887, 1910, 1888
4279, 1887, 1909, 1910
4280, 1888, 1911, 1889
4281, 1888, 1910, 1911
4282, 1889, 1912, 1890
4283, 1889, 1911, 1912
4284, 1890, 1913, 1891
4285, 1890, 1912, 1913
4286, 1891, 1914, 1892
4287, 1891, 1913, 1914
4288, 1892, 1915, 1893
4289, 1892, 1914, 1915
4290, 1893, 1916, 1894
4291, 1893, 1915, 1916
4292, 1894, 1916, 1917
4293, 1895, 1918, 1896
4294, 1896, 1919, 1897
4295, 1896, 1918, 1919
4296, 1897, 1920, 1898
4297, 1897, 1919, 1920
4298, 1898, 1921, 1899
4299, 1898, 1920, 1921
4300, 1899, 1922, 1900
4301, 1899, 1921, 1922
4302, 1900, 1923, 1901
4303, 1900, 1922, 1923
4304, 1901, 1924, 1902
4305, 1901, 1923, 1924
4306, 1902, 1925, 1903
4307, 1902, 1924, 1925
4308, 1903, 1926, 1904
4309, 1903, 1925, 1926
4310, 1904, 1927, 1905
4311, 1904, 1926, 1927
4312, 1905, 1928, 1906
4313, 1905, 1927, 1928
4314, 1906, 1929, 1907
4315, 1906, 1928, 1929
4316, 1907, 1930, 1908
4317, 1907, 1929, 1930
4318, 1908, 1931, 1909
4319, 1908, 1930, 1931
4320, 1909, 1932, 1910
4321, 1909, 1931, 1932
4322, 1910, 1933, 1911
4323, 1910, 1932, 1933
4324, 1911, 1934, 1912
4325, 1911, 1933, 1934
4326, 1912, 1935, 1913
4327, 1912, 1934, 1935
4328, 1913, 1936, 1914
4329, 1913, 1935, 1936
4330, 1914, 1937, 1915
4331, 1914, 1936, 1937
4332, 1915, 1938, 1916
4333, 1915, 1937, 1938
4334, 1916, 1939, 1917
4335, 1916, 1938, 1939
4336, 1917, 1939, 1940
*ELEMENT, type=CPS3, ELSET=Surface96
4337, 47, 2033, 9
4338, 2033, 282, 9
4339, 10, 366, 43
4340, 333, 17, 304
4341, 20, 337, 1963
4342, 388, 20, 1963
4343, 43, 1941, 44
4344, 366, 1941, 43
4345, 44, 1964, 45
4346, 1941, 1964, 44
4347, 45, 1987, 46
4348, 1964, 1987, 45
4349, 46, 2010, 47
4350, 1987, 2010, 46
4351, 2010, 2033, 47
4352, 2034, 283, 282
4353, 2033, 2034, 282
4354, 2035, 284, 283
4355, 2034, 2035, 283
4356, 2036, 285, 284
4357, 2035, 2036, 284
4358, 2037, 286, 285
4359, 2036, 2037, 285
4360, 2038, 287, 286
4361, 2037, 2038, 286
4362, 2039, 288, 287
4363, 2038, 2039, 287
4364, 2040, 289, 288
4365, 2039, 2040, 288
4366, 2041, 290, 289
4367, 2040, 2041, 289
4368, 2042, 291, 290
4369, 2041, 2042, 290
4370, 2043, 292, 291
4371, 2042, 2043, 291
4372, 2044, 293, 292
4373, 2043, 2044, 292
4374, 2045, 294, 293
4375, 2044, 2045, 293
4376, 2046, 295, 294
4377, 2045, 2046, 294
4378, 2047, 296, 295
4379, 2046, 2047, 295
4380, 2048, 297, 296
4381, 2047, 2048, 296
4382, 2049, 298, 297
4383, 2048, 2049, 297
4384, 2050, 299, 298
4385, 2049, 2050, 298
4386, 2051, 300, 299
4387, 2050, 2051, 299
4388, 2052, 301, 300
4389, 2051, 2052, 300
4390, 2053, 302, 301
4391, 2052, 2053, 301
4392, 2054, 303, 302
4393, 2053, 2054, 302
4394, 2055, 304, 303
4395, 2054, 2055, 303
4396, 2055, 333, 304
4397, 334, 333, 2055
4398, 335, 334, 2032
4399, 2032, 334, 2055
4400, 336, 335, 2009
4401, 2009, 335, 2032
4402, 337, 336, 1986
4403, 1986, 336, 2009
4404, 1963, 337, 1986
4405, 366, 367, 1941
4406, 367, 368, 1942
4407, 367, 1942, 1941
4408, 368, 369, 1943
4409, 368, 1943, 1942
4410, 369, 370, 1944
4411, 369, 1944, 1943
4412, 370, 371, 1945
4413, 370, 1945, 1944
4414, 371, 372, 1946
4415, 371, 1946, 1945
4416, 372, 373, 1947
4417, 372, 1947, 1946
4418, 373, 374, 1948
4419, 373, 1948, 1947
4420, 374, 375, 1949
4421, 374, 1949, 1948
4422, 375, 376, 1950
4423, 375, 1950, 1949
4424, 376, 377, 1951
4425, 376, 1951, 1950
4426, 377, 378, 1952
4427, 377, 1952, 1951
4428, 378, 379, 1953
4429, 378, 1953, 1952
4430, 379, 380, 1954
4431, 379, 1954, 1953
4432, 380, 381, 1955
4433, 380, 1955, 1954
4434, 381, 382, 1956
4435, 381, 1956, 1955
4436, 382, 383, 1957
4437, 382, 1957, 1956
4438, 383, 384, 1958
4439, 383, 1958, 1957
4440, 384, 385, 1959
4441, 384, 1959, 1958
4442, 385, 386, 1960
4443, 385, 1960, 1959
4444, 386, 387, 1961
4445, 386, 1961, 1960
4446, 387, 388, 1962
4447, 387, 1962, 1961
4448, 388, 1963, 1962
4449, 1941, 1942, 1964
4450, 1942, 1943, 1965
4451, 1942, 1965, 1964
4452, 1943, 1944, 1966
4453, 1943, 1966, 1965
4454, 1944, 1945, 1967
4455, 1944, 1967, 1966
4456, 1945, 1946, 1968
4457, 1945, 1968, 1967
4458, 1946, 1947, 1969
4459, 1946, 1969, 1968
4460, 1947, 1948, 1970
4461, 1947, 1970, 1969
4462, 1948, 1949, 1971
4463, 1948, 1971, 1970
4464, 1949, 1950, 1972
4465, 1949, 1972, 1971
4466, 1950, 1951, 1973
4467, 1950, 1973, 1972
4468, 1951, 1952, 1974
4469, 1951, 1974, 1973
4470, 1952, 1953, 1975
4471, 1952, 1975, 1974
4472, 1953, 1954, 1976
4473, 1953, 1976, 1975
4474, 1954, 1955, 1977
4475, 1954, 1977, 1976
4476, 1955, 1956, 1978
4477, 1955, 1978, 1977
4478, 1956, 1957, 1979
4479, 1956, 1979, 1978
4480, 1957, 1958, 1980
4481, 1957, 1980, 1979
4482, 1958, 1959, 1981
4483, 1958, 1981, 1980
4484, 1959, 1960, 1982
4485, 1959, 1982, 1981
4486, 1960, 1961, 1983
4487, 1960, 1983, 1982
4488, 1961, 1962, 1984
4489, 1961, 1984, 1983
4490, 1962, 1963, 1985
4491, 1962, 1985, 1984
4492, 1963, 1986, 1985
4493, 1964, 1965, 1987
4494, 1965, 1966, 1988
4495, 1965, 1988, 1987
4496, 1966, 1967, 1989
4497, 1966, 1989, 1988
4498, 1967, 1968, 1990
4499, 1967, 1990, 1989
4500, 1968, 1969, 1991
4501, 1968, 1991, 1990
4502, 1969, 1970, 1992
4503, 1969, 1992, 1991
4504, 1970, 1971, 1993
4505, 1970, 1993, 1992
4506, 1971, 1972, 1994
4507, 1971, 1994, 1993
4508, 1972, 1973, 1995
4509, 1972, 1995, 1994
4510, 1973, 1974, 1996
4511, 1973, 1996, 1995
4512, 1974, 1975, 1997
4513, 1974, 1997, 1996
4514, 1975, 1976, 1998
4515, 1975, 1998, 1997
4516, 1976, 1977, 1999
4517, 1976, 1999, 1998
4518, 1977, 1978, 2000
4519, 1977, 2000, 1999
4520, 1978, 1979, 2001
4521, 1978, 2001, 2000
4522, 1979, 1980, 2002
4523, 1979, 2002, 2001
4524, 1980, 1981, 2003
4525, 1980, 2003, 2002
4526, 1981, 1982, 2004
4527, 1981, 2004, 2003
4528, 1982, 1983, 2005
4529, 1982, 2005, 2004
4530, 1983, 1984, 2006
4531, 1983, 2006, 2005
4532, 1984, 1985, 2007
4533, 1984, 2007, 2006
4534, 1985, 1986, 2008
4535, 1985, 2008, 2007
4536, 1986, 2009, 2008
4537, 1987, 1988, 2010
4538, 1988, 1989, 2011
4539, 1988, 2011, 2010
4540, 1989, 1990, 2012
4541, 1989, 2012, 2011
4542, 1990, 1991, 2013
4543, 1990, 2013, 2012
4544, 1991, 1992, 2014
4545, 1991, 2014, 2013
4546, 1992, 1993, 2015
4547, 1992, 2015, 2014
4548, 1993, 1994, 2016
4549, 1993, 2016, 2015
4550, 1994, 1995, 2017
4551, 1994, 2017, 2016
4552, 1995, 1996, 2018
4553, 1995, 2018, 2017
4554, 1996, 1997, 2019
4555, 1996, 2019, 2018
4556, 1997, 1998, 2020
4557, 1997, 2020, 2019
4558, 1998, 1999, 2021
4559, 1998, 2021, 2020
4560, 1999, 2000, 2022
4561, 1999, 2022, 2021
4562, 2000, 2001, 2023
4563, 2000, 2023, 2022
4564, 2001, 2002, 2024
4565, 2001, 2024, 2023
4566, 2002, 2003, 2025
4567, 2002, 2025, 2024
4568, 2003, 2004, 2026
4569, 2003, 2026, 2025
4570, 2004, 2005, 2027
4571, 2004, 2027, 2026
4572, 2005, 2006, 2028
4573, 2005, 2028, 2027
4574, 2006, 2007, 2029
4575, 2006, 2029, 2028
4576, 2007, 2008, 2030
4577, 2007, 2030, 2029
4578, 2008, 2009, 2031
4579, 2008, 2031, 2030
4580, 2009, 2032, 2031
4581, 2010, 2011, 2033
4582, 2011, 2012, 2034
4583, 2011, 2034, 2033
4584, 2012, 2013, 2035
4585, 2012, 2035, 2034
4586, 2013, 2014, 2036
4587, 2013, 2036, 2035
4588, 2014, 2015, 2037
4589, 2014, 2037, 2036
4590, 2015, 2016, 2038
4591, 2015, 2038, 2037
4592, 2016, 2017, 2039
4593, 2016, 2039, 2038
4594, 2017, 2018, 2040
4595, 2017, 2040, 2039
4596, 2018, 2019, 2041
4597, 2018, 2041, 2040
4598, 2019, 2020, 2042
4599, 2019, 2042, 2041
4600, 2020, 2021, 2043
4601, 2020, 2043, 2042
4602, 2021, 2022, 2044
4603, 2021, 2044, 2043
4604, 2022, 2023, 2045
4605, 2022, 2045, 2044
4606, 2023, 2024, 2046
4607, 2023, 2046, 2045
4608, 2024, 2025, 2047
4609, 2024, 2047, 2046
4610, 2025, 2026, 2048
4611, 2025, 2048, 2047
4612, 2026, 2027, 2049
4613, 2026, 2049, 2048
4614, 2027, 2028, 2050
4615, 2027, 2050, 2049
4616, 2028, 2029, 2051
4617, 2028, 2051, 2050
4618, 2029, 2030, 2052
4619, 2029, 2052, 2051
4620, 2030, 2031, 2053
4621, 2030, 2053, 2052
4622, 2031, 2032, 2054
4623, 2031, 2054, 2053
4624, 2032, 2055, 2054
*ELEMENT, type=CPS3, ELSET=Surface100
4625, 1, 343, 65
4626, 69, 2148, 10
4627, 2148, 366, 10
4628, 19, 342, 2078
4629, 365, 19, 2078
4630, 338, 20, 388
4631, 65, 2056, 66
4632, 343, 2056, 65
4633, 66, 2079, 67
4634, 2056, 2079, 66
4635, 67, 2102, 68
4636, 2079, 2102, 67
4637, 68, 2125, 69
4638, 2102, 2125, 68
4639, 2125, 2148, 69
4640, 339, 338, 2170
4641, 2170, 338, 388
4642, 340, 339, 2147
4643, 2147, 339, 2170
4644, 341, 340, 2124
4645, 2124, 340, 2147
4646, 342, 341, 2101
4647, 2101, 341, 2124
4648, 2078, 342, 2101
4649, 343, 344, 2056
4650, 344, 345, 2057
4651, 344, 2057, 2056
4652, 345, 346, 2058
4653, 345, 2058, 2057
4654, 346, 347, 2059
4655, 346, 2059, 2058
4656, 347, 348, 2060
4657, 347, 2060, 2059
4658, 348, 349, 2061
4659, 348, 2061, 2060
4660, 349, 350, 2062
4661, 349, 2062, 2061
4662, 350, 351, 2063
4663, 350, 2063, 2062
4664, 351, 352, 2064
4665, 351, 2064, 2063
4666, 352, 353, 2065
4667, 352, 2065, 2064
4668, 353, 354, 2066
4669, 353, 2066, 2065
4670, 354, 355, 2067
4671, 354, 2067, 2066
4672, 355, 356, 2068
4673, 355, 2068, 2067
4674, 356, 357, 2069
4675, 356, 2069, 2068
4676, 357, 358, 2070
4677, 357, 2070, 2069
4678, 358, 359, 2071
4679, 358, 2071, 2070
4680, 359, 360, 2072
4681, 359, 2072, 2071
4682, 360, 361, 2073
4683, 360, 2073, 2072
4684, 361, 362, 2074
4685, 361, 2074, 2073
4686, 362, 363, 2075
4687, 362, 2075, 2074
4688, 363, 364, 2076
4689, 363, 2076, 2075
4690, 364, 365, 2077
4691, 364, 2077, 2076
4692, 365, 2078, 2077
4693, 2149, 367, 366
4694, 2148, 2149, 366
4695, 2150, 368, 367
4696, 2149, 2150, 367
4697, 2151, 369, 368
4698, 2150, 2151, 368
4699, 2152, 370, 369
4700, 2151, 2152, 369
4701, 2153, 371, 370
4702, 2152, 2153, 370
4703, 2154, 372, 371
4704, 2153, 2154, 371
4705, 2155, 373, 372
4706, 2154, 2155, 372
4707, 2156, 374, 373
4708, 2155, 2156, 373
4709, 2157, 375, 374
4710, 2156, 2157, 374
4711, 2158, 376, 375
4712, 2157, 2158, 375
4713, 2159, 377, 376
4714, 2158, 2159, 376
4715, 2160, 378, 377
4716, 2159, 2160, 377
4717, 2161, 379, 378
4718, 2160, 2161, 378
4719, 2162, 380, 379
4720, 2161, 2162, 379
4721, 2163, 381, 380
4722, 2162, 2163, 380
4723, 2164, 382, 381
4724, 2163, 2164, 381
4725, 2165, 383, 382
4726, 2164, 2165, 382
4727, 2166, 384, 383
4728, 2165, 2166, 383
4729, 2167, 385, 384
4730, 2166, 2167, 384
4731, 2168, 386, 385
4732, 2167, 2168, 385
4733, 2169, 387, 386
4734, 2168, 2169, 386
4735, 2170, 388, 387
4736, 2169, 2170, 387
4737, 2056, 2057, 2079
4738, 2057, 2058, 2080
4739, 2057, 2080, 2079
4740, 2058, 2059, 2081
4741, 2058, 2081, 2080
4742, 2059, 2060, 2082
4743, 2059, 2082, 2081
4744, 2060, 2061, 2083
4745, 2060, 2083, 2082
4746, 2061, 2062, 2084
4747, 2061, 2084, 2083
4748, 2062, 2063, 2085
4749, 2062, 2085, 2084
4750, 2063, 2064, 2086
4751, 2063, 2086, 2085
4752, 2064, 2065, 2087
4753, 2064, 2087, 2086
4754, 2065, 2066, 2088
4755, 2065, 2088, 2087
4756, 2066, 2067, 2089
4757, 2066, 2089, 2088
4758, 2067, 2068, 2090
4759, 2067, 2090, 2089
4760, 2068, 2069, 2091
4761, 2068, 2091, 2090
4762, 2069, 2070, 2092
4763, 2069, 2092, 2091
4764, 2070, 2071, 2093
4765, 2070, 2093, 2092
4766, 2071, 2072, 2094
4767, 2071, 2094, 2093
4768, 2072, 2073, 2095
4769, 2072, 2095, 2094
4770, 2073, 2074, 2096
4771, 2073, 2096, 2095
4772, 2074, 2075, 2097
4773, 2074, 2097, 2096
4774, 2075, 2076, 2098
4775, 2075, 2098, 2097
4776, 2076, 2077, 2099
4777, 2076, 2099, 2098
4778, 2077, 2078, 2100
4779, 2077, 2100, 2099
4780, 2078, 2101, 2100
4781, 2079, 2080, 2102
4782, 2080, 2081, 2103
4783, 2080, 2103, 2102
4784, 2081, 2082, 2104
4785, 2081, 2104, 2103
4786, 2082, 2083, 2105
4787, 2082, 2105, 2104
4788, 2083, 2084, 2106
4789, 2083, 2106, 2105
4790, 2084, 2085, 2107
4791, 2084, 2107, 2106
4792, 2085, 2086, 2108
4793, 2085, 2108, 2107
4794, 2086, 2087, 2109
4795, 2086, 2109, 2108
4796, 2087, 2088, 2110
4797, 2087, 2110, 2109
4798, 2088, 2089, 2111
4799, 2088, 2111, 2110
4800, 2089, 2090, 2112
4801, 2089, 2112, 2111
4802, 2090, 2091, 2113
4803, 2090, 2113, 2112
4804, 2091, 2092, 2114
4805, 2091, 2114, 2113
4806, 2092, 2093, 2115
4807, 2092, 2115, 2114
4808, 2093, 2094, 2116
4809, 2093, 2116, 2115
4810, 2094, 2095, 2117
4811, 2094, 2117, 2116
4812, 2095, 2096, 2118
4813, 2095, 2118, 2117
4814, 2096, 2097, 2119
4815, 2096, 2119, 2118
4816, 2097, 2098, 2120
4817, 2097, 2120, 2119
4818, 2098, 2099, 2121
4819, 2098, 2121, 2120
4820, 2099, 2100, 2122
4821, 2099, 2122, 2121
4822, 2100, 2101, 2123
4823, 2100, 2123, 2122
4824, 2101, 2124, 2123
4825, 2102, 2103, 2125
4826, 2103, 2104, 2126
4827, 2103, 2126, 2125
4828, 2104, 2105, 2127
4829, 2104, 2127, 2126
4830, 2105, 2106, 2128
4831, 2105, 2128, 2127
4832, 2106, 2107, 2129
4833, 2106, 2129, 2128
4834, 2107, 2108, 2130
4835, 2107, 2130, 2129
4836, 2108, 2109, 2131
4837, 2108, 2131, 2130
4838, 2109, 2110, 2132
4839, 2109, 2132, 2131
4840, 2110, 2111, 2133
4841, 2110, 2133, 2132
4842, 2111, 2112, 2134
4843, 2111, 2134, 2133
4844, 2112, 2113, 2135
4845, 2112, 2135, 2134
4846, 2113, 2114, 2136
4847, 2113, 2136, 2135
4848, 2114, 2115, 2137
4849, 2114, 2137, 2136
4850, 2115, 2116, 2138
4851, 2115, 2138, 2137
4852, 2116, 2117, 2139
4853, 2116, 2139, 2138
4854, 2117, 2118, 2140
4855, 2117, 2140, 2139
4856, 2118, 2119, 2141
4857, 2118, 2141, 2140
4858, 2119, 2120, 2142
4859, 2119, 2142, 2141
4860, 2120, 2121, 2143
4861, 2120, 2143, 2142
4862, 2121, 2122, 2144
4863, 2121, 2144, 2143
4864, 2122, 2123, 2145
4865, 2122, 2145, 2144
4866, 2123, 2124, 2146
4867, 2123, 2146, 2145
4868, 2124, 2147, 2146
4869, 2125, 2126, 2148
4870, 2126, 2127, 2149
4871, 2126, 2149, 2148
4872, 2127, 2128, 2150
4873, 2127, 2150, 2149
4874, 2128, 2129, 2151
4875, 2128, 2151, 2150
4876, 2129, 2130, 2152
4877, 2129, 2152, 2151
4878, 2130, 2131, 2153
4879, 2130, 2153, 2152
4880, 2131, 2132, 2154
4881, 2131, 2154, 2153
4882, 2132, 2133, 2155
4883, 2132, 2155, 2154
4884, 2133, 2134, 2156
4885, 2133, 2156, 2155
4886, 2134, 2135, 2157
4887, 2134, 2157, 2156
4888, 2135, 2136, 2158
4889, 2135, 2158, 2157
4890, 2136, 2137, 2159
4891, 2136, 2159, 2158
4892, 2137, 2138, 2160
4893, 2137, 2160, 2159
4894, 2138, 2139, 2161
4895, 2138, 2161, 2160
4896, 2139, 2140, 2162
4897, 2139, 2162, 2161
4898, 2140, 2141, 2163
4899, 2140, 2163, 2162
4900, 2141, 2142, 2164
4901, 2141, 2164, 2163
4902, 2142, 2143, 2165
4903, 2142, 2165, 2164
4904, 2143, 2144, 2166
4905, 2143, 2166, 2165
4906, 2144, 2145, 2167
4907, 2144, 2167, 2166
4908, 2145, 2146, 2168
4909, 2145, 2168, 2167
4910, 2146, 2147, 2169
4911, 2146, 2169, 2168
4912, 2147, 2170, 2169
*ELEMENT, type=CPS3, ELSET=Surface101
4913, 333, 281, 17
4914, 2191, 18, 277
4915, 332, 18, 2191
4916, 19, 328, 342
4917, 20, 2175, 337
4918, 338, 2175, 20
4919, 2192, 277, 278
4920, 2191, 277, 2192
4921, 2193, 278, 279
4922, 2192, 278, 2193
4923, 2194, 279, 280
4924, 2193, 279, 2194
4925, 2195, 280, 281
4926, 2194, 280, 2195
4927, 2195, 281, 333
4928, 328, 329, 2171
4929, 342, 328, 2171
4930, 329, 330, 2176
4931, 2171, 329, 2176
4932, 330, 331, 2181
4933, 2176, 330, 2181
4934, 331, 332, 2186
4935, 2181, 331, 2186
4936, 2186, 332, 2191
4937, 334, 2195, 333
4938, 335, 2190, 334
4939, 2190, 2195, 334
4940, 336, 2185, 335
4941, 2185, 2190, 335
4942, 337, 2180, 336
4943, 2180, 2185, 336
4944, 2175, 2180, 337
4945, 339, 2174, 338
4946, 338, 2174, 2175
4947, 340, 2173, 339
4948, 339, 2173, 2174
4949, 341, 2172, 340
4950, 340, 2172, 2173
4951, 342, 2171, 341
4952, 341, 2171, 2172
4953, 2171, 2176, 2172
4954, 2172, 2177, 2173
4955, 2172, 2176, 2177
4956, 2173, 2178, 2174
4957, 2173, 2177, 2178
4958, 2174, 2179, 2175
4959, 2174, 2178, 2179
4960, 2175, 2179, 2180
4961, 2176, 2181, 2177
4962, 2177, 2182, 2178
4963, 2177, 2181, 2182
4964, 2178, 2183, 2179
4965, 2178, 2182, 2183
4966, 2179, 2184, 2180
4967, 2179, 2183, 2184
4968, 2180, 2184, 2185
4969, 2181, 2186, 2182
4970, 2182, 2187, 2183
4971, 2182, 2186, 2187
4972, 2183, 2188, 2184
4973, 2183, 2187, 2188
4974, 2184, 2189, 2185
4975, 2184, 2188, 2189
4976, 2185, 2189, 2190
4977, 2186, 2191, 2187
4978, 2187, 2192, 2188
4979, 2187, 2191, 2192
4980, 2188, 2193, 2189
4981, 2188, 2192, 2193
4982, 2189, 2194, 2190
4983, 2189, 2193, 2194
4984, 2190, 2194, 2195
*ELEMENT, type=C3D4, ELSET=Volume1
4985, 639, 938, 2235, 2260
4986, 843, 866, 2219, 2299
4987, 761, 2256, 2227, 2273
4988, 853, 830, 831, 2273
4989, 831, 854, 853, 2273
4990, 761, 2227, 784, 2273
4991, 2227, 2273, 2256, 2305
4992, 678, 977, 677, 2223
4993, 976, 677, 977, 2223
4994, 693, 694, 993, 2226
4995, 693, 993, 992, 2226
4996, 198, 199, 811, 2215
4997, 154, 155, 607, 2210
4998, 145, 146, 598, 2203
4999, 152, 604, 151, 2209
5000, 887, 2279, 864, 2299
5001, 556, 534, 533, 2278
5002, 1117, 1118, 1026, 727
5003, 1116, 1117, 1026, 727
5004, 784, 2273, 2227, 2305
5005, 631, 632, 586, 2211
5006, 1026, 1027, 1117, 1116
5007, 477, 476, 936, 937
5008, 1117, 705, 727, 1116
5009, 926, 949, 2208, 2277
5010, 1000, 977, 2263, 2271
5011, 522, 545, 523, 2260
5012, 545, 546, 523, 2260
5013, 784, 785, 762, 2273
5014, 784, 762, 761, 2273
5015, 650, 949, 651, 2277
5016, 949, 950, 651, 2277
5017, 927, 950, 949, 2277
5018, 927, 949, 926, 2277
5019, 977, 2223, 2263, 2271
5020, 650, 651, 628, 2277
5021, 761, 1060, 2227, 2256
5022, 838, 2279, 861, 2303
5023, 812, 813, 835, 2284
5024, 750, 1072, 1118, 1049
5025, 1072, 750, 1118, 773
5026, 727, 1118, 1026, 750
5027, 960, 661, 477, 937
5028, 1118, 1049, 1026, 750
5029, 980, 957, 1115, 681
5030, 828, 829, 851, 2291
5031, 1063, 2240, 763, 2255
5032, 1096, 1095, 1073, 2267
5033, 1072, 1073, 1095, 2267
5034, 952, 2275, 653, 2286
5035, 155, 154, 629, 2210
5036, 630, 155, 629, 2210
5037, 151, 626, 152, 2209
5038, 152, 626, 627, 2209
5039, 146, 145, 620, 2203
5040, 621, 146, 620, 2203
5041, 1087, 1088, 198, 2215
5042, 199, 198, 1088, 2215
5043, 701, 2263, 2223, 2271
5044, 525, 526, 503, 2297
5045, 502, 525, 503, 2297
5046, 792, 2279, 793, 2302
5047, 728, 750, 1118, 727
5048, 1026, 1004, 1027, 1116
5049, 983, 1005, 478, 1006
5050, 983, 477, 982, 960
5051, 479, 683, 684, 706
5052, 704, 1116, 727, 705
5053, 960, 477, 982, 959
5054, 937, 959, 477, 960
5055, 959, 937, 477, 936
5056, 1092, 2279, 1091, 2302
5057, 602, 603, 580, 2283
5058, 580, 579, 602, 2283
5059, 582, 581, 604, 2283
5060, 574, 573, 596, 2282
5061, 596, 597, 574, 2282
5062, 576, 575, 598, 2282
5063, 599, 576, 598, 2282
5064, 604, 605, 582, 2283
5065, 861, 2279, 884, 2303
5066, 528, 527, 550, 2282
5067, 530, 529, 552, 2282
5068, 550, 551, 528, 2282
5069, 552, 553, 530, 2282
5070, 876, 853, 854, 2273
5071, 854, 877, 876, 2273
5072, 593, 615, 616, 2201
5073, 622, 623, 600, 2205
5074, 895, 780, 779, 2231
5075, 1084, 1085, 808, 2241
5076, 1078, 801, 1077, 2244
5077, 798, 1074, 1075, 2243
5078, 733, 2237, 1032, 2264
5079, 733, 2242, 1032, 2266
5080, 926, 2208, 948, 2283
5081, 951, 652, 2277, 2286
5082, 542, 541, 564, 2274
5083, 564, 565, 542, 2274
5084, 689, 987, 688, 2289
5085, 689, 988, 987, 2289
5086, 688, 987, 2280, 2289
5087, 1060, 760, 761, 2227
5088, 937, 639, 938, 2236
5089, 1068, 792, 769, 2302
5090, 1060, 760, 2227, 2306
5091, 911, 910, 888, 2299
5092, 888, 910, 887, 2299
5093, 681, 1115, 980, 2293
5094, 1041, 1064, 1063, 742
5095, 1063, 1040, 1041, 742
5096, 1049, 1071, 750, 1072
5097, 1071, 1049, 750, 1048
5098, 764, 1064, 742, 1063
5099, 1063, 1040, 742, 741
5100, 1041, 1042, 1064, 743
5101, 693, 694, 671, 993
5102, 694, 672, 993, 695
5103, 672, 694, 993, 671
5104, 743, 1064, 1041, 742
5105, 1043, 743, 1065, 1042
5106, 1071, 750, 772, 1048
5107, 750, 1072, 1071, 773
5108, 1042, 1065, 1064, 743
5109, 1064, 764, 742, 765
5110, 666, 688, 987, 665
5111, 664, 687, 665, 986
5112, 687, 688, 665, 986
5113, 741, 764, 1063, 763
5114, 742, 764, 1063, 741
5115, 666, 688, 689, 987
5116, 986, 688, 665, 987
5117, 743, 765, 1064, 742
5118, 665, 666, 964, 987
5119, 665, 664, 986, 964
5120, 766, 1064, 1065, 743
5121, 662, 984, 684, 685
5122, 993, 671, 693, 992
5123, 1071, 750, 773, 772
5124, 672, 993, 971, 671
5125, 969, 693, 671, 992
5126, 672, 993, 695, 971
5127, 965, 666, 689, 987
5128, 1064, 766, 765, 743
5129, 964, 986, 665, 987
5130, 1006, 984, 684, 983
5131, 963, 986, 664, 964
5132, 965, 964, 666, 987
5133, 984, 962, 662, 961
5134, 971, 649, 672, 671
5135, 669, 670, 647, 969
5136, 707, 984, 1006, 1007
5137, 970, 992, 671, 993
5138, 992, 970, 671, 969
5139, 960, 662, 684, 661
5140, 707, 984, 684, 1006
5141, 662, 984, 961, 684
5142, 970, 671, 971, 993
5143, 983, 984, 684, 961
5144, 1060, 1038, 762, 1037
5145, 662, 960, 684, 961
5146, 760, 1060, 1037, 1059
5147, 1036, 760, 1037, 1059
5148, 960, 983, 684, 961
5149, 685, 707, 984, 684
5150, 1061, 1039, 762, 1038
5151, 1040, 1062, 763, 1063
5152, 1062, 1040, 763, 1039
5153, 1038, 1060, 762, 1061
5154, 1061, 763, 1039, 1062
5155, 739, 762, 1038, 1037
5156, 1060, 760, 1037, 761
5157, 760, 1036, 1037, 737
5158, 1037, 762, 1060, 761
5159, 968, 669, 647, 969
5160, 1039, 762, 1038, 740
5161, 639, 638, 661, 937
5162, 763, 1061, 1039, 762
5163, 941, 665, 666, 964
5164, 674, 973, 651, 673
5165, 741, 1039, 763, 1040
5166, 1040, 763, 741, 1063
5167, 945, 669, 647, 968
5168, 665, 643, 941, 666
5169, 678, 656, 977, 679
5170, 977, 655, 678, 677
5171, 739, 761, 762, 1037
5172, 738, 760, 1037, 737
5173, 738, 760, 761, 1037
5174, 739, 761, 1037, 738
5175, 652, 674, 675, 973
5176, 643, 665, 941, 642
5177, 740, 739, 762, 1038
5178, 652, 674, 973, 651
5179, 1039, 741, 763, 740
5180, 1039, 762, 740, 763
5181, 656, 678, 977, 655
5182, 972, 651, 673, 949
5183, 1041, 1018, 1019, 742
5184, 972, 651, 973, 673
5185, 667, 645, 943, 668
5186, 667, 666, 689, 966
5187, 666, 644, 943, 667
5188, 647, 946, 968, 969
5189, 964, 942, 666, 941
5190, 668, 690, 966, 667
5191, 668, 690, 691, 966
5192, 942, 643, 666, 941
5193, 945, 668, 646, 669
5194, 942, 964, 666, 965
5195, 644, 666, 943, 643
5196, 966, 690, 689, 667
5197, 966, 943, 668, 667
5198, 945, 968, 647, 946
5199, 943, 666, 667, 966
5200, 645, 667, 943, 644
5201, 1066, 1043, 1044, 767
5202, 966, 666, 689, 965
5203, 670, 648, 947, 671
5204, 1067, 1044, 1045, 769
5205, 947, 647, 969, 946
5206, 1043, 1066, 1065, 767
5207, 1067, 1066, 1044, 767
5208, 987, 689, 965, 988
5209, 646, 668, 944, 645
5210, 666, 643, 942, 943
5211, 669, 945, 647, 646
5212, 971, 948, 949, 649
5213, 1068, 1046, 769, 1045
5214, 672, 650, 949, 673
5215, 1042, 1019, 1020, 743
5216, 968, 668, 945, 669
5217, 966, 690, 691, 989
5218, 1068, 1067, 1045, 769
5219, 966, 943, 666, 965
5220, 766, 1043, 743, 1065
5221, 690, 966, 689, 989
5222, 1042, 1041, 1019, 743
5223, 943, 942, 666, 965
5224, 648, 670, 947, 647
5225, 742, 1018, 1019, 720
5226, 988, 966, 689, 965
5227, 1043, 1042, 1020, 743
5228, 743, 1041, 1019, 742
5229, 692, 670, 969, 693
5230, 670, 692, 969, 669
5231, 693, 671, 670, 969
5232, 766, 1043, 1065, 767
5233, 948, 671, 648, 649
5234, 966, 691, 668, 967
5235, 966, 988, 689, 989
5236, 670, 947, 969, 671
5237, 652, 973, 950, 651
5238, 649, 650, 949, 672
5239, 943, 668, 645, 944
5240, 955, 977, 656, 679
5241, 658, 979, 681, 957
5242, 1021, 744, 1043, 1020
5243, 744, 1044, 1043, 767
5244, 746, 1045, 1044, 769
5245, 744, 1044, 1021, 1043
5246, 767, 1044, 1067, 768
5247, 1067, 1044, 769, 768
5248, 945, 668, 944, 646
5249, 944, 966, 668, 967
5250, 966, 944, 668, 943
5251, 1046, 1024, 748, 1023
5252, 670, 947, 647, 969
5253, 977, 954, 656, 655
5254, 1046, 1045, 746, 769
5255, 745, 1022, 1021, 1044
5256, 743, 1019, 1020, 720
5257, 945, 967, 668, 968
5258, 967, 966, 691, 989
5259, 658, 979, 957, 657
5260, 1045, 1022, 1023, 746
5261, 1046, 1045, 1023, 746
5262, 972, 672, 949, 673
5263, 949, 650, 651, 673
5264, 1045, 1044, 1022, 746
5265, 972, 950, 651, 949
5266, 744, 766, 1043, 743
5267, 1047, 1025, 748, 1024
5268, 1025, 1047, 748, 1048
5269, 692, 693, 969, 992
5270, 967, 945, 668, 944
5271, 948, 671, 649, 971
5272, 1046, 1024, 1047, 748
5273, 1048, 1025, 1026, 749
5274, 649, 949, 971, 672
5275, 744, 1043, 1020, 743
5276, 766, 744, 1043, 767
5277, 671, 947, 948, 648
5278, 1049, 1048, 1026, 750
5279, 950, 972, 651, 973
5280, 1021, 744, 1020, 722
5281, 744, 745, 1044, 767
5282, 746, 1044, 745, 768
5283, 767, 745, 1044, 768
5284, 1044, 746, 769, 768
5285, 742, 1019, 743, 720
5286, 1021, 745, 1044, 744
5287, 723, 1021, 745, 1022
5288, 969, 947, 970, 671
5289, 747, 769, 1046, 746
5290, 769, 747, 1046, 770
5291, 745, 1022, 1044, 746
5292, 1024, 1023, 725, 748
5293, 747, 1046, 1023, 746
5294, 724, 1022, 746, 1023
5295, 748, 1046, 1023, 747
5296, 948, 970, 671, 971
5297, 969, 991, 692, 992
5298, 951, 973, 950, 652
5299, 1048, 750, 772, 749
5300, 720, 1020, 743, 721
5301, 970, 948, 671, 947
5302, 748, 1025, 1048, 749
5303, 1025, 725, 748, 1024
5304, 721, 1020, 744, 722
5305, 672, 972, 949, 971
5306, 1020, 744, 743, 721
5307, 727, 1026, 1025, 749
5308, 750, 1048, 1026, 749
5309, 1021, 745, 744, 722
5310, 1021, 723, 745, 722
5311, 674, 696, 973, 673
5312, 977, 954, 955, 656
5313, 677, 676, 953, 654
5314, 745, 723, 1022, 746
5315, 1022, 724, 746, 723
5316, 657, 979, 957, 956
5317, 1023, 724, 747, 746
5318, 1023, 724, 725, 747
5319, 748, 1023, 725, 747
5320, 654, 676, 952, 653
5321, 696, 674, 973, 697
5322, 677, 953, 655, 654
5323, 695, 994, 971, 993
5324, 726, 1025, 748, 749
5325, 727, 1025, 726, 749
5326, 725, 1025, 748, 726
5327, 1026, 727, 750, 749
5328, 696, 973, 995, 697
5329, 676, 953, 976, 677
5330, 952, 953, 676, 654
5331, 954, 677, 655, 977
5332, 954, 677, 953, 655
5333, 1003, 1025, 727, 1026
5334, 996, 995, 973, 697
5335, 954, 976, 677, 977
5336, 976, 954, 677, 953
5337, 1002, 1025, 726, 727
5338, 977, 955, 978, 679
5339, 957, 979, 681, 980
5340, 726, 704, 1002, 727
5341, 1025, 1003, 727, 1002
5342, 1002, 1003, 727, 704
5343, 1062, 763, 1063, 2240
5344, 662, 960, 961, 2236
5345, 644, 943, 2259, 2282
5346, 841, 864, 2279, 2299
5347, 742, 741, 1040, 2265
5348, 673, 972, 672, 2265
5349, 971, 672, 972, 2265
5350, 657, 956, 955, 2263
5351, 733, 1032, 2242, 2264
5352, 694, 993, 2226, 2265
5353, 733, 1032, 2237, 2266
5354, 891, 869, 892, 2298
5355, 869, 891, 868, 2298
5356, 695, 672, 971, 2265
5357, 978, 679, 955, 2263
5358, 994, 695, 971, 2265
5359, 763, 2255, 2240, 2285
5360, 1021, 722, 1020, 2270
5361, 722, 721, 1020, 2270
5362, 653, 951, 652, 2270
5363, 653, 952, 951, 2270
5364, 1068, 769, 792, 2303
5365, 1060, 2227, 2305, 2306
5366, 690, 989, 689, 2289
5367, 988, 689, 989, 2289
5368, 1010, 2280, 987, 2289
5369, 1001, 1002, 1024, 2263
5370, 1040, 1017, 1018, 2265
5371, 725, 726, 703, 2263
5372, 702, 725, 703, 2263
5373, 679, 680, 657, 2263
5374, 673, 672, 695, 2265
5375, 673, 695, 696, 2265
5376, 742, 719, 741, 2265
5377, 718, 741, 719, 2265
5378, 978, 955, 956, 2263
5379, 956, 979, 978, 2263
5380, 994, 971, 972, 2265
5381, 972, 995, 994, 2265
5382, 963, 664, 986, 2288
5383, 653, 652, 951, 2286
5384, 952, 653, 951, 2286
5385, 872, 849, 850, 2296
5386, 850, 873, 872, 2296
5387, 814, 815, 837, 2303
5388, 837, 815, 838, 2303
5389, 704, 1116, 705, 2293
5390, 963, 986, 985, 2288
5391, 985, 962, 963, 2288
5392, 663, 686, 664, 2288
5393, 643, 943, 644, 2282
5394, 942, 943, 643, 2282
5395, 887, 886, 864, 2279
5396, 864, 886, 863, 2279
5397, 862, 884, 861, 2279
5398, 885, 884, 862, 2279
5399, 1046, 748, 1047, 2302
5400, 748, 1046, 747, 2302
5401, 690, 2268, 989, 2289
5402, 770, 747, 1046, 2302
5403, 476, 937, 638, 2260
5404, 649, 2250, 948, 2283
5405, 833, 810, 811, 2285
5406, 657, 979, 956, 2263
5407, 637, 476, 638, 2260
5408, 653, 676, 952, 2270
5409, 1020, 698, 997, 2270
5410, 721, 698, 1020, 2270
5411, 1006, 1028, 1005, 2266
5412, 707, 706, 729, 2266
5413, 729, 730, 707, 2266
5414, 1028, 1006, 1029, 2266
5415, 698, 697, 720, 2265
5416, 1019, 996, 997, 2265
5417, 920, 2259, 943, 2282
5418, 936, 937, 476, 2260
5419, 652, 651, 950, 2277
5420, 950, 951, 652, 2277
5421, 1021, 1020, 998, 2270
5422, 1020, 997, 998, 2270
5423, 691, 692, 669, 2268
5424, 722, 699, 721, 2270
5425, 699, 698, 721, 2270
5426, 675, 676, 653, 2270
5427, 653, 652, 675, 2270
5428, 967, 968, 990, 2268
5429, 991, 990, 968, 2268
5430, 974, 951, 952, 2270
5431, 974, 952, 975, 2270
5432, 956, 2248, 657, 2274
5433, 1068, 2258, 769, 2303
5434, 762, 2256, 761, 2273
5435, 850, 2291, 873, 2296
5436, 541, 540, 563, 2294
5437, 563, 564, 541, 2294
5438, 688, 2280, 711, 2289
5439, 1091, 1068, 1069, 2302
5440, 1069, 1092, 1091, 2302
5441, 770, 769, 792, 2302
5442, 792, 793, 770, 2302
5443, 896, 781, 873, 2228
5444, 622, 599, 576, 2205
5445, 782, 897, 874, 2228
5446, 929, 2275, 952, 2286
5447, 936, 476, 475, 2260
5448, 772, 1071, 1048, 2302
5449, 749, 772, 1048, 2302
5450, 768, 769, 2258, 2303
5451, 569, 568, 591, 614
5452, 569, 591, 592, 614
5453, 500, 522, 913, 499
5454, 504, 505, 919, 527
5455, 522, 500, 913, 523
5456, 502, 524, 916, 501
5457, 507, 529, 921, 506
5458, 872, 873, 895, 780
5459, 893, 777, 892, 870
5460, 896, 895, 873, 780
5461, 535, 513, 512, 926
5462, 586, 608, 609, 631
5463, 826, 804, 1080, 803
5464, 804, 826, 1080, 827
5465, 897, 875, 782, 874
5466, 875, 897, 782, 898
5467, 877, 876, 784, 899
5468, 899, 784, 877, 900
5469, 1084, 830, 808, 807
5470, 933, 518, 519, 541
5471, 841, 818, 1094, 840
5472, 1094, 817, 840, 818
5473, 838, 816, 1092, 815
5474, 792, 908, 885, 907
5475, 887, 909, 794, 910
5476, 911, 889, 912, 796
5477, 1047, 748, 1048, 2302
5478, 749, 1048, 748, 2302
5479, 952, 2249, 653, 2275
5480, 649, 626, 2250, 2283
5481, 984, 685, 985, 2280
5482, 686, 985, 685, 2280
5483, 734, 2280, 2237, 2289
5484, 639, 2236, 662, 2288
5485, 697, 674, 973, 2270
5486, 996, 697, 973, 2270
5487, 637, 614, 476, 2260
5488, 2199, 2281, 2261, 2296
5489, 517, 540, 518, 2294
5490, 541, 518, 540, 2294
5491, 879, 901, 878, 2301
5492, 902, 901, 879, 2301
5493, 1012, 989, 2268, 2289
5494, 693, 2226, 992, 2268
5495, 976, 677, 2223, 2270
5496, 951, 2277, 928, 2286
5497, 985, 1007, 984, 2280
5498, 1008, 1007, 985, 2280
5499, 760, 1036, 737, 2306
5500, 1036, 760, 1059, 2306
5501, 2217, 2299, 2267, 2302
5502, 941, 642, 665, 2288
5503, 665, 964, 941, 2288
5504, 853, 830, 2273, 2305
5505, 948, 2250, 925, 2283
5506, 587, 565, 564, 2274
5507, 588, 565, 587, 2274
5508, 821, 2243, 822, 2262
5509, 690, 713, 2268, 2289
5510, 504, 503, 526, 2304
5511, 526, 527, 504, 2304
5512, 1036, 2287, 737, 2306
5513, 476, 484, 637, 2196
5514, 938, 639, 2235, 2288
5515, 873, 2228, 781, 2291
5516, 926, 2277, 2208, 2283
5517, 874, 782, 2228, 2291
5518, 2217, 2254, 773, 2267
5519, 662, 2236, 961, 2288
5520, 763, 2240, 1062, 2256
5521, 826, 2291, 827, 2296
5522, 938, 2236, 639, 2288
5523, 826, 1080, 827, 2291
5524, 941, 2272, 642, 2288
5525, 822, 2262, 2243, 2298
5526, 576, 2205, 577, 2259
5527, 653, 2275, 630, 2286
5528, 740, 1039, 741, 2269
5529, 725, 724, 1023, 2271
5530, 681, 980, 979, 2263
5531, 697, 995, 696, 2265
5532, 996, 995, 697, 2265
5533, 1002, 1003, 704, 2263
5534, 1018, 1019, 720, 2265
5535, 1006, 707, 1007, 2266
5536, 1007, 707, 708, 2266
5537, 851, 852, 874, 2305
5538, 874, 852, 875, 2305
5539, 988, 1010, 987, 2289
5540, 1010, 988, 1011, 2289
5541, 718, 717, 740, 2269
5542, 740, 741, 718, 2269
5543, 724, 725, 702, 2271
5544, 702, 701, 724, 2271
5545, 733, 2264, 2242, 2281
5546, 736, 737, 2287, 2306
5547, 872, 873, 780, 2296
5548, 763, 2240, 2256, 2285
5549, 821, 844, 2232, 2262
5550, 1008, 2266, 1007, 2280
5551, 827, 1080, 2239, 2291
5552, 733, 2266, 2237, 2280
5553, 1068, 1067, 769, 2258
5554, 768, 769, 1067, 2258
5555, 644, 943, 645, 2259
5556, 943, 944, 645, 2259
5557, 771, 748, 770, 2302
5558, 748, 747, 770, 2302
5559, 1069, 1046, 1047, 2302
5560, 1047, 1070, 1069, 2302
5561, 734, 2237, 733, 2264
5562, 732, 2242, 733, 2266
5563, 841, 864, 863, 2279
5564, 861, 838, 839, 2279
5565, 863, 840, 841, 2279
5566, 839, 862, 861, 2279
5567, 736, 2287, 2264, 2306
5568, 889, 866, 1120, 2299
5569, 652, 629, 2277, 2286
5570, 851, 874, 2291, 2305
5571, 826, 827, 849, 2296
5572, 827, 850, 849, 2296
5573, 2257, 2291, 1079, 2296
5574, 957, 2248, 956, 2274
5575, 527, 550, 2282, 2304
5576, 962, 662, 961, 2288
5577, 2240, 2255, 1063, 2285
5578, 556, 579, 557, 2283
5579, 580, 557, 579, 2283
5580, 573, 551, 550, 2282
5581, 553, 552, 575, 2282
5582, 574, 551, 573, 2282
5583, 575, 576, 553, 2282
5584, 559, 558, 581, 2283
5585, 581, 582, 559, 2283
5586, 1036, 1035, 2287, 2306
5587, 992, 2268, 2226, 2269
5588, 976, 2270, 2223, 2271
5589, 1079, 2281, 2257, 2296
5590, 646, 2259, 2250, 2276
5591, 643, 620, 2272, 2282
5592, 781, 873, 2291, 2296
5593, 586, 609, 587, 2295
5594, 610, 587, 609, 2295
5595, 2264, 2287, 1035, 2306
5596, 1065, 2255, 2252, 2284
5597, 1064, 2255, 1065, 2284
5598, 737, 736, 759, 2306
5599, 759, 760, 737, 2306
5600, 653, 2249, 654, 2275
5601, 806, 807, 829, 2305
5602, 829, 807, 830, 2305
5603, 732, 2281, 2242, 2290
5604, 1125, 705, 1117, 1124
5605, 487, 683, 486, 479
5606, 1123, 1115, 1122, 659
5607, 1115, 1108, 1107, 1004
5608, 484, 614, 483, 476
5609, 469, 470, 477, 982
5610, 478, 471, 1005, 470
5611, 471, 478, 1005, 479
5612, 1124, 705, 1117, 1116
5613, 480, 472, 473, 1028
5614, 472, 1005, 479, 471
5615, 477, 476, 469, 936
5616, 468, 469, 476, 936
5617, 468, 476, 475, 936
5618, 1115, 1108, 1004, 1116
5619, 468, 475, 467, 936
5620, 876, 877, 784, 2273
5621, 2237, 2280, 1010, 2289
5622, 871, 2231, 894, 2261
5623, 656, 655, 954, 2295
5624, 954, 955, 656, 2295
5625, 738, 1037, 2269, 2287
5626, 827, 2291, 850, 2296
5627, 711, 689, 688, 2289
5628, 689, 711, 712, 2289
5629, 738, 2269, 715, 2287
5630, 2237, 2264, 734, 2289
5631, 638, 937, 639, 2260
5632, 937, 938, 639, 2260
5633, 646, 2250, 647, 2276
5634, 510, 509, 532, 2278
5635, 532, 533, 510, 2278
5636, 887, 795, 2279, 2299
5637, 809, 810, 832, 2285
5638, 833, 832, 810, 2285
5639, 878, 855, 856, 2285
5640, 856, 879, 878, 2285
5641, 564, 2274, 541, 2295
5642, 977, 976, 2223, 2271
5643, 993, 992, 2226, 2269
5644, 945, 2250, 646, 2259
5645, 929, 952, 951, 2286
5646, 928, 929, 951, 2286
5647, 515, 514, 537, 2286
5648, 537, 538, 515, 2286
5649, 2254, 2267, 2217, 2299
5650, 1011, 989, 1012, 2289
5651, 1011, 988, 989, 2289
5652, 736, 2264, 759, 2306
5653, 1112, 866, 843, 2299
5654, 920, 943, 942, 2282
5655, 942, 919, 920, 2282
5656, 926, 948, 925, 2283
5657, 1119, 2220, 1120, 2267
5658, 528, 529, 506, 2282
5659, 658, 657, 957, 2248
5660, 956, 957, 657, 2248
5661, 733, 2242, 732, 2281
5662, 1099, 1106, 1107, 2246
5663, 1098, 1106, 1099, 2246
5664, 655, 2249, 954, 2295
5665, 702, 2263, 701, 2271
5666, 733, 2237, 734, 2280
5667, 1079, 1056, 2257, 2281
5668, 637, 638, 615, 2260
5669, 615, 614, 637, 2260
5670, 715, 2269, 2268, 2287
5671, 576, 2259, 553, 2282
5672, 647, 646, 945, 2250
5673, 649, 648, 948, 2250
5674, 654, 653, 952, 2249
5675, 945, 946, 647, 2250
5676, 648, 947, 948, 2250
5677, 952, 953, 654, 2249
5678, 764, 1063, 763, 2255
5679, 1065, 1064, 766, 2255
5680, 766, 1064, 765, 2255
5681, 1065, 766, 2252, 2255
5682, 1060, 762, 1061, 2256
5683, 762, 1060, 761, 2256
5684, 934, 2248, 957, 2274
5685, 1033, 1032, 2237, 2264
5686, 1031, 1032, 2242, 2266
5687, 576, 622, 2205, 2259
5688, 836, 2213, 2258, 2292
5689, 925, 2278, 534, 2283
5690, 690, 691, 989, 2268
5691, 675, 973, 674, 2270
5692, 487, 683, 479, 706
5693, 484, 614, 476, 637
5694, 1027, 1108, 1116, 1004
5695, 477, 469, 982, 959
5696, 959, 477, 469, 936
5697, 944, 646, 645, 2259
5698, 646, 944, 945, 2259
5699, 934, 957, 956, 2274
5700, 956, 933, 934, 2274
5701, 530, 2259, 529, 2282
5702, 838, 1091, 2279, 2303
5703, 2262, 2290, 1052, 2298
5704, 601, 2202, 602, 2278
5705, 952, 929, 2249, 2275
5706, 1011, 1034, 2238, 2289
5707, 976, 676, 677, 2270
5708, 692, 693, 992, 2268
5709, 992, 991, 692, 2268
5710, 1066, 767, 1067, 2258
5711, 768, 1067, 767, 2258
5712, 876, 853, 2273, 2305
5713, 154, 153, 628, 2206
5714, 628, 629, 154, 2206
5715, 155, 630, 156, 2207
5716, 631, 156, 630, 2207
5717, 634, 635, 160, 2197
5718, 160, 159, 634, 2197
5719, 149, 623, 624, 2247
5720, 149, 148, 623, 2247
5721, 149, 624, 150, 2202
5722, 624, 625, 150, 2202
5723, 203, 1093, 204, 2216
5724, 1092, 1093, 203, 2216
5725, 708, 709, 686, 2280
5726, 708, 686, 685, 2280
5727, 522, 523, 913, 2260
5728, 1012, 2268, 2287, 2289
5729, 642, 941, 643, 2272
5730, 649, 626, 648, 2250
5731, 648, 626, 625, 2250
5732, 2268, 2269, 1014, 2287
5733, 749, 771, 772, 2302
5734, 749, 748, 771, 2302
5735, 1070, 1047, 1048, 2302
5736, 1070, 1048, 1071, 2302
5737, 553, 2259, 530, 2282
5738, 564, 563, 586, 2295
5739, 586, 587, 564, 2295
5740, 1056, 2264, 2257, 2281
5741, 773, 1071, 772, 2302
5742, 950, 928, 951, 2277
5743, 927, 928, 950, 2277
5744, 1014, 2269, 1037, 2287
5745, 644, 645, 622, 2259
5746, 831, 2241, 832, 2273
5747, 841, 840, 1094, 2279
5748, 713, 2287, 2268, 2289
5749, 2242, 2281, 1054, 2290
5750, 541, 2294, 564, 2295
5751, 986, 687, 688, 2280
5752, 688, 987, 986, 2280
5753, 502, 503, 916, 2297
5754, 1089, 813, 812, 2284
5755, 734, 711, 2280, 2289
5756, 1066, 2252, 767, 2258
5757, 564, 2294, 563, 2295
5758, 1080, 1079, 2257, 2291
5759, 509, 2276, 532, 2278
5760, 634, 657, 2248, 2274
5761, 1038, 739, 1037, 2269
5762, 738, 1037, 739, 2269
5763, 1021, 1022, 723, 2271
5764, 722, 1021, 723, 2271
5765, 690, 689, 712, 2289
5766, 690, 712, 713, 2289
5767, 932, 518, 541, 2294
5768, 687, 985, 686, 2280
5769, 985, 687, 986, 2280
5770, 1065, 2252, 1088, 2284
5771, 1087, 2255, 1064, 2284
5772, 1036, 1037, 737, 2287
5773, 737, 1037, 738, 2287
5774, 665, 664, 964, 2288
5775, 963, 964, 664, 2288
5776, 732, 2242, 2266, 2290
5777, 695, 993, 694, 2265
5778, 994, 993, 695, 2265
5779, 679, 978, 977, 2263
5780, 1063, 764, 1064, 2255
5781, 763, 1062, 1061, 2256
5782, 765, 1064, 764, 2255
5783, 762, 763, 1061, 2256
5784, 1066, 1065, 767, 2252
5785, 1065, 766, 767, 2252
5786, 647, 947, 648, 2250
5787, 647, 946, 947, 2250
5788, 654, 953, 655, 2249
5789, 954, 655, 953, 2249
5790, 826, 1079, 2291, 2296
5791, 1038, 1039, 740, 2269
5792, 740, 739, 1038, 2269
5793, 1022, 1023, 724, 2271
5794, 724, 723, 1022, 2271
5795, 708, 2266, 709, 2280
5796, 542, 543, 520, 2274
5797, 1060, 1059, 760, 2306
5798, 2242, 2264, 1055, 2281
5799, 1075, 2262, 1052, 2298
5800, 1079, 1056, 1057, 2257
5801, 1079, 1057, 1080, 2257
5802, 826, 803, 1079, 2296
5803, 510, 924, 509, 2278
5804, 599, 622, 576, 2282
5805, 841, 2279, 1094, 2299
5806, 2253, 2290, 2262, 2298
5807, 600, 577, 2205, 2276
5808, 1056, 1057, 2257, 2264
5809, 878, 2273, 855, 2285
5810, 538, 516, 515, 2275
5811, 539, 516, 538, 2275
5812, 855, 832, 833, 2285
5813, 856, 855, 833, 2285
5814, 602, 625, 603, 2283
5815, 596, 619, 597, 2282
5816, 599, 598, 621, 2282
5817, 604, 627, 605, 2283
5818, 2237, 2266, 1009, 2280
5819, 2223, 2270, 700, 2271
5820, 716, 2226, 2268, 2269
5821, 911, 796, 910, 2299
5822, 1087, 1064, 1065, 2284
5823, 1065, 1088, 1087, 2284
5824, 654, 2249, 631, 2275
5825, 1052, 2290, 1053, 2298
5826, 919, 2282, 2272, 2304
5827, 874, 875, 782, 2305
5828, 573, 2282, 550, 2304
5829, 640, 2272, 2235, 2288
5830, 587, 2274, 564, 2295
5831, 874, 782, 2291, 2305
5832, 847, 825, 848, 2261
5833, 891, 892, 777, 2298
5834, 653, 630, 652, 2286
5835, 629, 652, 630, 2286
5836, 1003, 704, 2263, 2293
5837, 681, 980, 2263, 2293
5838, 910, 795, 887, 2299
5839, 623, 2259, 646, 2276
5840, 649, 2208, 627, 2283
5841, 653, 654, 631, 2275
5842, 631, 630, 653, 2275
5843, 647, 2250, 624, 2276
5844, 504, 917, 503, 2304
5845, 643, 644, 621, 2282
5846, 621, 620, 643, 2282
5847, 627, 626, 649, 2283
5848, 2217, 795, 2299, 2302
5849, 756, 779, 757, 2199
5850, 757, 779, 780, 2199
5851, 768, 767, 2252, 2258
5852, 509, 508, 531, 2276
5853, 509, 531, 532, 2276
5854, 763, 2256, 762, 2273
5855, 1091, 815, 814, 2303
5856, 822, 844, 821, 2262
5857, 845, 844, 822, 2262
5858, 1035, 1036, 1058, 2306
5859, 1036, 1059, 1058, 2306
5860, 639, 640, 2235, 2288
5861, 1080, 1081, 2239, 2291
5862, 1055, 2242, 1032, 2264
5863, 694, 2226, 717, 2265
5864, 1009, 2237, 1032, 2266
5865, 1029, 1051, 1028, 2290
5866, 1052, 1051, 1029, 2290
5867, 885, 886, 908, 2279
5868, 514, 513, 536, 2277
5869, 536, 537, 514, 2277
5870, 825, 2244, 802, 2296
5871, 874, 2228, 873, 2291
5872, 646, 647, 624, 2276
5873, 624, 623, 646, 2276
5874, 616, 2251, 617, 2297
5875, 838, 815, 1091, 2303
5876, 652, 629, 651, 2277
5877, 628, 651, 629, 2277
5878, 879, 878, 2285, 2301
5879, 774, 773, 2254, 2267
5880, 825, 2261, 2244, 2296
5881, 535, 2277, 926, 2283
5882, 554, 553, 576, 2259
5883, 576, 577, 554, 2259
5884, 879, 2285, 856, 2301
5885, 785, 2225, 786, 2273
5886, 786, 901, 902, 2301
5887, 1083, 1060, 2305, 2306
5888, 624, 2276, 2250, 2278
5889, 1106, 1113, 1114, 2300
5890, 1106, 1105, 1113, 2300
5891, 611, 2197, 612, 2274
5892, 624, 2250, 625, 2278
5893, 810, 1087, 811, 2285
5894, 785, 786, 763, 2273
5895, 763, 762, 785, 2273
5896, 904, 2284, 881, 2292
5897, 602, 2202, 625, 2278
5898, 732, 755, 2281, 2290
5899, 624, 2202, 601, 2278
5900, 515, 929, 514, 2286
5901, 1035, 1058, 2264, 2306
5902, 607, 2207, 608, 2275
5903, 768, 791, 769, 2303
5904, 769, 791, 792, 2303
5905, 594, 571, 593, 2297
5906, 571, 570, 593, 2297
5907, 1128, 889, 1120, 2299
5908, 582, 2277, 559, 2283
5909, 836, 813, 814, 2258
5910, 1083, 807, 806, 2305
5911, 2279, 2299, 795, 2302
5912, 1106, 958, 1105, 2300
5913, 2250, 2278, 925, 2283
5914, 893, 777, 870, 778
5915, 781, 896, 873, 780
5916, 501, 916, 915, 524
5917, 803, 1080, 826, 1079
5918, 506, 921, 920, 529
5919, 631, 632, 609, 586
5920, 838, 1091, 815, 1092
5921, 518, 933, 932, 541
5922, 910, 794, 887, 795
5923, 889, 796, 797, 912
5924, 768, 2258, 2252, 2303
5925, 929, 515, 516, 2275
5926, 600, 2247, 601, 2276
5927, 871, 2231, 2261, 2296
5928, 783, 2227, 760, 2306
5929, 1075, 1052, 1053, 2298
5930, 1053, 1076, 1075, 2298
5931, 1113, 2248, 1114, 2300
5932, 1053, 2290, 2253, 2298
5933, 501, 500, 523, 2260
5934, 524, 501, 523, 2260
5935, 2257, 2264, 757, 2281
5936, 876, 2273, 784, 2305
5937, 866, 889, 888, 2299
5938, 817, 816, 2216, 2279
5939, 605, 2206, 606, 2277
5940, 999, 2270, 976, 2271
5941, 1015, 2268, 992, 2269
5942, 855, 2273, 832, 2285
5943, 590, 567, 589, 2300
5944, 1023, 1000, 1001, 2271
5945, 936, 914, 937, 2260
5946, 936, 913, 914, 2260
5947, 509, 922, 508, 2276
5948, 1128, 797, 889, 2299
5949, 823, 800, 801, 2298
5950, 781, 780, 873, 2296
5951, 543, 566, 2245, 2274
5952, 802, 2244, 1078, 2296
5953, 632, 610, 609, 2295
5954, 514, 928, 513, 2277
5955, 541, 932, 2294, 2295
5956, 826, 1079, 1080, 2291
5957, 2244, 2261, 1078, 2296
5958, 2284, 2292, 904, 2301
5959, 577, 2259, 2205, 2276
5960, 730, 729, 752, 2290
5961, 730, 752, 753, 2290
5962, 1079, 1078, 2281, 2296
5963, 2243, 2262, 1075, 2298
5964, 856, 2285, 2214, 2301
5965, 722, 723, 700, 2271
5966, 700, 699, 722, 2271
5967, 738, 739, 716, 2269
5968, 716, 715, 738, 2269
5969, 2214, 2285, 2284, 2301
5970, 2261, 2281, 1078, 2296
5971, 616, 2260, 2251, 2297
5972, 632, 2249, 655, 2295
5973, 768, 2252, 791, 2303
5974, 622, 2259, 576, 2282
5975, 1112, 1120, 866, 2299
5976, 894, 893, 871, 2261
5977, 871, 893, 870, 2261
5978, 498, 867, 890, 2262
5979, 1094, 2299, 2279, 2302
5980, 919, 2272, 918, 2304
5981, 812, 811, 2215, 2284
5982, 2273, 2285, 878, 2301
5983, 600, 2205, 623, 2276
5984, 1054, 2261, 2253, 2281
5985, 1003, 2263, 2212, 2293
5986, 594, 593, 616, 2297
5987, 887, 795, 794, 2279
5988, 783, 2305, 2227, 2306
5989, 586, 632, 609, 2295
5990, 905, 883, 906, 2303
5991, 594, 595, 572, 2297
5992, 594, 572, 571, 2297
5993, 526, 525, 548, 2297
5994, 548, 549, 526, 2297
5995, 809, 1086, 810, 2285
5996, 1083, 2305, 1082, 2306
5997, 524, 915, 501, 2260
5998, 980, 2212, 2263, 2293
5999, 999, 976, 977, 2271
6000, 977, 1000, 999, 2271
6001, 993, 1016, 1015, 2269
6002, 993, 1015, 992, 2269
6003, 606, 2210, 607, 2286
6004, 529, 2259, 920, 2282
6005, 635, 612, 2197, 2274
6006, 634, 2197, 611, 2274
6007, 1031, 2266, 2242, 2290
6008, 474, 482, 481, 2262
6009, 915, 2235, 938, 2260
6010, 943, 921, 944, 2259
6011, 921, 943, 920, 2259
6012, 1087, 1064, 2255, 2285
6013, 753, 2262, 2253, 2290
6014, 594, 617, 595, 2297
6015, 693, 716, 694, 2226
6016, 716, 717, 694, 2226
6017, 700, 678, 677, 2223
6018, 701, 678, 700, 2223
6019, 1031, 1032, 1054, 2242
6020, 1054, 1032, 1055, 2242
6021, 1033, 1032, 1010, 2237
6022, 1010, 1032, 1009, 2237
6023, 938, 916, 939, 2235
6024, 916, 938, 915, 2235
6025, 1009, 987, 1010, 2280
6026, 986, 987, 1009, 2280
6027, 524, 523, 546, 2260
6028, 1054, 2281, 2253, 2290
6029, 2220, 2254, 1120, 2267
6030, 608, 2207, 631, 2275
6031, 607, 630, 2207, 2275
6032, 467, 81, 499, 522
6033, 522, 82, 545, 467
6034, 83, 545, 483, 568
6035, 591, 568, 84, 491
6036, 498, 89, 890, 867
6037, 912, 104, 1136, 889
6038, 843, 107, 1112, 820
6039, 1112, 866, 106, 843
6040, 889, 105, 1120, 866
6041, 894, 2231, 779, 2261
6042, 595, 618, 596, 2304
6043, 508, 507, 530, 2259
6044, 508, 530, 531, 2259
6045, 843, 820, 1096, 2299
6046, 758, 757, 2257, 2264
6047, 520, 521, 934, 2300
6048, 654, 655, 632, 2249
6049, 654, 632, 631, 2249
6050, 625, 647, 648, 2250
6051, 625, 624, 647, 2250
6052, 597, 2203, 598, 2282
6053, 603, 2209, 604, 2283
6054, 820, 819, 1096, 2299
6055, 802, 1079, 803, 2296
6056, 1077, 2253, 1054, 2261
6057, 491, 591, 568, 614
6058, 499, 913, 467, 522
6059, 1112, 820, 1096, 843
6060, 1136, 889, 797, 912
6061, 701, 2223, 700, 2271
6062, 717, 2226, 716, 2269
6063, 716, 2226, 693, 2268
6064, 700, 2223, 677, 2270
6065, 1063, 2255, 1064, 2285
6066, 623, 2205, 2259, 2276
6067, 1084, 2256, 2273, 2305
6068, 812, 2215, 1088, 2284
6069, 572, 2297, 595, 2304
6070, 526, 2297, 549, 2304
6071, 1087, 2215, 811, 2284
6072, 2255, 2284, 1087, 2285
6073, 2257, 2264, 1057, 2306
6074, 1080, 2257, 1057, 2306
6075, 631, 2275, 2249, 2294
6076, 1055, 1054, 2242, 2281
6077, 801, 800, 1077, 2298
6078, 539, 516, 2275, 2294
6079, 778, 870, 893, 2261
6080, 1051, 1074, 474, 2262
6081, 1009, 1010, 2237, 2280
6082, 920, 506, 529, 2282
6083, 2235, 2251, 916, 2272
6084, 1004, 1003, 2212, 2293
6085, 1031, 2242, 1054, 2290
6086, 601, 2247, 624, 2276
6087, 623, 2247, 600, 2276
6088, 822, 799, 800, 2298
6089, 800, 823, 822, 2298
6090, 868, 845, 846, 2298
6091, 846, 869, 868, 2298
6092, 630, 607, 2210, 2286
6093, 800, 799, 1076, 2298
6094, 782, 781, 2228, 2291
6095, 1092, 2216, 816, 2279
6096, 628, 2206, 605, 2277
6097, 817, 2216, 1093, 2279
6098, 1055, 1032, 1033, 2264
6099, 1056, 1055, 1033, 2264
6100, 679, 701, 702, 2263
6101, 1000, 977, 978, 2263
6102, 1001, 1000, 978, 2263
6103, 994, 1017, 1016, 2265
6104, 1016, 993, 994, 2265
6105, 695, 717, 718, 2265
6106, 695, 694, 717, 2265
6107, 1009, 1032, 1031, 2266
6108, 1009, 1031, 1008, 2266
6109, 870, 847, 848, 2261
6110, 870, 848, 871, 2261
6111, 620, 2203, 597, 2282
6112, 603, 626, 2209, 2283
6113, 621, 598, 2203, 2282
6114, 627, 604, 2209, 2283
6115, 1055, 2261, 1054, 2281
6116, 906, 907, 792, 2303
6117, 740, 717, 739, 2269
6118, 739, 717, 716, 2269
6119, 701, 723, 724, 2271
6120, 701, 700, 723, 2271
6121, 615, 616, 2201, 2260
6122, 638, 639, 616, 2260
6123, 616, 615, 638, 2260
6124, 1056, 1079, 1078, 2281
6125, 1055, 1056, 1078, 2281
6126, 848, 2261, 825, 2296
6127, 934, 2248, 2274, 2300
6128, 845, 2262, 822, 2298
6129, 867, 844, 845, 2262
6130, 868, 867, 845, 2262
6131, 1096, 1112, 843, 2299
6132, 1082, 2305, 2291, 2306
6133, 632, 2294, 2249, 2295
6134, 986, 1009, 1008, 2280
6135, 1008, 985, 986, 2280
6136, 1056, 1055, 2264, 2281
6137, 734, 2264, 733, 2281
6138, 914, 500, 501, 2260
6139, 980, 2212, 1003, 2263
6140, 2291, 2305, 2257, 2306
6141, 884, 907, 906, 2303
6142, 906, 883, 884, 2303
6143, 860, 837, 838, 2303
6144, 838, 861, 860, 2303
6145, 890, 2198, 775, 2262
6146, 925, 2250, 924, 2278
6147, 1087, 2284, 811, 2285
6148, 1054, 2253, 1053, 2290
6149, 1084, 1085, 2241, 2273
6150, 1009, 2266, 1008, 2280
6151, 732, 2266, 733, 2280
6152, 938, 961, 2236, 2288
6153, 531, 530, 553, 2259
6154, 531, 553, 554, 2259
6155, 930, 2275, 516, 2294
6156, 1055, 1077, 1054, 2261
6157, 1077, 1055, 1078, 2261
6158, 859, 2224, 882, 2292
6159, 1077, 1078, 2244, 2261
6160, 1034, 2264, 2238, 2289
6161, 1052, 1074, 1051, 2262
6162, 1052, 1075, 1074, 2262
6163, 939, 2235, 916, 2272
6164, 1083, 1082, 1060, 2306
6165, 1060, 1082, 1059, 2306
6166, 778, 893, 894, 2261
6167, 870, 2261, 778, 2298
6168, 1074, 1075, 2243, 2262
6169, 838, 1091, 1092, 2279
6170, 832, 854, 831, 2273
6171, 832, 855, 854, 2273
6172, 665, 642, 664, 2288
6173, 664, 642, 641, 2288
6174, 941, 964, 963, 2288
6175, 963, 940, 941, 2288
6176, 1014, 1037, 1036, 2287
6177, 1036, 1013, 1014, 2287
6178, 737, 738, 715, 2287
6179, 714, 737, 715, 2287
6180, 623, 645, 646, 2259
6181, 622, 645, 623, 2259
6182, 1116, 1124, 705, 2293
6183, 585, 2211, 562, 2275
6184, 2253, 2261, 1077, 2298
6185, 1055, 1078, 2261, 2281
6186, 889, 797, 796, 2299
6187, 1089, 812, 1088, 2284
6188, 917, 916, 503, 2297
6189, 623, 2205, 622, 2259
6190, 777, 870, 778, 2298
6191, 2235, 2272, 939, 2288
6192, 632, 631, 2249, 2294
6193, 1013, 2268, 1014, 2287
6194, 714, 715, 2268, 2287
6195, 482, 474, 2232, 2262
6196, 508, 922, 507, 2259
6197, 868, 2262, 845, 2298
6198, 508, 2259, 531, 2276
6199, 529, 921, 920, 2259
6200, 1080, 2291, 2257, 2306
6201, 603, 625, 626, 2283
6202, 599, 621, 622, 2282
6203, 619, 620, 597, 2282
6204, 628, 605, 627, 2283
6205, 755, 756, 733, 2281
6206, 733, 732, 755, 2281
6207, 910, 796, 795, 2299
6208, 595, 573, 572, 2304
6209, 595, 596, 573, 2304
6210, 549, 527, 526, 2304
6211, 549, 550, 527, 2304
6212, 857, 2214, 834, 2284
6213, 711, 710, 733, 2280
6214, 711, 733, 734, 2280
6215, 700, 2270, 699, 2271
6216, 716, 2268, 715, 2269
6217, 577, 554, 2259, 2276
6218, 509, 923, 2276, 2278
6219, 642, 2272, 641, 2288
6220, 940, 2272, 941, 2288
6221, 509, 924, 923, 2278
6222, 776, 891, 777, 2298
6223, 814, 1090, 1091, 2303
6224, 504, 918, 917, 2304
6225, 596, 143, 618, 595
6226, 142, 595, 594, 617
6227, 503, 916, 120, 502
6228, 503, 121, 917, 504
6229, 597, 144, 619, 596
6230, 499, 117, 913, 500
6231, 592, 139, 614, 591
6232, 593, 592, 140, 615
6233, 501, 914, 118, 500
6234, 119, 916, 501, 502
6235, 594, 141, 616, 593
6236, 122, 504, 505, 919
6237, 146, 621, 599, 598
6238, 506, 919, 123, 505
6239, 603, 150, 625, 602
6240, 600, 147, 622, 599
6241, 507, 124, 506, 921
6242, 508, 126, 922, 509
6243, 507, 125, 922, 508
6244, 511, 924, 128, 510
6245, 511, 129, 925, 512
6246, 127, 509, 510, 924
6247, 152, 627, 605, 604
6248, 512, 130, 926, 513
6249, 611, 158, 633, 610
6250, 610, 157, 632, 609
6251, 612, 635, 160, 613
6252, 609, 156, 631, 608
6253, 189, 801, 1078, 802
6254, 165, 894, 778, 893
6255, 779, 166, 895, 894
6256, 190, 802, 1079, 803
6257, 187, 1076, 800, 799
6258, 928, 513, 131, 514
6259, 188, 800, 1077, 801
6260, 515, 133, 929, 516
6261, 132, 514, 515, 929
6262, 186, 798, 1075, 799
6263, 167, 896, 780, 895
6264, 892, 777, 163, 891
6265, 164, 893, 777, 892
6266, 933, 519, 137, 520
6267, 520, 138, 934, 521
6268, 933, 518, 136, 519
6269, 191, 804, 803, 1080
6270, 784, 898, 170, 899
6271, 897, 898, 169, 782
6272, 786, 900, 172, 901
6273, 171, 784, 899, 900
6274, 806, 193, 1082, 805
6275, 173, 902, 786, 901
6276, 194, 806, 1083, 807
6277, 808, 195, 1084, 807
6278, 809, 196, 1085, 808
6279, 197, 809, 1086, 810
6280, 811, 810, 198, 1087
6281, 792, 906, 178, 907
6282, 180, 909, 794, 908
6283, 179, 908, 792, 907
6284, 182, 911, 796, 910
6285, 910, 181, 909, 794
6286, 911, 183, 796, 912
6287, 814, 1091, 202, 815
6288, 816, 815, 203, 1092
6289, 200, 812, 1089, 813
6290, 817, 1094, 205, 818
6291, 206, 818, 1095, 819
6292, 819, 1096, 207, 820
6293, 2253, 2281, 755, 2290
6294, 642, 643, 620, 2272
6295, 919, 941, 918, 2272
6296, 620, 619, 642, 2272
6297, 2257, 2291, 782, 2305
6298, 571, 572, 549, 2297
6299, 549, 548, 571, 2297
6300, 1082, 2291, 1081, 2306
6301, 753, 776, 2253, 2262
6302, 611, 612, 589, 2274
6303, 589, 588, 611, 2274
6304, 779, 2261, 2231, 2296
6305, 933, 2274, 2221, 2295
6306, 1067, 1068, 1090, 2258
6307, 810, 1086, 1087, 2285
6308, 945, 922, 2250, 2259
6309, 932, 931, 518, 2294
6310, 585, 607, 608, 2275
6311, 585, 584, 607, 2275
6312, 779, 2231, 780, 2296
6313, 787, 786, 902, 2301
6314, 871, 872, 2231, 2296
6315, 850, 851, 873, 2291
6316, 874, 873, 851, 2291
6317, 87, 821, 844, 2232
6318, 1084, 1083, 2256, 2305
6319, 763, 786, 2255, 2285
6320, 757, 2264, 734, 2281
6321, 904, 789, 788, 2292
6322, 1010, 1011, 2238, 2289
6323, 929, 928, 514, 2286
6324, 1112, 2267, 1120, 2299
6325, 709, 2266, 732, 2280
6326, 857, 856, 2214, 2301
6327, 795, 794, 2279, 2302
6328, 498, 490, 867, 2262
6329, 920, 919, 506, 2282
6330, 845, 822, 823, 2298
6331, 846, 845, 823, 2298
6332, 578, 577, 600, 2276
6333, 601, 578, 600, 2276
6334, 876, 898, 875, 2305
6335, 829, 830, 852, 2305
6336, 830, 853, 852, 2305
6337, 1083, 806, 1082, 2305
6338, 857, 2214, 2284, 2301
6339, 636, 1129, 613, 2300
6340, 858, 2284, 2213, 2292
6341, 583, 582, 605, 2277
6342, 583, 605, 606, 2277
6343, 839, 816, 817, 2279
6344, 817, 840, 839, 2279
6345, 1120, 2267, 2254, 2299
6346, 146, 621, 598, 2203
6347, 152, 627, 604, 2209
6348, 607, 155, 630, 2210
6349, 198, 811, 1087, 2215
6350, 620, 145, 597, 2203
6351, 151, 603, 626, 2209
6352, 812, 199, 1088, 2215
6353, 520, 934, 933, 2274
6354, 562, 2275, 2211, 2294
6355, 549, 2297, 572, 2304
6356, 1111, 1119, 1112, 2267
6357, 1119, 1120, 1112, 2267
6358, 929, 516, 930, 2275
6359, 601, 578, 2276, 2278
6360, 1096, 1104, 820, 1112
6361, 491, 568, 483, 614
6362, 798, 474, 466, 1074
6363, 797, 1128, 889, 1136
6364, 459, 499, 913, 467
6365, 563, 562, 2211, 2294
6366, 916, 2272, 2251, 2297
6367, 625, 2202, 624, 2278
6368, 106, 105, 866, 1120
6369, 104, 912, 1136, 103
6370, 1128, 104, 889, 1136
6371, 1112, 820, 107, 1104
6372, 1104, 107, 14, 820
6373, 107, 843, 1112, 106
6374, 866, 1112, 106, 1120
6375, 1128, 105, 889, 104
6376, 105, 1128, 889, 1120
6377, 466, 85, 474, 798
6378, 474, 85, 86, 798
6379, 498, 88, 867, 490
6380, 88, 498, 867, 89
6381, 459, 81, 80, 499
6382, 459, 81, 499, 467
6383, 522, 82, 467, 81
6384, 475, 83, 82, 545
6385, 475, 83, 545, 483
6386, 84, 483, 568, 83
6387, 483, 84, 568, 491
6388, 591, 84, 7, 491
6389, 545, 467, 82, 475
6390, 883, 860, 861, 2303
6391, 861, 884, 883, 2303
6392, 618, 595, 2297, 2304
6393, 509, 923, 922, 2276
6394, 150, 625, 602, 2202
6395, 149, 624, 601, 2247
6396, 635, 612, 160, 2197
6397, 203, 816, 1092, 2216
6398, 156, 631, 608, 2207
6399, 938, 2235, 939, 2288
6400, 624, 149, 601, 2202
6401, 623, 148, 600, 2247
6402, 634, 159, 611, 2197
6403, 155, 607, 630, 2207
6404, 628, 153, 605, 2206
6405, 817, 204, 1093, 2216
6406, 794, 793, 908, 2279
6407, 927, 513, 928, 2277
6408, 1128, 2254, 797, 2299
6409, 610, 632, 633, 2295
6410, 1132, 1125, 705, 1133
6411, 1073, 1102, 1103, 1110
6412, 1101, 1108, 1027, 1100
6413, 1130, 1123, 659, 1131
6414, 1110, 1103, 1073, 1111
6415, 1128, 1135, 1136, 774
6416, 1100, 1107, 1004, 1099
6417, 490, 497, 489, 752
6418, 490, 497, 752, 498
6419, 487, 494, 683, 495
6420, 494, 487, 683, 486
6421, 1123, 1130, 659, 1122
6422, 1125, 1132, 705, 1124
6423, 1128, 1135, 774, 1127
6424, 469, 461, 462, 982
6425, 470, 469, 462, 982
6426, 470, 463, 1005, 462
6427, 463, 470, 1005, 471
6428, 1051, 473, 466, 465
6429, 1051, 474, 466, 473
6430, 472, 465, 1028, 464
6431, 465, 472, 1028, 473
6432, 1005, 463, 471, 464
6433, 471, 472, 1005, 464
6434, 469, 468, 461, 936
6435, 1107, 1100, 1004, 1108
6436, 468, 460, 461, 936
6437, 1098, 1105, 1106, 958
6438, 492, 614, 491, 484
6439, 460, 467, 936, 468
6440, 1098, 1105, 958, 1097
6441, 467, 460, 936, 459
6442, 614, 491, 484, 483
6443, 1097, 521, 90, 2300
6444, 786, 2285, 2273, 2301
6445, 1128, 1120, 2254, 2299
6446, 754, 753, 2253, 2290
6447, 788, 2292, 2284, 2301
6448, 482, 474, 86, 2232
6449, 86, 87, 482, 2232
6450, 627, 649, 650, 2208
6451, 1034, 1033, 2238, 2264
6452, 775, 498, 890, 2262
6453, 1094, 2279, 1093, 2302
6454, 1014, 992, 1015, 2268
6455, 992, 1014, 991, 2268
6456, 716, 693, 715, 2268
6457, 692, 715, 693, 2268
6458, 998, 976, 999, 2270
6459, 699, 700, 677, 2270
6460, 699, 677, 676, 2270
6461, 975, 976, 998, 2270
6462, 521, 544, 90, 2300
6463, 590, 92, 567, 2300
6464, 809, 1085, 1086, 2285
6465, 783, 2257, 2305, 2306
6466, 796, 2217, 795, 2299
6467, 1029, 2266, 1030, 2290
6468, 616, 617, 594, 2297
6469, 734, 733, 756, 2281
6470, 756, 757, 734, 2281
6471, 834, 811, 812, 2284
6472, 812, 835, 834, 2284
6473, 857, 858, 880, 2284
6474, 880, 858, 881, 2284
6475, 996, 973, 974, 2270
6476, 675, 674, 697, 2270
6477, 974, 997, 996, 2270
6478, 697, 698, 675, 2270
6479, 990, 1013, 1012, 2268
6480, 1012, 989, 990, 2268
6481, 713, 714, 691, 2268
6482, 690, 713, 691, 2268
6483, 732, 733, 710, 2280
6484, 710, 709, 732, 2280
6485, 917, 2272, 2297, 2304
6486, 783, 760, 2257, 2306
6487, 618, 595, 617, 2297
6488, 734, 2264, 735, 2289
6489, 584, 583, 606, 2286
6490, 606, 607, 584, 2286
6491, 538, 537, 560, 2286
6492, 560, 561, 538, 2286
6493, 1030, 2266, 1031, 2290
6494, 935, 934, 521, 2300
6495, 819, 1095, 1096, 2299
6496, 802, 803, 825, 2296
6497, 826, 825, 803, 2296
6498, 758, 2264, 2257, 2306
6499, 1121, 1122, 1114, 2248
6500, 1114, 1113, 1121, 2248
6501, 636, 94, 613, 1129
6502, 1104, 14, 207, 820
6503, 521, 90, 935, 1097
6504, 466, 185, 85, 798
6505, 1136, 797, 103, 912
6506, 89, 775, 498, 890
6507, 35, 80, 499, 459
6508, 57, 591, 7, 491
6509, 618, 619, 596, 2304
6510, 550, 549, 572, 2304
6511, 572, 573, 550, 2304
6512, 1112, 1096, 2267, 2299
6513, 2221, 2274, 634, 2295
6514, 935, 521, 1097, 2300
6515, 802, 1078, 1079, 2296
6516, 601, 2276, 624, 2278
6517, 705, 1133, 1125, 728
6518, 1073, 1050, 1102, 1110
6519, 1123, 1131, 682, 659
6520, 495, 683, 487, 706
6521, 797, 774, 1128, 1136
6522, 1004, 1099, 1107, 981
6523, 1005, 470, 462, 982
6524, 469, 461, 982, 959
6525, 1027, 1100, 1108, 1004
6526, 464, 472, 1005, 1028
6527, 1028, 465, 473, 1051
6528, 474, 1051, 466, 1074
6529, 492, 614, 484, 637
6530, 959, 469, 461, 936
6531, 459, 936, 467, 913
6532, 917, 2272, 916, 2297
6533, 1077, 800, 1076, 2298
6534, 581, 580, 603, 2283
6535, 603, 604, 581, 2283
6536, 575, 574, 597, 2282
6537, 597, 598, 575, 2282
6538, 528, 551, 529, 2282
6539, 552, 529, 551, 2282
6540, 535, 534, 557, 2283
6541, 557, 558, 535, 2283
6542, 542, 565, 543, 2274
6543, 566, 543, 565, 2274
6544, 1012, 2268, 1013, 2287
6545, 713, 714, 2268, 2287
6546, 1087, 1086, 1064, 2285
6547, 1086, 1063, 1064, 2285
6548, 635, 2197, 634, 2274
6549, 906, 791, 790, 2303
6550, 871, 2261, 848, 2296
6551, 796, 2254, 2217, 2299
6552, 539, 538, 561, 2275
6553, 561, 562, 539, 2275
6554, 799, 1075, 1076, 2298
6555, 634, 633, 656, 2221
6556, 631, 2207, 630, 2275
6557, 1012, 1035, 1034, 2289
6558, 1012, 1034, 1011, 2289
6559, 759, 2264, 758, 2306
6560, 1012, 2287, 1035, 2289
6561, 2251, 2260, 915, 2297
6562, 906, 792, 791, 2303
6563, 814, 2258, 1090, 2303
6564, 730, 731, 2266, 2290
6565, 933, 2221, 932, 2295
6566, 567, 544, 2245, 2300
6567, 914, 501, 915, 2260
6568, 915, 2251, 2235, 2260
6569, 623, 624, 2247, 2276
6570, 532, 531, 554, 2276
6571, 554, 555, 532, 2276
6572, 1031, 1054, 1053, 2290
6573, 1053, 1030, 1031, 2290
6574, 508, 922, 2259, 2276
6575, 1092, 1093, 2216, 2279
6576, 628, 629, 2206, 2277
6577, 1014, 2268, 1015, 2269
6578, 998, 2270, 999, 2271
6579, 863, 886, 885, 2279
6580, 885, 862, 863, 2279
6581, 536, 559, 537, 2277
6582, 559, 560, 537, 2277
6583, 1087, 1088, 2215, 2284
6584, 783, 898, 784, 2305
6585, 1120, 2220, 1128, 2254
6586, 618, 617, 2272, 2297
6587, 823, 2233, 846, 2298
6588, 139, 57, 591, 7
6589, 57, 591, 491, 614
6590, 636, 94, 161, 613
6591, 499, 913, 35, 459
6592, 80, 116, 35, 499
6593, 798, 466, 185, 1074
6594, 775, 89, 6, 890
6595, 521, 11, 935, 90
6596, 1104, 207, 1096, 820
6597, 797, 184, 103, 912
6598, 640, 641, 618, 2272
6599, 917, 940, 939, 2272
6600, 939, 916, 917, 2272
6601, 617, 640, 618, 2272
6602, 630, 2210, 629, 2286
6603, 584, 607, 2275, 2286
6604, 894, 779, 778, 2261
6605, 949, 948, 926, 2208
6606, 931, 2294, 932, 2295
6607, 875, 852, 853, 2305
6608, 853, 876, 875, 2305
6609, 780, 2199, 779, 2296
6610, 635, 2274, 2248, 2300
6611, 620, 621, 2203, 2282
6612, 627, 2209, 626, 2283
6613, 531, 2259, 554, 2276
6614, 759, 758, 2257, 2306
6615, 759, 2257, 760, 2306
6616, 794, 793, 2279, 2302
6617, 776, 775, 2198, 2262
6618, 656, 2221, 633, 2295
6619, 732, 2266, 731, 2290
6620, 789, 2252, 2255, 2284
6621, 789, 2255, 788, 2284
6622, 655, 656, 633, 2295
6623, 633, 632, 655, 2295
6624, 2199, 2261, 779, 2296
6625, 916, 2251, 915, 2297
6626, 507, 922, 921, 2259
6627, 583, 2277, 606, 2286
6628, 630, 2275, 607, 2286
6629, 789, 2284, 788, 2292
6630, 2284, 2285, 2255, 2301
6631, 783, 2257, 782, 2305
6632, 640, 662, 663, 2288
6633, 640, 639, 662, 2288
6634, 962, 961, 939, 2288
6635, 939, 961, 938, 2288
6636, 937, 915, 938, 2260
6637, 915, 937, 914, 2260
6638, 883, 2224, 860, 2303
6639, 2258, 2292, 2252, 2303
6640, 1029, 1030, 1052, 2290
6641, 1053, 1052, 1030, 2290
6642, 618, 2297, 2272, 2304
6643, 2250, 2259, 922, 2276
6644, 1092, 1069, 1070, 2302
6645, 1093, 1092, 1070, 2302
6646, 770, 793, 771, 2302
6647, 794, 771, 793, 2302
6648, 566, 565, 588, 2274
6649, 589, 566, 588, 2274
6650, 143, 617, 618, 595
6651, 144, 618, 619, 596
6652, 143, 596, 618, 144
6653, 616, 142, 594, 617
6654, 143, 617, 595, 142
6655, 615, 141, 593, 616
6656, 141, 594, 616, 142
6657, 141, 615, 593, 140
6658, 57, 139, 591, 614
6659, 139, 592, 614, 140
6660, 619, 145, 144, 597
6661, 614, 140, 592, 615
6662, 147, 621, 599, 146
6663, 120, 917, 916, 503
6664, 917, 121, 918, 504
6665, 118, 915, 914, 501
6666, 145, 619, 620, 597
6667, 121, 503, 917, 120
6668, 119, 120, 916, 502
6669, 918, 122, 504, 121
6670, 35, 116, 913, 499
6671, 150, 603, 625, 151
6672, 622, 623, 148, 600
6673, 621, 147, 599, 622
6674, 603, 625, 151, 626
6675, 147, 600, 622, 148
6676, 123, 122, 505, 919
6677, 117, 499, 913, 116
6678, 913, 117, 914, 500
6679, 914, 117, 118, 500
6680, 122, 918, 504, 919
6681, 920, 124, 506, 123
6682, 119, 915, 501, 916
6683, 915, 119, 501, 118
6684, 126, 509, 923, 922
6685, 511, 924, 925, 128
6686, 925, 512, 129, 926
6687, 921, 125, 507, 124
6688, 124, 920, 506, 921
6689, 126, 508, 922, 125
6690, 923, 127, 509, 126
6691, 924, 128, 510, 127
6692, 125, 921, 507, 922
6693, 129, 511, 925, 128
6694, 130, 512, 926, 129
6695, 923, 127, 924, 509
6696, 919, 506, 123, 920
6697, 164, 778, 893, 165
6698, 131, 130, 513, 927
6699, 777, 163, 164, 892
6700, 165, 779, 894, 166
6701, 779, 165, 894, 778
6702, 780, 166, 895, 779
6703, 780, 166, 167, 895
6704, 775, 6, 162, 890
6705, 153, 627, 605, 152
6706, 778, 164, 893, 777
6707, 891, 777, 163, 776
6708, 802, 190, 1079, 189
6709, 189, 801, 188, 1078
6710, 161, 160, 635, 613
6711, 632, 158, 610, 633
6712, 158, 632, 610, 157
6713, 159, 633, 634, 611
6714, 158, 611, 633, 159
6715, 635, 636, 161, 613
6716, 156, 609, 631, 157
6717, 157, 631, 632, 609
6718, 186, 1076, 187, 799
6719, 163, 162, 891, 776
6720, 189, 1079, 802, 1078
6721, 801, 188, 1078, 1077
6722, 1080, 803, 190, 1079
6723, 190, 191, 803, 1080
6724, 798, 186, 1075, 185
6725, 185, 798, 1074, 1075
6726, 186, 1076, 799, 1075
6727, 800, 188, 1077, 187
6728, 781, 167, 896, 780
6729, 928, 132, 514, 131
6730, 167, 781, 896, 168
6731, 153, 627, 628, 605
6732, 169, 170, 783, 898
6733, 898, 783, 169, 782
6734, 898, 784, 170, 783
6735, 784, 170, 171, 899
6736, 192, 1082, 193, 805
6737, 806, 194, 1083, 193
6738, 785, 171, 900, 784
6739, 1084, 194, 807, 195
6740, 171, 785, 900, 172
6741, 900, 786, 172, 785
6742, 196, 195, 1085, 808
6743, 809, 197, 1086, 196
6744, 187, 1076, 1077, 800
6745, 1087, 197, 810, 198
6746, 786, 172, 173, 901
6747, 902, 174, 173, 787
6748, 173, 902, 787, 786
6749, 927, 513, 131, 928
6750, 929, 133, 930, 516
6751, 806, 193, 1083, 1082
6752, 194, 1084, 807, 1083
6753, 195, 1084, 1085, 808
6754, 196, 1086, 809, 1085
6755, 931, 135, 932, 518
6756, 197, 1087, 810, 1086
6757, 934, 933, 137, 520
6758, 934, 138, 935, 521
6759, 133, 515, 929, 132
6760, 132, 928, 514, 929
6761, 136, 135, 518, 932
6762, 519, 137, 136, 933
6763, 138, 520, 934, 137
6764, 11, 521, 935, 138
6765, 518, 933, 136, 932
6766, 926, 130, 927, 513
6767, 169, 168, 897, 782
6768, 812, 199, 1089, 1088
6769, 1091, 202, 201, 814
6770, 202, 1092, 203, 815
6771, 204, 1094, 205, 817
6772, 818, 206, 1095, 205
6773, 812, 200, 1089, 199
6774, 1096, 206, 819, 207
6775, 201, 1090, 1091, 814
6776, 202, 1092, 815, 1091
6777, 204, 1094, 817, 1093
6778, 205, 1095, 818, 1094
6779, 206, 1096, 819, 1095
6780, 792, 906, 791, 178
6781, 791, 177, 906, 790
6782, 791, 177, 178, 906
6783, 178, 792, 907, 179
6784, 793, 179, 180, 908
6785, 794, 180, 908, 793
6786, 793, 179, 908, 792
6787, 909, 180, 794, 181
6788, 910, 796, 182, 795
6789, 181, 910, 795, 794
6790, 910, 182, 181, 795
6791, 911, 182, 796, 183
6792, 797, 183, 184, 912
6793, 797, 796, 183, 912
6794, 789, 175, 904, 788
6795, 175, 789, 904, 176
6796, 1093, 2279, 1092, 2302
6797, 1080, 1081, 2291, 2306
6798, 929, 930, 2249, 2275
6799, 633, 2221, 634, 2295
6800, 561, 584, 562, 2275
6801, 585, 562, 584, 2275
6802, 91, 544, 567, 2300
6803, 730, 708, 707, 2266
6804, 708, 730, 731, 2266
6805, 1029, 1006, 1007, 2266
6806, 1007, 1030, 1029, 2266
6807, 996, 1019, 1018, 2265
6808, 1018, 995, 996, 2265
6809, 697, 696, 719, 2265
6810, 719, 720, 697, 2265
6811, 1002, 980, 1003, 2263
6812, 980, 1002, 979, 2263
6813, 1035, 1058, 1057, 2264
6814, 1057, 1034, 1035, 2264
6815, 735, 758, 736, 2264
6816, 758, 759, 736, 2264
6817, 753, 752, 775, 2262
6818, 775, 776, 753, 2262
6819, 1130, 1122, 1129, 2248
6820, 1129, 1122, 1121, 2248
6821, 923, 2250, 922, 2276
6822, 787, 2285, 786, 2301
6823, 1104, 1103, 1111, 2267
6824, 1104, 1111, 1112, 2267
6825, 712, 711, 734, 2289
6826, 734, 735, 712, 2289
6827, 729, 488, 496, 2229
6828, 658, 659, 636, 2248
6829, 636, 635, 658, 2248
6830, 774, 796, 797, 2254
6831, 774, 773, 796, 2254
6832, 922, 945, 944, 2259
6833, 944, 921, 922, 2259
6834, 577, 555, 554, 2276
6835, 555, 577, 578, 2276
6836, 640, 641, 2272, 2288
6837, 939, 2272, 940, 2288
6838, 778, 2261, 2253, 2298
6839, 881, 858, 859, 2292
6840, 882, 881, 859, 2292
6841, 86, 821, 87, 2232
6842, 1123, 1124, 1116, 2293
6843, 1116, 1115, 1123, 2293
6844, 560, 559, 582, 2277
6845, 560, 582, 583, 2277
6846, 840, 862, 839, 2279
6847, 840, 863, 862, 2279
6848, 834, 835, 857, 2284
6849, 835, 858, 857, 2284
6850, 931, 954, 953, 2249
6851, 953, 930, 931, 2249
6852, 946, 924, 947, 2250
6853, 924, 946, 923, 2250
6854, 767, 766, 789, 2252
6855, 767, 789, 790, 2252
6856, 777, 778, 755, 2253
6857, 777, 755, 754, 2253
6858, 787, 788, 765, 2255
6859, 765, 764, 787, 2255
6860, 1084, 1062, 1085, 2256
6861, 1084, 1061, 1062, 2256
6862, 561, 2275, 538, 2286
6863, 176, 904, 905, 2292
6864, 902, 903, 174, 2301
6865, 797, 2254, 796, 2299
6866, 1062, 2240, 1085, 2256
6867, 849, 872, 871, 2296
6868, 871, 848, 849, 2296
6869, 635, 2248, 636, 2300
6870, 759, 782, 760, 2257
6871, 782, 783, 760, 2257
6872, 780, 758, 757, 2257
6873, 781, 758, 780, 2257
6874, 635, 634, 2248, 2274
6875, 561, 560, 583, 2286
6876, 561, 583, 584, 2286
6877, 857, 879, 856, 2301
6878, 880, 879, 857, 2301
6879, 134, 516, 517, 2294
6880, 931, 2249, 2294, 2295
6881, 1124, 1123, 1131, 2293
6882, 1131, 1132, 1124, 2293
6883, 881, 2284, 858, 2292
6884, 880, 857, 2284, 2301
6885, 552, 551, 574, 2282
6886, 557, 580, 558, 2283
6887, 581, 558, 580, 2283
6888, 552, 574, 575, 2282
6889, 777, 778, 2253, 2298
6890, 560, 537, 2277, 2286
6891, 91, 90, 544, 2300
6892, 93, 92, 590, 2300
6893, 904, 881, 882, 2292
6894, 904, 882, 905, 2292
6895, 782, 2257, 781, 2291
6896, 1131, 705, 1132, 2293
6897, 790, 791, 2252, 2303
6898, 902, 880, 903, 2301
6899, 880, 902, 879, 2301
6900, 933, 955, 932, 2221
6901, 1071, 1094, 1093, 2302
6902, 1093, 1070, 1071, 2302
6903, 794, 772, 771, 2302
6904, 795, 772, 794, 2302
6905, 931, 932, 2249, 2295
6906, 713, 712, 735, 2289
6907, 735, 736, 713, 2289
6908, 562, 540, 539, 2294
6909, 563, 540, 562, 2294
6910, 1130, 1129, 659, 2248
6911, 13, 102, 184, 103
6912, 116, 80, 35, 4
6913, 2252, 2284, 789, 2292
6914, 788, 2284, 2255, 2301
6915, 755, 732, 754, 2290
6916, 732, 731, 754, 2290
6917, 790, 2252, 2292, 2303
6918, 516, 539, 517, 2294
6919, 517, 539, 540, 2294
6920, 562, 539, 2275, 2294
6921, 1058, 1057, 2264, 2306
6922, 736, 2287, 713, 2289
6923, 658, 635, 657, 2248
6924, 634, 657, 635, 2248
6925, 112, 1099, 1100, 1004
6926, 1133, 98, 705, 1132
6927, 108, 14, 207, 1104
6928, 109, 1073, 1102, 1103
6929, 101, 774, 1136, 1135
6930, 797, 103, 102, 1136
6931, 463, 462, 39, 1005
6932, 38, 461, 982, 462
6933, 96, 1131, 1130, 659
6934, 1129, 12, 636, 94
6935, 775, 89, 498, 64
6936, 59, 660, 493, 494
6937, 498, 63, 497, 752
6938, 494, 60, 683, 495
6939, 1100, 111, 1027, 1101
6940, 185, 85, 5, 466
6941, 935, 90, 115, 1097
6942, 42, 465, 1051, 466
6943, 41, 464, 1028, 465
6944, 40, 463, 1005, 464
6945, 1097, 114, 958, 1098
6946, 492, 58, 637, 493
6947, 37, 460, 936, 461
6948, 1130, 95, 659, 1129
6949, 1131, 97, 1132, 705
6950, 460, 459, 36, 936
6951, 57, 492, 614, 491
6952, 1056, 1033, 1034, 2264
6953, 1056, 1034, 1057, 2264
6954, 735, 734, 757, 2264
6955, 735, 757, 758, 2264
6956, 1001, 978, 979, 2263
6957, 979, 1002, 1001, 2263
6958, 702, 703, 680, 2263
6959, 680, 679, 702, 2263
6960, 995, 1018, 1017, 2265
6961, 994, 995, 1017, 2265
6962, 718, 719, 696, 2265
6963, 695, 718, 696, 2265
6964, 731, 732, 709, 2266
6965, 709, 708, 731, 2266
6966, 1031, 1030, 1008, 2266
6967, 1008, 1030, 1007, 2266
6968, 682, 705, 1131, 2293
6969, 902, 174, 787, 2301
6970, 1083, 1060, 1061, 2256
6971, 1083, 1061, 1084, 2256
6972, 764, 786, 787, 2255
6973, 763, 786, 764, 2255
6974, 776, 777, 754, 2253
6975, 754, 753, 776, 2253
6976, 768, 767, 790, 2252
6977, 790, 791, 768, 2252
6978, 948, 947, 925, 2250
6979, 923, 946, 945, 2250
6980, 925, 947, 924, 2250
6981, 945, 922, 923, 2250
6982, 952, 930, 953, 2249
6983, 954, 931, 932, 2249
6984, 952, 929, 930, 2249
6985, 918, 2272, 917, 2304
6986, 663, 664, 641, 2288
6987, 641, 640, 663, 2288
6988, 1035, 1013, 1036, 2287
6989, 1012, 1013, 1035, 2287
6990, 963, 962, 940, 2288
6991, 939, 940, 962, 2288
6992, 714, 736, 737, 2287
6993, 714, 713, 736, 2287
6994, 176, 789, 904, 2292
6995, 940, 918, 941, 2272
6996, 619, 641, 642, 2272
6997, 940, 917, 918, 2272
6998, 619, 618, 641, 2272
6999, 773, 2217, 796, 2254
7000, 1014, 1013, 991, 2268
7001, 991, 1013, 990, 2268
7002, 975, 998, 997, 2270
7003, 997, 974, 975, 2270
7004, 692, 691, 714, 2268
7005, 714, 715, 692, 2268
7006, 698, 676, 675, 2270
7007, 699, 676, 698, 2270
7008, 636, 659, 1129, 2248
7009, 1135, 774, 1127, 2222
7010, 134, 931, 930, 2294
7011, 1113, 92, 93, 2300
7012, 93, 1121, 1113, 2300
7013, 1097, 90, 91, 2300
7014, 91, 1105, 1097, 2300
7015, 788, 787, 174, 2301
7016, 174, 175, 788, 2301
7017, 787, 2255, 786, 2285
7018, 826, 848, 825, 2296
7019, 826, 849, 848, 2296
7020, 176, 790, 789, 2292
7021, 176, 177, 790, 2292
7022, 916, 2235, 915, 2251
7023, 2250, 2276, 923, 2278
7024, 1121, 2248, 1113, 2300
7025, 755, 754, 2253, 2290
7026, 112, 1099, 1004, 113
7027, 1132, 97, 98, 705
7028, 728, 98, 1133, 99
7029, 98, 728, 1133, 705
7030, 1073, 110, 109, 1102
7031, 1073, 110, 1102, 1050
7032, 12, 1129, 636, 95
7033, 100, 774, 101, 1135
7034, 108, 207, 1096, 1104
7035, 1131, 96, 97, 682
7036, 95, 1130, 659, 96
7037, 1131, 96, 682, 659
7038, 797, 102, 101, 1136
7039, 797, 101, 774, 1136
7040, 982, 39, 462, 1005
7041, 959, 38, 461, 982
7042, 113, 1099, 1004, 981
7043, 111, 1100, 1027, 112
7044, 102, 184, 103, 797
7045, 660, 59, 60, 494
7046, 775, 89, 64, 6
7047, 498, 63, 752, 64
7048, 683, 61, 495, 60
7049, 64, 498, 775, 752
7050, 660, 60, 683, 494
7051, 683, 61, 706, 495
7052, 1074, 5, 466, 185
7053, 12, 636, 94, 161
7054, 660, 637, 59, 493
7055, 5, 1074, 466, 42
7056, 42, 465, 41, 1051
7057, 464, 41, 1028, 40
7058, 463, 40, 1005, 39
7059, 1051, 42, 466, 1074
7060, 41, 1028, 1051, 465
7061, 1005, 40, 464, 1028
7062, 115, 11, 90, 935
7063, 58, 59, 637, 493
7064, 38, 959, 461, 37
7065, 39, 982, 462, 38
7066, 959, 461, 37, 936
7067, 114, 1097, 958, 115
7068, 115, 935, 1097, 958
7069, 460, 37, 936, 36
7070, 97, 1131, 682, 705
7071, 1027, 112, 1100, 1004
7072, 99, 1133, 728, 751
7073, 58, 614, 492, 637
7074, 95, 659, 1129, 636
7075, 492, 57, 614, 58
7076, 459, 913, 36, 936
7077, 913, 36, 35, 459
7078, 753, 754, 731, 2290
7079, 730, 753, 731, 2290
7080, 1084, 2256, 1085, 2273
7081, 1130, 659, 1122, 2248
7082, 1085, 2273, 2256, 2285
7083, 2249, 2275, 930, 2294
7084, 1050, 1102, 1110, 2218
7085, 1058, 1080, 1057, 2306
7086, 1058, 1081, 1080, 2306
7087, 91, 92, 1105, 2300
7088, 92, 1113, 1105, 2300
7089, 567, 92, 91, 2300
7090, 759, 758, 781, 2257
7091, 759, 781, 782, 2257
7092, 497, 489, 752, 2229
7093, 1000, 1023, 1022, 2271
7094, 1022, 999, 1000, 2271
7095, 1038, 1015, 1016, 2269
7096, 1016, 1039, 1038, 2269
7097, 924, 2250, 923, 2278
7098, 778, 756, 755, 2281
7099, 561, 584, 2275, 2286
7100, 2253, 2261, 778, 2281
7101, 688, 710, 711, 2280
7102, 688, 687, 710, 2280
7103, 1106, 1098, 958, 2246
7104, 682, 681, 704, 2293
7105, 704, 705, 682, 2293
7106, 618, 2272, 619, 2304
7107, 778, 755, 2253, 2281
7108, 1066, 1067, 1089, 2258
7109, 1089, 1067, 1090, 2258
7110, 560, 2277, 583, 2286
7111, 1081, 1058, 1059, 2306
7112, 1059, 1082, 1081, 2306
7113, 1037, 1014, 1015, 2269
7114, 1038, 1037, 1015, 2269
7115, 999, 1022, 1021, 2271
7116, 1021, 998, 999, 2271
7117, 709, 710, 687, 2280
7118, 687, 686, 709, 2280
7119, 1104, 1112, 1096, 2267
7120, 1103, 1073, 1111, 2267
7121, 784, 2227, 783, 2305
7122, 1099, 1107, 981, 2246
7123, 905, 177, 176, 2292
7124, 903, 175, 174, 2301
7125, 682, 1131, 1123, 2293
7126, 1124, 1132, 705, 2293
7127, 1085, 2256, 2240, 2285
7128, 1096, 1095, 2267, 2299
7129, 787, 2255, 2285, 2301
7130, 757, 756, 2199, 2281
7131, 62, 496, 729, 2230
7132, 61, 706, 495, 2230
7133, 931, 2249, 930, 2294
7134, 788, 2255, 787, 2301
7135, 789, 790, 2252, 2292
7136, 798, 1075, 799, 2243
7137, 148, 149, 601, 2247
7138, 204, 816, 203, 2216
7139, 842, 843, 865, 2219
7140, 1119, 1127, 1120, 2220
7141, 556, 555, 578, 2204
7142, 784, 761, 783, 2227
7143, 825, 824, 802, 2244
7144, 148, 601, 600, 2247
7145, 938, 961, 960, 2236
7146, 548, 547, 570, 2200
7147, 577, 599, 600, 2205
7148, 592, 593, 570, 2201
7149, 593, 592, 615, 2201
7150, 569, 592, 570, 2201
7151, 602, 149, 150, 2202
7152, 612, 159, 160, 2197
7153, 149, 602, 601, 2202
7154, 774, 1128, 1127, 2220
7155, 599, 577, 576, 2205
7156, 579, 556, 578, 2204
7157, 608, 155, 156, 2207
7158, 608, 607, 155, 2207
7159, 729, 706, 62, 2230
7160, 811, 199, 812, 2215
7161, 611, 159, 612, 2197
7162, 61, 62, 706, 2230
7163, 489, 496, 488, 2229
7164, 948, 949, 649, 2208
7165, 650, 649, 949, 2208
7166, 145, 598, 597, 2203
7167, 607, 606, 154, 2210
7168, 603, 151, 604, 2209
7169, 153, 606, 605, 2206
7170, 585, 586, 563, 2211
7171, 606, 153, 154, 2206
7172, 622, 600, 599, 2205
7173, 585, 563, 562, 2211
7174, 1004, 1003, 981, 2212
7175, 981, 1003, 980, 2212
7176, 1127, 1134, 1135, 2222
7177, 1126, 1134, 1127, 2222
7178, 477, 485, 484, 2196
7179, 1102, 1109, 1110, 2218
7180, 816, 204, 817, 2216
7181, 796, 773, 795, 2217
7182, 866, 865, 843, 2219
7183, 1120, 1127, 1128, 2220
7184, 1101, 1109, 1102, 2218
7185, 484, 476, 477, 2196
7186, 1085, 809, 808, 2241
7187, 857, 856, 834, 2214
7188, 761, 760, 783, 2227
7189, 859, 860, 882, 2224
7190, 883, 882, 860, 2224
7191, 873, 874, 896, 2228
7192, 896, 874, 897, 2228
7193, 1033, 1011, 1034, 2238
7194, 1011, 1033, 1010, 2238
7195, 496, 489, 497, 2229
7196, 61, 496, 62, 2230
7197, 496, 61, 495, 2230
7198, 895, 779, 894, 2231
7199, 895, 894, 872, 2231
7200, 894, 871, 872, 2231
7201, 847, 846, 824, 2233
7202, 477, 478, 485, 2234
7203, 823, 824, 846, 2233
7204, 1063, 1085, 1062, 2240
7205, 485, 478, 486, 2234
7206, 799, 821, 798, 2243
7207, 937, 938, 960, 2236
7208, 809, 831, 808, 2241
7209, 832, 831, 809, 2241
7210, 822, 821, 799, 2243
7211, 801, 1078, 802, 2244
7212, 543, 566, 544, 2245
7213, 802, 824, 801, 2244
7214, 544, 566, 567, 2245
7215, 650, 2208, 949, 2277
7216, 649, 948, 2208, 2283
7217, 656, 955, 2221, 2295
7218, 932, 2221, 955, 2295
7219, 482, 490, 2232, 87
7220, 482, 2232, 490, 2262
7221, 2264, 2238, 2237, 1033
7222, 2264, 2237, 2238, 2289
7223, 1010, 2237, 2238, 1033
7224, 1010, 2238, 2237, 2289
7225, 548, 2200, 525, 547
7226, 548, 525, 2200, 2297
7227, 525, 2200, 524, 547
7228, 877, 900, 2225, 878
7229, 786, 900, 2225, 785
7230, 658, 659, 1115, 681
7231, 1115, 957, 658, 681
7232, 866, 2219, 888, 865
7233, 866, 888, 2219, 2299
7234, 888, 2219, 887, 865
7235, 888, 887, 2219, 2299
7236, 887, 2219, 864, 865
7237, 887, 864, 2219, 2299
7238, 864, 2219, 842, 865
7239, 872, 2231, 780, 895
7240, 872, 780, 2231, 2296
7241, 2274, 2245, 589, 566
7242, 2274, 589, 2245, 2300
7243, 567, 589, 2245, 566
7244, 567, 2245, 589, 2300
7245, 2233, 846, 869, 847
7246, 2233, 869, 846, 2298
7247, 870, 2233, 869, 847
7248, 870, 869, 2233, 2298
7249, 2261, 2233, 870, 847
7250, 2261, 870, 2233, 2298
7251, 2305, 1060, 2256, 2227
7252, 2305, 2256, 1060, 1083
7253, 1074, 2262, 2232, 474
7254, 798, 1074, 2232, 474
7255, 2232, 798, 86, 821
7256, 86, 798, 2232, 474
7257, 2224, 860, 837, 859
7258, 2224, 837, 860, 2303
7259, 836, 2224, 837, 859
7260, 836, 837, 2224, 2303
7261, 2228, 896, 168, 897
7262, 168, 896, 2228, 781
7263, 168, 782, 2228, 897
7264, 2228, 782, 168, 781
7265, 890, 2198, 162, 775
7266, 890, 162, 2198, 891
7267, 776, 162, 2198, 775
7268, 776, 2198, 162, 891
7269, 2271, 2263, 1001, 702
7270, 2271, 1001, 2263, 1000
7271, 2266, 707, 1005, 1006
7272, 707, 684, 1005, 1006
7273, 2266, 706, 1005, 707
7274, 684, 1005, 706, 707
7275, 684, 706, 1005, 479
7276, 2302, 773, 795, 772
7277, 2302, 795, 773, 2217
7278, 1082, 2291, 2239, 1081
7279, 2239, 805, 827, 828
7280, 686, 664, 985, 687
7281, 686, 985, 664, 2288
7282, 986, 985, 664, 687
7283, 986, 664, 985, 2288
7284, 639, 617, 2235, 640
7285, 726, 1002, 725, 1025
7286, 726, 725, 1002, 2263
7287, 1024, 725, 1002, 1025
7288, 1024, 1002, 725, 2263
7289, 742, 1018, 1040, 1041
7290, 742, 1040, 1018, 2265
7291, 726, 2263, 704, 703
7292, 704, 2263, 726, 1002
7293, 2265, 742, 720, 1018
7294, 2265, 720, 742, 719
7295, 681, 2263, 658, 680
7296, 681, 658, 2263, 979
7297, 657, 658, 2263, 680
7298, 657, 2263, 658, 979
7299, 707, 1007, 685, 984
7300, 707, 685, 1007, 708
7301, 2268, 669, 991, 692
7302, 2268, 991, 669, 968
7303, 969, 991, 669, 692
7304, 969, 669, 991, 968
7305, 976, 2270, 953, 676
7306, 976, 953, 2270, 975
7307, 952, 953, 2270, 676
7308, 952, 2270, 953, 975
7309, 691, 967, 968, 668
7310, 968, 967, 691, 2268
7311, 968, 669, 691, 668
7312, 691, 669, 968, 2268
7313, 2268, 967, 989, 990
7314, 2268, 989, 967, 691
7315, 1020, 720, 698, 721
7316, 2293, 1004, 704, 1116
7317, 2293, 704, 1004, 1003
7318, 704, 1004, 727, 1116
7319, 704, 727, 1004, 1003
7320, 727, 1004, 1026, 1116
7321, 727, 1026, 1004, 1003
7322, 2212, 980, 1115, 2293
7323, 685, 662, 2288, 663
7324, 685, 686, 2288, 985
7325, 2288, 686, 685, 663
7326, 2260, 2201, 614, 569
7327, 2260, 614, 2201, 615
7328, 592, 614, 2201, 569
7329, 592, 2201, 614, 615
7330, 2241, 2273, 2285, 832
7331, 2285, 2273, 2241, 1085
7332, 2285, 809, 2241, 832
7333, 2241, 809, 2285, 1085
7334, 799, 2243, 2298, 822
7335, 2298, 2243, 799, 1075
7336, 2297, 2260, 2201, 616
7337, 2297, 593, 2201, 570
7338, 2201, 593, 2297, 616
7339, 2273, 2241, 830, 831
7340, 2273, 830, 2241, 1084
7341, 808, 830, 2241, 831
7342, 808, 2241, 830, 1084
7343, 544, 2245, 521, 543
7344, 544, 521, 2245, 2300
7345, 2245, 934, 2274, 2300
7346, 520, 934, 2245, 2300
7347, 521, 2245, 520, 543
7348, 521, 520, 2245, 2300
7349, 2267, 2302, 773, 2217
7350, 2235, 2260, 616, 639
7351, 616, 2260, 2235, 2251
7352, 616, 617, 2235, 639
7353, 2235, 617, 616, 2251
7354, 2292, 836, 858, 859
7355, 2292, 858, 836, 2213
7356, 2225, 2273, 784, 877
7357, 784, 2273, 2225, 785
7358, 784, 900, 2225, 877
7359, 2225, 900, 784, 785
7360, 2200, 2297, 2201, 570
7361, 2201, 2297, 2200, 2260
7362, 2200, 2201, 569, 570
7363, 569, 2201, 2200, 2260
7364, 2200, 569, 547, 570
7365, 2225, 2273, 2301, 786
7366, 2301, 2273, 2225, 878
7367, 2225, 2301, 901, 786
7368, 901, 2301, 2225, 878
7369, 2225, 901, 900, 786
7370, 900, 901, 2225, 878
7371, 632, 2211, 2295, 586
7372, 632, 2295, 2211, 2294
7373, 563, 2295, 2211, 586
7374, 563, 2211, 2295, 2294
7375, 1016, 717, 2226, 2265
7376, 2226, 717, 1016, 2269
7377, 1016, 2226, 993, 2265
7378, 993, 2226, 1016, 2269
7379, 2305, 851, 829, 2291
7380, 2305, 829, 851, 852
7381, 1108, 2218, 1101, 1027
7382, 1101, 2218, 1108, 1109
7383, 2218, 1110, 1117, 1109
7384, 1108, 1116, 2218, 1027
7385, 2218, 1116, 1108, 1109
7386, 1116, 1117, 2218, 1027
7387, 2218, 1117, 1116, 1109
7388, 2229, 481, 489, 752
7389, 2229, 489, 481, 488
7390, 729, 2229, 480, 488
7391, 480, 2229, 481, 488
7392, 2267, 1111, 1072, 1073
7393, 2267, 1072, 1111, 1119
7394, 1118, 1111, 1072, 1119
7395, 705, 1125, 727, 728
7396, 705, 727, 1125, 1117
7397, 1118, 727, 1125, 728
7398, 1118, 1125, 727, 1117
7399, 1122, 2248, 658, 1114
7400, 658, 2248, 1122, 659
7401, 658, 1115, 1122, 1114
7402, 1122, 1115, 658, 659
7403, 470, 477, 983, 478
7404, 983, 477, 470, 982
7405, 983, 1005, 470, 478
7406, 470, 1005, 983, 982
7407, 1118, 1126, 728, 1125
7408, 1133, 728, 1126, 1125
7409, 1133, 1126, 728, 751
7410, 2266, 1005, 480, 1028
7411, 472, 1005, 480, 479
7412, 472, 480, 1005, 1028
7413, 481, 473, 1028, 480
7414, 1028, 473, 481, 1051
7415, 1119, 1127, 2222, 1126
7416, 2222, 1127, 1119, 774
7417, 1119, 2222, 1118, 1126
7418, 1118, 2222, 1119, 774
7419, 483, 476, 2260, 475
7420, 2260, 476, 483, 614
7421, 2260, 545, 483, 475
7422, 1114, 1106, 2246, 1107
7423, 2246, 1106, 1114, 958
7424, 1114, 2246, 1115, 1107
7425, 1117, 2218, 1118, 1110
7426, 2244, 2233, 825, 824
7427, 2244, 825, 2233, 2261
7428, 825, 2233, 847, 824
7429, 825, 847, 2233, 2261
7430, 1077, 2244, 2298, 2261
7431, 2298, 2244, 2233, 2261
7432, 788, 2301, 904, 2292
7433, 2262, 890, 868, 867
7434, 2278, 602, 2283, 625
7435, 1073, 1110, 1072, 1050
7436, 1072, 1110, 1049, 1050
7437, 1072, 1049, 1110, 1118
7438, 1049, 1110, 2218, 1050
7439, 1049, 2218, 1110, 1118
7440, 1027, 1049, 2218, 1050
7441, 1123, 659, 681, 1115
7442, 681, 659, 1123, 682
7443, 681, 2293, 1123, 1115
7444, 1123, 2293, 681, 682
7445, 958, 980, 2246, 981
7446, 1107, 1004, 2212, 1115
7447, 1107, 2212, 1004, 981
7448, 980, 1107, 2212, 1115
7449, 980, 2212, 1107, 981
7450, 2246, 1107, 980, 1115
7451, 2246, 980, 1107, 981
7452, 467, 936, 2260, 913
7453, 2260, 936, 467, 475
7454, 467, 545, 2260, 475
7455, 556, 2204, 533, 555
7456, 556, 533, 2204, 2278
7457, 533, 2204, 532, 555
7458, 533, 532, 2204, 2278
7459, 919, 941, 2282, 942
7460, 919, 2282, 941, 2272
7461, 643, 2282, 941, 942
7462, 643, 941, 2282, 2272
7463, 2283, 556, 534, 557
7464, 2283, 534, 556, 2278
7465, 2269, 1016, 718, 717
7466, 2265, 1016, 718, 1017
7467, 2265, 718, 1016, 717
7468, 2248, 958, 658, 1114
7469, 2248, 658, 958, 957
7470, 2267, 774, 1072, 1119
7471, 2267, 1072, 774, 773
7472, 1118, 1072, 774, 1119
7473, 1118, 774, 1072, 773
7474, 2304, 596, 2282, 619
7475, 2304, 2282, 596, 573
7476, 752, 2262, 1051, 481
7477, 880, 2301, 881, 903
7478, 880, 881, 2301, 2284
7479, 904, 881, 2301, 903
7480, 904, 2301, 881, 2284
7481, 503, 2297, 2304, 917
7482, 2304, 2297, 503, 526
7483, 612, 2274, 2300, 589
7484, 2300, 2274, 612, 635
7485, 2300, 590, 612, 589
7486, 587, 2274, 610, 588
7487, 587, 610, 2274, 2295
7488, 611, 610, 2274, 588
7489, 608, 2275, 2211, 585
7490, 2211, 2275, 608, 631
7491, 2211, 586, 608, 585
7492, 608, 586, 2211, 631
7493, 2300, 635, 613, 636
7494, 2305, 898, 782, 783
7495, 2305, 782, 898, 875
7496, 784, 876, 898, 899
7497, 898, 876, 784, 2305
7498, 2279, 816, 838, 839
7499, 2279, 838, 816, 1092
7500, 2279, 817, 1094, 1093
7501, 2279, 1094, 817, 840
7502, 2277, 605, 2283, 582
7503, 2277, 2283, 605, 628
7504, 2273, 763, 2285, 786
7505, 2273, 2285, 763, 2256
7506, 2285, 1063, 1085, 1086
7507, 2285, 1085, 1063, 2240
7508, 1051, 481, 474, 473
7509, 1051, 474, 481, 2262
7510, 613, 2300, 93, 590
7511, 2277, 926, 536, 535
7512, 513, 536, 926, 535
7513, 1119, 2220, 774, 1127
7514, 534, 2278, 511, 533
7515, 510, 511, 2278, 533
7516, 510, 2278, 511, 924
7517, 1114, 2300, 958, 1106
7518, 958, 2300, 1114, 2248
7519, 2299, 911, 889, 888
7520, 2299, 889, 911, 796
7521, 2298, 892, 870, 869
7522, 2298, 870, 892, 777
7523, 934, 2300, 957, 2248
7524, 934, 957, 2300, 935
7525, 958, 957, 2300, 2248
7526, 958, 2300, 957, 935
7527, 2295, 954, 932, 2249
7528, 2295, 932, 954, 955
7529, 631, 2211, 2294, 632
7530, 631, 2294, 2211, 2275
7531, 1077, 2298, 1054, 2253
7532, 1077, 1054, 2298, 1076
7533, 1053, 1054, 2298, 2253
7534, 1053, 2298, 1054, 1076
7535, 481, 752, 482, 489
7536, 481, 482, 752, 2262
7537, 490, 482, 752, 489
7538, 490, 752, 482, 2262
7539, 2260, 500, 913, 914
7540, 2260, 913, 500, 523
7541, 2296, 781, 2257, 2291
7542, 2296, 2257, 781, 780
7543, 2293, 1004, 1115, 2212
7544, 2293, 1115, 1004, 1116
7545, 514, 2286, 2277, 537
7546, 2277, 2286, 514, 928
7547, 2286, 515, 2275, 538
7548, 2286, 2275, 515, 929
7549, 2274, 520, 2245, 543
7550, 2274, 2245, 520, 934
7551, 534, 925, 512, 511
7552, 926, 535, 925, 512
7553, 926, 925, 535, 2283
7554, 534, 925, 535, 512
7555, 534, 535, 925, 2283
7556, 2305, 806, 2291, 829
7557, 2305, 2291, 806, 1082
7558, 828, 2291, 806, 829
7559, 2259, 507, 529, 921
7560, 2259, 529, 507, 530
7561, 2277, 513, 926, 927
7562, 2277, 926, 513, 536
7563, 908, 2279, 792, 885
7564, 792, 2279, 908, 793
7565, 2198, 776, 2298, 891
7566, 2198, 2298, 776, 2262
7567, 868, 2198, 2298, 891
7568, 868, 2298, 2198, 2262
7569, 890, 2198, 868, 891
7570, 890, 868, 2198, 2262
7571, 2273, 877, 855, 854
7572, 2303, 814, 836, 837
7573, 2303, 836, 814, 2258
7574, 625, 2283, 2250, 626
7575, 2250, 2283, 625, 2278
7576, 2305, 1084, 830, 2273
7577, 2304, 527, 919, 2282
7578, 2295, 933, 541, 932
7579, 2295, 541, 933, 2274
7580, 2255, 766, 788, 765
7581, 93, 2300, 94, 1121
7582, 93, 94, 2300, 613
7583, 1129, 94, 2300, 1121
7584, 1129, 2300, 94, 613
7585, 2291, 828, 850, 851
7586, 756, 2199, 778, 779
7587, 756, 778, 2199, 2281
7588, 2261, 778, 2199, 779
7589, 2261, 2199, 778, 2281
7590, 2282, 622, 644, 621
7591, 2282, 644, 622, 2259
7592, 1088, 1066, 2252, 1065
7593, 2283, 628, 2208, 627
7594, 2283, 2208, 628, 2277
7595, 650, 2208, 628, 627
7596, 650, 628, 2208, 2277
7597, 2289, 736, 2264, 735
7598, 2289, 2264, 736, 2287
7599, 619, 2282, 2272, 620
7600, 2272, 2282, 619, 2304
7601, 2289, 1035, 2264, 2287
7602, 2289, 2264, 1035, 1034
7603, 1089, 813, 1090, 200
7604, 1089, 1090, 813, 2258
7605, 201, 1090, 813, 200
7606, 2284, 1089, 2252, 1088
7607, 1066, 2252, 1089, 1088
7608, 1066, 1089, 2252, 2258
7609, 2300, 1129, 2248, 636
7610, 2300, 2248, 1129, 1121
7611, 2298, 776, 2253, 777
7612, 2298, 2253, 776, 2262
7613, 2262, 498, 752, 775
7614, 2262, 752, 498, 490
7615, 516, 930, 134, 133
7616, 516, 134, 930, 2294
7617, 518, 2294, 135, 517
7618, 518, 135, 2294, 931
7619, 134, 135, 2294, 517
7620, 134, 2294, 135, 931
7621, 2301, 175, 904, 903
7622, 2301, 904, 175, 788
7623, 2303, 1090, 1068, 2258
7624, 2303, 1068, 1090, 1091
7625, 2263, 681, 703, 680
7626, 704, 2263, 681, 703
7627, 704, 681, 2263, 2293
7628, 2254, 1128, 774, 2220
7629, 2254, 774, 1128, 797
7630, 1094, 1072, 2302, 1071
7631, 773, 2302, 1072, 1071
7632, 773, 1072, 2302, 2267
7633, 2299, 1095, 2302, 1094
7634, 2299, 2302, 1095, 2267
7635, 1072, 2302, 1095, 1094
7636, 1072, 1095, 2302, 2267
7637, 2255, 789, 766, 2252
7638, 2255, 766, 789, 788
7639, 109, 1096, 1103, 108
7640, 1104, 1103, 1096, 108
7641, 1104, 1096, 1103, 2267
7642, 1073, 1096, 1103, 109
7643, 1073, 1103, 1096, 2267
7644, 2300, 1097, 958, 1105
7645, 2300, 958, 1097, 935
7646, 484, 2196, 492, 637
7647, 492, 2196, 484, 485
7648, 2196, 493, 492, 637
7649, 492, 493, 2196, 485
7650, 2196, 660, 493, 637
7651, 493, 660, 2196, 485
7652, 2196, 637, 638, 660
7653, 2196, 638, 637, 476
7654, 661, 2196, 638, 660
7655, 1099, 2246, 113, 1098
7656, 113, 2246, 1099, 981
7657, 2246, 114, 113, 1098
7658, 113, 114, 2246, 981
7659, 2246, 958, 114, 1098
7660, 114, 958, 2246, 981
7661, 639, 2236, 661, 662
7662, 639, 661, 2236, 937
7663, 960, 661, 2236, 662
7664, 960, 2236, 661, 937
7665, 2234, 485, 493, 486
7666, 2234, 493, 485, 660
7667, 494, 2234, 493, 486
7668, 494, 493, 2234, 660
7669, 683, 2234, 494, 486
7670, 683, 494, 2234, 660
7671, 1126, 2222, 1133, 1134
7672, 1126, 1133, 2222, 751
7673, 2222, 1135, 100, 1134
7674, 99, 2222, 100, 1134
7675, 99, 100, 2222, 751
7676, 1133, 2222, 99, 1134
7677, 1133, 99, 2222, 751
7678, 2222, 774, 100, 1135
7679, 2222, 100, 774, 751
7680, 2230, 487, 706, 495
7681, 488, 487, 2230, 495
7682, 496, 2230, 488, 729
7683, 496, 488, 2230, 495
7684, 2218, 1027, 111, 1101
7685, 2218, 111, 1027, 1050
7686, 110, 2218, 111, 1101
7687, 110, 111, 2218, 1050
7688, 1102, 2218, 110, 1101
7689, 1102, 110, 2218, 1050
7690, 2234, 660, 661, 683
7691, 684, 2234, 661, 683
7692, 2229, 496, 62, 497
7693, 2229, 62, 496, 729
7694, 63, 2229, 62, 497
7695, 63, 62, 2229, 729
7696, 752, 2229, 63, 497
7697, 752, 63, 2229, 729
7698, 2239, 805, 804, 827
7699, 804, 1080, 2239, 827
7700, 933, 2221, 956, 955
7701, 933, 956, 2221, 2274
7702, 956, 2221, 657, 955
7703, 956, 657, 2221, 2274
7704, 657, 2221, 656, 955
7705, 2221, 634, 657, 656
7706, 2221, 657, 634, 2274
7707, 578, 2204, 601, 579
7708, 578, 601, 2204, 2278
7709, 601, 2204, 602, 579
7710, 601, 602, 2204, 2278
7711, 2213, 2258, 813, 836
7712, 835, 2213, 813, 836
7713, 835, 813, 2213, 2284
7714, 858, 2213, 835, 836
7715, 858, 835, 2213, 2284
7716, 2214, 2284, 811, 834
7717, 2214, 811, 2284, 2285
7718, 833, 2214, 811, 834
7719, 833, 811, 2214, 2285
7720, 856, 2214, 833, 834
7721, 856, 833, 2214, 2285
7722, 780, 2199, 2257, 757
7723, 780, 2257, 2199, 2296
7724, 2281, 2257, 2199, 757
7725, 2281, 2199, 2257, 2296
7726, 2297, 570, 548, 571
7727, 2297, 548, 570, 2200
7728, 823, 2233, 801, 824
7729, 823, 801, 2233, 2298
7730, 864, 2219, 841, 842
7731, 864, 841, 2219, 2299
7732, 2219, 843, 820, 842
7733, 2219, 820, 843, 2299
7734, 819, 2219, 820, 842
7735, 819, 820, 2219, 2299
7736, 841, 2219, 819, 842
7737, 841, 819, 2219, 2299
7738, 2224, 2292, 905, 882
7739, 905, 2292, 2224, 2303
7740, 905, 883, 2224, 882
7741, 2224, 883, 905, 2303
7742, 1024, 2263, 702, 1001
7743, 702, 2263, 1024, 725
7744, 1024, 702, 2271, 1001
7745, 2271, 702, 1024, 725
7746, 1024, 2271, 1023, 1001
7747, 1023, 2271, 1024, 725
7748, 2265, 1040, 718, 741
7749, 2265, 718, 1040, 1017
7750, 2269, 718, 1039, 741
7751, 718, 1040, 1039, 741
7752, 718, 1039, 1040, 1017
7753, 679, 955, 657, 656
7754, 679, 657, 955, 2263
7755, 568, 483, 2260, 545
7756, 2260, 483, 568, 614
7757, 2260, 546, 568, 545
7758, 522, 467, 2260, 913
7759, 2260, 467, 522, 545
7760, 1019, 720, 698, 1020
7761, 698, 720, 1019, 2265
7762, 698, 997, 1019, 1020
7763, 1019, 997, 698, 2265
7764, 2265, 697, 997, 698
7765, 2265, 997, 697, 996
7766, 2270, 997, 697, 698
7767, 2270, 697, 997, 996
7768, 2303, 1068, 2302, 792
7769, 2302, 1068, 2303, 1091
7770, 2302, 2279, 2303, 792
7771, 2303, 2279, 2302, 1091
7772, 1110, 1111, 1072, 1118
7773, 1110, 1072, 1111, 1073
7774, 2230, 480, 488, 729
7775, 2230, 488, 480, 487
7776, 706, 479, 2230, 729
7777, 706, 2230, 479, 487
7778, 479, 480, 2230, 729
7779, 479, 2230, 480, 487
7780, 479, 486, 684, 683
7781, 2234, 684, 486, 683
7782, 485, 2196, 661, 660
7783, 661, 2196, 485, 477
7784, 661, 2234, 485, 660
7785, 485, 2234, 661, 477
7786, 2290, 2262, 752, 753
7787, 977, 679, 2223, 678
7788, 977, 2223, 679, 2263
7789, 701, 2223, 679, 678
7790, 701, 679, 2223, 2263
7791, 2267, 2220, 774, 1119
7792, 2267, 774, 2220, 2254
7793, 2291, 827, 828, 2239
7794, 2291, 828, 827, 850
7795, 535, 2283, 536, 2277
7796, 535, 536, 2283, 558
7797, 559, 536, 2283, 2277
7798, 559, 2283, 536, 558
7799, 2304, 504, 919, 527
7800, 2304, 919, 504, 918
7801, 2305, 807, 1084, 1083
7802, 2305, 1084, 807, 830
7803, 1094, 841, 1095, 818
7804, 1094, 1095, 841, 2299
7805, 819, 1095, 841, 818
7806, 819, 841, 1095, 2299
7807, 2206, 2210, 154, 606
7808, 154, 2210, 2206, 629
7809, 2277, 2286, 2210, 606
7810, 2210, 2286, 2277, 629
7811, 2206, 2277, 2210, 606
7812, 2210, 2277, 2206, 629
7813, 2303, 907, 2279, 884
7814, 2303, 2279, 907, 792
7815, 885, 2279, 907, 884
7816, 885, 907, 2279, 792
7817, 2273, 878, 877, 2225
7818, 2273, 877, 878, 855
7819, 814, 1090, 813, 201
7820, 814, 813, 1090, 2258
7821, 2232, 87, 88, 844
7822, 88, 87, 2232, 490
7823, 2232, 88, 867, 844
7824, 867, 88, 2232, 490
7825, 2232, 867, 2262, 844
7826, 2262, 867, 2232, 490
7827, 2200, 2260, 915, 524
7828, 915, 2260, 2200, 2297
7829, 525, 2200, 502, 524
7830, 502, 2200, 525, 2297
7831, 2200, 916, 502, 524
7832, 502, 916, 2200, 2297
7833, 2200, 915, 916, 524
7834, 916, 915, 2200, 2297
7835, 2200, 524, 546, 2260
7836, 546, 524, 2200, 547
7837, 546, 569, 2200, 2260
7838, 2200, 569, 546, 547
7839, 2232, 798, 2243, 1074
7840, 2243, 798, 2232, 821
7841, 2243, 2262, 2232, 1074
7842, 2232, 2262, 2243, 821
7843, 2260, 569, 568, 546
7844, 2260, 568, 569, 614
7845, 836, 2292, 2224, 859
7846, 836, 2303, 2292, 2258
7847, 2292, 2303, 836, 2224
7848, 1005, 486, 479, 478
7849, 479, 486, 1005, 684
7850, 983, 477, 2234, 478
7851, 1006, 2234, 486, 478
7852, 486, 2234, 1006, 684
7853, 1005, 1006, 486, 478
7854, 486, 1006, 1005, 684
7855, 1006, 983, 2234, 478
7856, 2234, 983, 1006, 684
7857, 706, 1005, 729, 2266
7858, 706, 729, 1005, 479
7859, 480, 729, 1005, 2266
7860, 480, 1005, 729, 479
7861, 2290, 729, 2266, 730
7862, 2290, 2266, 1028, 1029
7863, 480, 2266, 2290, 729
7864, 480, 2290, 2266, 1028
7865, 617, 2272, 2235, 640
7866, 617, 2251, 2272, 2297
7867, 2272, 2251, 617, 2235
7868, 973, 696, 972, 673
7869, 973, 972, 696, 995
7870, 2265, 972, 696, 673
7871, 2265, 696, 972, 995
7872, 1007, 2280, 685, 984
7873, 1007, 708, 2280, 2266
7874, 2280, 708, 1007, 685
7875, 2271, 2270, 1021, 998
7876, 722, 2270, 2271, 699
7877, 722, 2271, 2270, 1021
7878, 2270, 973, 652, 675
7879, 2270, 951, 973, 974
7880, 973, 951, 2270, 652
7881, 685, 984, 962, 662
7882, 962, 984, 685, 985
7883, 962, 2288, 685, 662
7884, 685, 2288, 962, 985
7885, 2302, 1046, 1068, 1069
7886, 2302, 769, 1046, 770
7887, 1046, 769, 2302, 1068
7888, 2290, 729, 2229, 480
7889, 2229, 729, 2290, 752
7890, 773, 2222, 750, 1118
7891, 773, 750, 2222, 751
7892, 774, 2222, 773, 1118
7893, 774, 773, 2222, 751
7894, 1126, 728, 750, 1118
7895, 1126, 750, 728, 751
7896, 2222, 1126, 750, 1118
7897, 2222, 750, 1126, 751
7898, 1114, 2246, 658, 1115
7899, 1114, 658, 2246, 958
7900, 658, 2246, 957, 1115
7901, 658, 957, 2246, 958
7902, 957, 2246, 980, 1115
7903, 957, 980, 2246, 958
7904, 2218, 1049, 1026, 1118
7905, 1026, 1049, 2218, 1027
7906, 1026, 1117, 2218, 1118
7907, 2218, 1117, 1026, 1027
7908, 2278, 532, 555, 2276
7909, 555, 532, 2278, 2204
7910, 555, 578, 2278, 2276
7911, 2278, 578, 555, 2204
7912, 1016, 718, 1039, 2269
7913, 1016, 1039, 718, 1017
7914, 1051, 752, 2229, 2290
7915, 2229, 752, 1051, 481
7916, 2229, 480, 1028, 2290
7917, 1028, 480, 2229, 481
7918, 1051, 2229, 1028, 2290
7919, 1028, 2229, 1051, 481
7920, 1051, 2290, 2262, 752
7921, 1051, 2262, 2290, 1052
7922, 610, 2274, 633, 611
7923, 610, 633, 2274, 2295
7924, 634, 633, 2274, 611
7925, 634, 2274, 633, 2295
7926, 613, 2300, 612, 635
7927, 612, 2300, 613, 590
7928, 2278, 511, 925, 534
7929, 2278, 925, 511, 924
7930, 520, 542, 933, 519
7931, 520, 933, 542, 2274
7932, 541, 933, 542, 519
7933, 541, 542, 933, 2274
7934, 506, 528, 919, 505
7935, 506, 919, 528, 2282
7936, 527, 919, 528, 505
7937, 527, 528, 919, 2282
7938, 2291, 806, 2239, 828
7939, 2291, 2239, 806, 1082
7940, 805, 2239, 806, 828
7941, 805, 806, 2239, 1082
7942, 886, 908, 794, 909
7943, 794, 908, 886, 2279
7944, 794, 887, 886, 909
7945, 886, 887, 794, 2279
7946, 2213, 2252, 2292, 2284
7947, 2213, 2292, 2252, 2258
7948, 813, 1089, 2213, 2284
7949, 813, 2213, 1089, 2258
7950, 1089, 2252, 2213, 2284
7951, 1089, 2213, 2252, 2258
7952, 2292, 790, 905, 177
7953, 2292, 905, 790, 2303
7954, 906, 905, 790, 177
7955, 906, 790, 905, 2303
7956, 477, 2196, 937, 661
7957, 477, 937, 2196, 476
7958, 638, 937, 2196, 661
7959, 638, 2196, 937, 476
7960, 983, 2234, 960, 684
7961, 983, 960, 2234, 477
7962, 661, 960, 2234, 684
7963, 661, 2234, 960, 477
7964, 2239, 1082, 192, 805
7965, 192, 1082, 2239, 1081
7966, 192, 804, 2239, 805
7967, 1080, 2239, 191, 804
7968, 1080, 191, 2239, 1081
7969, 192, 191, 2239, 804
7970, 192, 2239, 191, 1081
7971, 556, 579, 2278, 2204
7972, 556, 2278, 579, 2283
7973, 602, 2278, 579, 2204
7974, 602, 579, 2278, 2283
7975, 2244, 801, 2233, 824
7976, 2298, 801, 2244, 1077
7977, 2298, 2244, 801, 2233
*ELEMENT, type=C3D4, ELSET=Volume2
7978, 570, 1209, 1208, 2327
7979, 1250, 1366, 1251, 2331
7980, 1346, 1253, 1345, 2357
7981, 1442, 1447, 1443, 2334
7982, 447, 452, 451, 2307
7983, 2368, 2374, 2366, 2398
7984, 1374, 2317, 1375, 2381
7985, 523, 2357, 1276, 2378
7986, 449, 2308, 450, 2401
7987, 1280, 2360, 2310, 2382
7988, 1345, 2357, 1253, 2380
7989, 2366, 2375, 2368, 2398
7990, 1234, 1349, 2382, 2412
7991, 1168, 2368, 2317, 2381
7992, 523, 1276, 1277, 2378
7993, 1348, 2382, 1349, 2412
7994, 2307, 2405, 2373, 2418
7995, 1276, 1253, 1254, 2357
7996, 122, 504, 121, 2328
7997, 133, 134, 516, 2354
7998, 119, 120, 502, 2355
7999, 2324, 2381, 2361, 2395
8000, 1203, 2399, 588, 2400
8001, 1276, 2357, 523, 2373
8002, 1402, 1172, 2384, 2390
8003, 577, 2366, 2368, 2374
8004, 2317, 2368, 1375, 2381
8005, 531, 532, 554, 2374
8006, 555, 554, 532, 2374
8007, 587, 2365, 588, 2399
8008, 577, 2366, 1192, 2368
8009, 1268, 2364, 2341, 2396
8010, 1234, 2382, 1257, 2412
8011, 588, 2399, 2365, 2400
8012, 1260, 1352, 2368, 2381
8013, 1402, 1172, 1403, 2384
8014, 1353, 1261, 1352, 2368
8015, 452, 2373, 2307, 2405
8016, 440, 444, 439, 2401
8017, 444, 440, 445, 2401
8018, 454, 449, 450, 2401
8019, 450, 455, 454, 2401
8020, 1282, 2361, 2324, 2381
8021, 445, 2308, 444, 2401
8022, 1189, 2381, 2376, 2395
8023, 2331, 2392, 2367, 2397
8024, 2324, 1281, 2383, 2395
8025, 1282, 2324, 1259, 2381
8026, 2323, 1261, 2375, 2398
8027, 1210, 572, 573, 2382
8028, 1402, 1403, 1380, 2384
8029, 1352, 1261, 1260, 2368
8030, 1290, 2386, 2396, 2408
8031, 577, 578, 1192, 2366
8032, 2373, 2401, 2307, 2418
8033, 1190, 2381, 1189, 2395
8034, 1256, 1257, 2382, 2412
8035, 449, 1183, 2308, 2401
8036, 1169, 2368, 2366, 2375
8037, 573, 2382, 2389, 2404
8038, 221, 1414, 1413, 2312
8039, 1251, 1274, 2331, 2397
8040, 1441, 1437, 1436, 2333
8041, 1442, 1437, 1441, 2333
8042, 449, 444, 445, 2308
8043, 450, 449, 445, 2308
8044, 1291, 1290, 2386, 2396
8045, 1197, 581, 582, 2384
8046, 578, 1193, 1192, 2366
8047, 1346, 1345, 1368, 2357
8048, 1368, 1369, 1346, 2357
8049, 1398, 1375, 2317, 2368
8050, 1168, 2317, 1167, 2381
8051, 1274, 2392, 2331, 2397
8052, 1414, 221, 222, 2312
8053, 1257, 2389, 2382, 2404
8054, 2385, 2396, 2341, 2407
8055, 1260, 2381, 2368, 2414
8056, 1366, 1439, 2397, 2403
8057, 1234, 1348, 1349, 2412
8058, 1261, 2368, 2398, 2414
8059, 1170, 1169, 2366, 2375
8060, 1190, 1189, 1212, 2395
8061, 1213, 1190, 1212, 2395
8062, 560, 537, 2396, 2408
8063, 583, 1220, 582, 2408
8064, 1386, 1363, 2379, 2399
8065, 560, 2396, 2371, 2408
8066, 1356, 1379, 1357, 2410
8067, 1187, 1210, 1188, 2382
8068, 578, 1215, 577, 1192
8069, 1197, 582, 581, 1219
8070, 1261, 1352, 1238, 1353
8071, 1346, 1253, 1230, 1345
8072, 1149, 1403, 1402, 1172
8073, 2364, 2341, 2396, 2407
8074, 1260, 1352, 2381, 2402
8075, 1169, 1399, 2368, 2375
8076, 1137, 440, 439, 2401
8077, 455, 1206, 454, 2401
8078, 451, 2307, 452, 2373
8079, 1363, 1248, 1362, 2379
8080, 1356, 2390, 1379, 2410
8081, 1164, 1165, 2311, 2404
8082, 1264, 2390, 1356, 2410
8083, 1359, 1244, 1358, 2408
8084, 1268, 1291, 2386, 2396
8085, 583, 1221, 1220, 2408
8086, 2310, 2382, 2360, 2388
8087, 457, 452, 453, 2373
8088, 458, 457, 453, 2373
8089, 2341, 1269, 2385, 2407
8090, 1268, 1291, 1290, 2386
8091, 1290, 1267, 1268, 2386
8092, 1352, 1375, 2368, 2381
8093, 444, 2308, 1160, 2401
8094, 2358, 2365, 1364, 2399
8095, 1197, 582, 1220, 2408
8096, 1193, 1215, 578, 1192
8097, 1215, 1193, 578, 1216
8098, 1299, 1276, 1277, 523
8099, 1277, 1300, 1299, 523
8100, 582, 1197, 1220, 1219
8101, 1225, 1203, 588, 1226
8102, 1356, 1242, 1241, 1264
8103, 1352, 1261, 1238, 1260
8104, 1260, 1237, 1238, 1352
8105, 1269, 1247, 1362, 1246
8106, 1253, 1231, 1346, 1230
8107, 2359, 2388, 2382, 2406
8108, 1359, 1358, 2393, 2408
8109, 1366, 1439, 1251, 2397
8110, 2358, 1364, 2387, 2399
8111, 1362, 1248, 1247, 2379
8112, 241, 1157, 242, 2337
8113, 1158, 242, 1157, 2337
8114, 237, 236, 1152, 2346
8115, 1153, 237, 1152, 2346
8116, 235, 234, 1150, 2350
8117, 1151, 235, 1150, 2350
8118, 574, 575, 1212, 2395
8119, 208, 15, 1159, 2336
8120, 243, 1159, 15, 2336
8121, 31, 1229, 32, 2315
8122, 2371, 2396, 2386, 2408
8123, 1197, 1220, 1198, 2408
8124, 1198, 1220, 1221, 2408
8125, 520, 138, 521, 2353
8126, 499, 117, 500, 2309
8127, 128, 511, 510, 2345
8128, 1260, 2368, 1261, 2414
8129, 1230, 2316, 1345, 2372
8130, 1226, 1203, 588, 2400
8131, 1165, 1395, 2311, 2404
8132, 2375, 2398, 2366, 2413
8133, 550, 573, 2382, 2389
8134, 582, 2408, 1197, 2411
8135, 1368, 2357, 1345, 2380
8136, 1260, 1237, 1352, 2402
8137, 582, 1197, 2384, 2411
8138, 1290, 1267, 2386, 2408
8139, 1201, 2379, 2370, 2385
8140, 1213, 2381, 1190, 2395
8141, 1243, 1357, 1358, 2384
8142, 1360, 1244, 1359, 2386
8143, 1213, 1212, 575, 2395
8144, 580, 581, 1218, 2410
8145, 2371, 2386, 1198, 2408
8146, 1256, 1234, 1257, 2412
8147, 1256, 1233, 1234, 2412
8148, 1213, 575, 2381, 2395
8149, 1183, 2373, 2380, 2401
8150, 561, 2371, 560, 2396
8151, 523, 2357, 546, 2373
8152, 2370, 2379, 1179, 2399
8153, 1247, 1248, 1270, 2379
8154, 1270, 1248, 1271, 2379
8155, 1172, 2390, 1195, 2410
8156, 1363, 1362, 1385, 2379
8157, 1385, 1386, 1363, 2379
8158, 587, 2379, 2365, 2399
8159, 1259, 2381, 2324, 2402
8160, 444, 1160, 439, 2401
8161, 454, 1183, 449, 2401
8162, 1198, 2393, 1197, 2408
8163, 560, 537, 538, 2396
8164, 538, 561, 560, 2396
8165, 1201, 2385, 2370, 2415
8166, 571, 2359, 2327, 2377
8167, 571, 2327, 570, 2378
8168, 1243, 1242, 1357, 2384
8169, 1245, 1244, 1360, 2386
8170, 1186, 1185, 2327, 2377
8171, 1218, 581, 1219, 2410
8172, 128, 127, 1310, 2345
8173, 117, 116, 1299, 2309
8174, 137, 1320, 138, 2353
8175, 1257, 2383, 2389, 2404
8176, 1266, 1244, 1267, 2408
8177, 555, 2366, 2398, 2413
8178, 135, 134, 1317, 2339
8179, 119, 118, 1301, 2356
8180, 2359, 2382, 1187, 2406
8181, 1296, 2340, 1295, 2358
8182, 571, 2377, 2327, 2378
8183, 1243, 1265, 1242, 2384
8184, 1266, 1265, 1243, 2384
8185, 1267, 1244, 1245, 2386
8186, 1245, 1268, 1267, 2386
8187, 1359, 2393, 2386, 2408
8188, 1202, 1179, 2379, 2399
8189, 1268, 2386, 2364, 2396
8190, 1351, 2381, 1352, 2402
8191, 2341, 2385, 1292, 2396
8192, 2331, 2358, 1365, 2367
8193, 1184, 2373, 2357, 2380
8194, 1259, 1260, 2381, 2402
8195, 569, 2357, 1207, 2373
8196, 2364, 2396, 2386, 2407
8197, 555, 2366, 2374, 2398
8198, 1295, 2358, 2340, 2365
8199, 1265, 2384, 1266, 2411
8200, 1184, 1183, 2373, 2380
8201, 1198, 2386, 2393, 2408
8202, 1193, 578, 1216, 2366
8203, 1452, 2335, 1453, 2369
8204, 2327, 2359, 1186, 2377
8205, 2359, 2377, 2388, 2406
8206, 1314, 537, 1313, 2396
8207, 2393, 2408, 1358, 2411
8208, 1184, 1183, 1206, 2373
8209, 1206, 1207, 1184, 2373
8210, 550, 572, 549, 2382
8211, 550, 573, 572, 2382
8212, 1207, 2357, 1184, 2373
8213, 1232, 1255, 2377, 2412
8214, 1214, 575, 576, 2381
8215, 1211, 573, 574, 2376
8216, 1266, 1358, 2408, 2411
8217, 1260, 1283, 2381, 2414
8218, 1369, 2357, 1392, 2377
8219, 2367, 2369, 1204, 2416
8220, 1345, 1253, 2372, 2380
8221, 2358, 2367, 2331, 2392
8222, 1266, 1243, 1358, 2384
8223, 1163, 1140, 1162, 2377
8224, 1139, 1162, 1140, 2377
8225, 1444, 2397, 1439, 2403
8226, 451, 2307, 2373, 2401
8227, 1314, 1313, 1291, 2396
8228, 1313, 1290, 1291, 2396
8229, 1154, 2347, 1155, 2362
8230, 1213, 575, 1214, 2381
8231, 1211, 574, 1212, 2376
8232, 1183, 1206, 2373, 2401
8233, 2384, 2393, 1358, 2411
8234, 1237, 1260, 1259, 2402
8235, 1259, 1236, 1237, 2402
8236, 1292, 2341, 1269, 2385
8237, 453, 2373, 452, 2405
8238, 441, 2372, 2314, 2418
8239, 2374, 2398, 2368, 2414
8240, 1232, 1254, 1231, 2377
8241, 1232, 1255, 1254, 2377
8242, 2338, 2385, 563, 2415
8243, 1272, 1271, 1249, 2365
8244, 586, 587, 1224, 2379
8245, 1423, 2322, 1424, 2419
8246, 2348, 2387, 1410, 2399
8247, 572, 1210, 2359, 2382
8248, 1169, 1192, 2366, 2368
8249, 1266, 2384, 1358, 2411
8250, 442, 2314, 76, 2418
8251, 550, 2382, 2360, 2389
8252, 1283, 2361, 2381, 2414
8253, 439, 1390, 440, 1137
8254, 1440, 1251, 1343, 1439
8255, 455, 591, 454, 1206
8256, 1217, 1195, 1194, 2390
8257, 1218, 1195, 1217, 2390
8258, 1257, 1280, 2382, 2389
8259, 1280, 2360, 2382, 2389
8260, 1186, 2377, 2359, 2406
8261, 1179, 2370, 1178, 2379
8262, 1349, 2382, 1372, 2404
8263, 1163, 1140, 2377, 2406
8264, 456, 2373, 455, 2401
8265, 1224, 587, 1225, 2379
8266, 583, 560, 2371, 2408
8267, 568, 2373, 1206, 2401
8268, 1178, 2370, 1201, 2379
8269, 2365, 2379, 1271, 2399
8270, 1353, 1352, 1375, 2368
8271, 1375, 1376, 1353, 2368
8272, 440, 2372, 441, 2401
8273, 455, 568, 1206, 2401
8274, 1137, 1390, 440, 2401
8275, 1187, 2382, 1188, 2404
8276, 1282, 1259, 1260, 2381
8277, 1260, 1283, 1282, 2381
8278, 1181, 2367, 1204, 2416
8279, 579, 2390, 2366, 2391
8280, 1204, 2369, 2367, 2400
8281, 516, 2354, 517, 2385
8282, 550, 549, 2360, 2382
8283, 1283, 2361, 1282, 2381
8284, 1187, 2359, 1210, 2382
8285, 1349, 1348, 1371, 2382
8286, 1349, 1371, 1372, 2382
8287, 1365, 2331, 1250, 2358
8288, 1179, 1178, 1201, 2379
8289, 1201, 1202, 1179, 2379
8290, 442, 441, 2314, 2418
8291, 1186, 2359, 1187, 2406
8292, 2340, 2365, 2358, 2400
8293, 2332, 2367, 1159, 2409
8294, 555, 2398, 532, 2413
8295, 509, 532, 2330, 2398
8296, 1204, 2367, 2387, 2400
8297, 1202, 1201, 1224, 2379
8298, 1224, 1225, 1202, 2379
8299, 518, 517, 2339, 2379
8300, 502, 501, 2356, 2378
8301, 1366, 2397, 2367, 2403
8302, 1265, 2410, 2384, 2411
8303, 1188, 1211, 1189, 2376
8304, 1211, 1212, 1189, 2376
8305, 556, 2366, 555, 2413
8306, 1166, 2376, 1189, 2381
8307, 1253, 2373, 2372, 2380
8308, 1409, 1386, 2370, 2399
8309, 1453, 2335, 567, 2369
8310, 1166, 2363, 2376, 2381
8311, 1311, 2343, 1310, 2410
8312, 1374, 1352, 1351, 2381
8313, 1352, 1374, 1375, 2381
8314, 1191, 1190, 1213, 2381
8315, 1213, 1214, 1191, 2381
8316, 2348, 1180, 2387, 2399
8317, 558, 581, 2410, 2411
8318, 544, 2352, 1454, 2394
8319, 574, 2376, 573, 2389
8320, 1149, 1402, 2349, 2419
8321, 1387, 2387, 1364, 2399
8322, 1411, 2332, 2367, 2387
8323, 1451, 2369, 1452, 2416
8324, 1269, 2341, 1268, 2364
8325, 1144, 1167, 1397, 2363
8326, 558, 559, 581, 2411
8327, 581, 559, 582, 2411
8328, 2341, 2364, 1269, 2407
8329, 509, 2330, 1308, 2398
8330, 2347, 2370, 2362, 2407
8331, 1179, 1180, 2348, 2399
8332, 2366, 2390, 1194, 2419
8333, 1181, 1204, 2367, 2387
8334, 1445, 1444, 1449, 2394
8335, 1445, 1449, 1450, 2394
8336, 1138, 2312, 1137, 2380
8337, 1279, 1256, 1257, 2382
8338, 1257, 1280, 1279, 2382
8339, 553, 575, 552, 2381
8340, 576, 575, 553, 2381
8341, 552, 2361, 2381, 2395
8342, 553, 2381, 2361, 2414
8343, 1367, 2314, 441, 2372
8344, 1317, 2339, 1316, 2379
8345, 1300, 1301, 2356, 2378
8346, 1273, 2358, 2331, 2392
8347, 556, 2391, 2366, 2413
8348, 1392, 1393, 1370, 2377
8349, 1370, 1369, 1392, 2377
8350, 556, 579, 2366, 2391
8351, 1156, 1409, 2370, 2399
8352, 1353, 2368, 1376, 2375
8353, 1377, 2413, 2366, 2419
8354, 499, 457, 458, 2373
8355, 455, 456, 545, 2373
8356, 1172, 2390, 1402, 2419
8357, 1346, 1369, 1347, 2377
8358, 1347, 1369, 1370, 2377
8359, 439, 79, 1413, 2313
8360, 441, 446, 445, 2401
8361, 445, 440, 441, 2401
8362, 455, 450, 451, 2401
8363, 451, 456, 455, 2401
8364, 1395, 1417, 1141, 1394
8365, 1395, 1417, 1418, 1141
8366, 1416, 1139, 1393, 1415
8367, 1398, 1420, 1144, 1397
8368, 1425, 1403, 1149, 1426
8369, 1421, 1420, 1144, 1398
8370, 1403, 1425, 1149, 1402
8371, 572, 595, 1210, 573
8372, 596, 1210, 595, 573
8373, 1410, 1432, 1156, 1409
8374, 1432, 1410, 1156, 1433
8375, 573, 596, 1211, 574
8376, 571, 593, 1209, 594
8377, 596, 597, 1211, 574
8378, 593, 571, 1209, 570
8379, 569, 591, 1207, 592
8380, 575, 597, 574, 1212
8381, 1349, 1234, 1326, 1348
8382, 575, 597, 1212, 598
8383, 1323, 1345, 1230, 1322
8384, 1234, 1326, 1327, 1349
8385, 1345, 1323, 1230, 1346
8386, 1231, 1323, 1324, 1346
8387, 600, 578, 1215, 577
8388, 578, 600, 1215, 601
8389, 598, 576, 1214, 575
8390, 576, 598, 1214, 599
8391, 602, 580, 603, 1218
8392, 603, 580, 581, 1218
8393, 604, 581, 582, 1219
8394, 1238, 1352, 1330, 1353
8395, 1333, 1355, 1240, 1332
8396, 1355, 1333, 1240, 1356
8397, 604, 582, 605, 1219
8398, 605, 582, 583, 1220
8399, 1242, 1356, 1334, 1357
8400, 606, 605, 583, 1220
8401, 1319, 519, 542, 520
8402, 542, 1319, 520, 543
8403, 610, 588, 1225, 587
8404, 587, 609, 1224, 610
8405, 588, 610, 1225, 611
8406, 609, 587, 1224, 586
8407, 501, 523, 500, 1300
8408, 1314, 514, 537, 515
8409, 1335, 1357, 1243, 1334
8410, 1357, 1335, 1243, 1358
8411, 1337, 1359, 1244, 1336
8412, 1359, 1337, 1244, 1360
8413, 1358, 1359, 1336, 1244
8414, 1339, 1361, 1246, 1338
8415, 1361, 1339, 1246, 1362
8416, 1362, 1340, 1339, 1248
8417, 1340, 1362, 1363, 1248
8418, 1363, 1341, 1340, 1249
8419, 1341, 1363, 1364, 1249
8420, 1365, 1343, 1342, 1250
8421, 1365, 1366, 1343, 1250
8422, 1257, 1234, 1235, 2383
8423, 1257, 1235, 1258, 2383
8424, 502, 2355, 503, 2388
8425, 590, 2335, 1452, 2369
8426, 2347, 2362, 1154, 2407
8427, 1362, 1361, 1384, 2407
8428, 1385, 1362, 1384, 2407
8429, 2340, 565, 2365, 2400
8430, 1389, 1438, 1439, 2403
8431, 451, 452, 456, 2373
8432, 457, 456, 452, 2373
8433, 579, 580, 2390, 2391
8434, 1377, 2375, 2366, 2413
8435, 1316, 2354, 1315, 2385
8436, 1355, 2390, 2413, 2419
8437, 1444, 2394, 1445, 2397
8438, 441, 440, 1367, 2372
8439, 1298, 1299, 2309, 2373
8440, 1138, 1414, 2312, 2380
8441, 1409, 2348, 1410, 2399
8442, 1246, 2364, 1361, 2407
8443, 1252, 2372, 1253, 2373
8444, 1142, 1418, 1141, 1395
8445, 1144, 1145, 1421, 1398
8446, 1323, 1230, 1346, 1231
8447, 596, 1211, 1210, 573
8448, 1212, 1211, 597, 574
8449, 570, 1209, 593, 1208
8450, 598, 1213, 1212, 575
8451, 598, 1214, 1213, 575
8452, 601, 1215, 578, 1216
8453, 1356, 1333, 1240, 1241
8454, 1319, 519, 1318, 542
8455, 1220, 605, 582, 1219
8456, 1357, 1334, 1242, 1243
8457, 1221, 606, 583, 1220
8458, 514, 1314, 537, 1313
8459, 1225, 1224, 610, 587
8460, 588, 1225, 1226, 611
8461, 500, 1299, 1300, 523
8462, 1244, 1360, 1337, 1245
8463, 1362, 1339, 1246, 1247
8464, 1247, 1362, 1339, 1248
8465, 1248, 1363, 1340, 1249
8466, 1250, 1366, 1343, 1251
8467, 1315, 2354, 516, 2385
8468, 553, 552, 2361, 2381
8469, 1316, 2339, 517, 2379
8470, 1300, 2356, 501, 2378
8471, 542, 2340, 565, 2365
8472, 562, 2338, 563, 2415
8473, 1317, 518, 2339, 2379
8474, 502, 2356, 1301, 2378
8475, 1449, 2394, 1444, 2397
8476, 1390, 2372, 440, 2401
8477, 1366, 2331, 1365, 2367
8478, 1230, 1345, 1253, 2372
8479, 1452, 1448, 1447, 2369
8480, 1453, 1448, 1452, 2369
8481, 455, 2373, 568, 2401
8482, 1451, 613, 1452, 2369
8483, 1284, 2323, 1285, 2398
8484, 1443, 1444, 1439, 2403
8485, 1443, 1439, 1438, 2403
8486, 1425, 1149, 1402, 2349
8487, 1423, 1147, 1400, 2320
8488, 76, 2314, 1344, 2418
8489, 1169, 1192, 1170, 2366
8490, 1192, 1193, 1170, 2366
8491, 1276, 523, 1299, 2373
8492, 2344, 2410, 1311, 2411
8493, 441, 1367, 77, 2314
8494, 1137, 439, 1160, 2401
8495, 1206, 1183, 454, 2401
8496, 2372, 2373, 1252, 2418
8497, 1166, 1189, 1167, 2381
8498, 1189, 1190, 1167, 2381
8499, 512, 2344, 535, 2410
8500, 1455, 2352, 521, 2394
8501, 587, 564, 565, 2365
8502, 565, 588, 587, 2365
8503, 556, 578, 555, 2366
8504, 556, 579, 578, 2366
8505, 1156, 2370, 1179, 2399
8506, 1261, 1353, 1238, 2375
8507, 547, 570, 2357, 2378
8508, 1274, 1445, 2394, 2397
8509, 569, 546, 547, 2357
8510, 547, 570, 569, 2357
8511, 1369, 1368, 1391, 2357
8512, 1391, 1392, 1369, 2357
8513, 564, 2365, 587, 2379
8514, 1349, 1372, 2383, 2404
8515, 446, 2372, 441, 2418
8516, 1159, 2403, 2333, 2409
8517, 1281, 2389, 2383, 2395
8518, 1386, 1385, 1408, 2370
8519, 1408, 1409, 1386, 2370
8520, 1172, 1402, 1149, 2419
8521, 1273, 2331, 1274, 2392
8522, 505, 504, 2328, 2389
8523, 555, 532, 533, 2413
8524, 533, 556, 555, 2413
8525, 1426, 2350, 1427, 2384
8526, 1428, 2346, 1429, 2386
8527, 1385, 1384, 2370, 2407
8528, 1350, 1349, 1372, 2383
8529, 1372, 1373, 1350, 2383
8530, 2376, 2389, 2383, 2404
8531, 1203, 2387, 2399, 2400
8532, 1166, 1167, 2363, 2381
8533, 2381, 2383, 2376, 2395
8534, 517, 2354, 1316, 2385
8535, 512, 1311, 2344, 2410
8536, 555, 2374, 532, 2398
8537, 1269, 2364, 1246, 2407
8538, 1355, 1354, 1377, 2413
8539, 1433, 2337, 1434, 2387
8540, 510, 532, 509, 2413
8541, 532, 510, 533, 2413
8542, 536, 535, 2344, 2411
8543, 8, 1413, 79, 2313
8544, 1187, 2382, 1164, 2406
8545, 53, 221, 8, 2313
8546, 1275, 1252, 1253, 2373
8547, 1276, 1275, 1253, 2373
8548, 1254, 2377, 1255, 2378
8549, 2358, 2392, 2340, 2400
8550, 1331, 1354, 1332, 2413
8551, 1332, 1354, 1355, 2413
8552, 1142, 1418, 1395, 2318
8553, 1399, 1146, 1422, 2320
8554, 1345, 1230, 1322, 2316
8555, 1430, 1429, 1153, 2407
8556, 1177, 2347, 1154, 2407
8557, 2324, 2383, 1258, 2402
8558, 534, 2343, 535, 2410
8559, 1397, 2317, 1374, 2381
8560, 1275, 2373, 2405, 2418
8561, 1448, 1453, 2394, 2397
8562, 1309, 510, 509, 2413
8563, 1301, 1302, 2355, 2388
8564, 2333, 2403, 1182, 2416
8565, 552, 2381, 575, 2395
8566, 1391, 1414, 1392, 2357
8567, 1415, 1392, 1414, 2357
8568, 1430, 1407, 1429, 2407
8569, 1406, 1429, 1407, 2407
8570, 1413, 8, 221, 2313
8571, 2376, 2389, 574, 2395
8572, 1186, 2327, 1209, 2359
8573, 546, 2357, 569, 2373
8574, 532, 2374, 2330, 2398
8575, 565, 588, 2365, 2400
8576, 1331, 1332, 1239, 2413
8577, 2330, 2374, 531, 2398
8578, 1137, 439, 1390, 1413
8579, 455, 591, 1206, 568
8580, 1366, 1343, 1251, 1439
8581, 1203, 2387, 1180, 2399
8582, 1304, 1281, 1282, 2395
8583, 1304, 1282, 1305, 2395
8584, 1153, 1154, 1430, 2407
8585, 1443, 2397, 1444, 2403
8586, 2367, 2369, 2392, 2400
8587, 1301, 2355, 502, 2388
8588, 1156, 1409, 1432, 2370
8589, 517, 135, 518, 2339
8590, 501, 119, 502, 2356
8591, 1162, 2357, 1185, 2377
8592, 601, 578, 579, 2366
8593, 579, 602, 601, 2366
8594, 549, 2360, 2382, 2388
8595, 1281, 1258, 2324, 2383
8596, 1164, 2382, 2404, 2406
8597, 1448, 2369, 1453, 2397
8598, 1309, 509, 1308, 2413
8599, 1371, 2382, 1348, 2412
8600, 1370, 2377, 1393, 2406
8601, 535, 2410, 2344, 2411
8602, 1229, 2315, 443, 2418
8603, 1275, 1252, 2373, 2418
8604, 441, 2372, 446, 2401
8605, 1176, 1153, 2386, 2407
8606, 551, 574, 2389, 2395
8607, 2364, 2386, 1383, 2407
8608, 1415, 1414, 1138, 2357
8609, 2367, 2403, 1159, 2409
8610, 1332, 1240, 1239, 2413
8611, 1137, 2380, 1390, 2401
8612, 1261, 1238, 1239, 2375
8613, 1194, 2390, 1195, 2419
8614, 1376, 1375, 1398, 2368
8615, 1398, 1399, 1376, 2368
8616, 451, 2373, 456, 2401
8617, 1419, 1396, 2318, 2363
8618, 2382, 2388, 1279, 2412
8619, 1377, 1400, 2366, 2375
8620, 1371, 2326, 2406, 2412
8621, 1451, 1452, 1447, 2416
8622, 1447, 1446, 1451, 2416
8623, 566, 2340, 2392, 2400
8624, 1401, 2349, 1402, 2419
8625, 1163, 2377, 1186, 2406
8626, 1354, 2375, 1377, 2413
8627, 1164, 1163, 1186, 2406
8628, 1186, 1187, 1164, 2406
8629, 1165, 1188, 2376, 2404
8630, 1164, 2382, 1187, 2404
8631, 1163, 1162, 1185, 2377
8632, 1185, 1186, 1163, 2377
8633, 1166, 1165, 2376, 2404
8634, 1377, 2366, 1400, 2419
8635, 1273, 1250, 2331, 2358
8636, 1449, 1448, 1453, 2394
8637, 1453, 1454, 1449, 2394
8638, 1419, 2318, 1143, 2363
8639, 1360, 1383, 2364, 2386
8640, 601, 602, 1217, 2366
8641, 1399, 1376, 2368, 2375
8642, 1451, 613, 2369, 2416
8643, 1138, 1139, 1415, 2357
8644, 1181, 1182, 2367, 2416
8645, 2367, 2392, 2387, 2400
8646, 1303, 1304, 2328, 2389
8647, 586, 563, 2379, 2385
8648, 503, 2355, 1302, 2388
8649, 2367, 1182, 2403, 2416
8650, 1191, 2368, 1168, 2381
8651, 1256, 2382, 1279, 2412
8652, 1268, 2341, 1291, 2396
8653, 1151, 2350, 1150, 2384
8654, 1153, 2346, 1152, 2386
8655, 1281, 1304, 2389, 2395
8656, 1278, 2388, 2377, 2412
8657, 138, 520, 137, 2353
8658, 117, 499, 116, 2309
8659, 128, 510, 127, 2345
8660, 1274, 2394, 2392, 2397
8661, 1158, 2337, 1157, 2387
8662, 1182, 2333, 1159, 2403
8663, 1156, 2348, 1409, 2399
8664, 1358, 2384, 1381, 2393
8665, 1382, 2386, 1359, 2393
8666, 1303, 2328, 504, 2389
8667, 1453, 567, 1454, 2394
8668, 1176, 2386, 2371, 2407
8669, 1217, 1216, 601, 2366
8670, 1365, 2358, 1364, 2387
8671, 1371, 2406, 2382, 2412
8672, 1151, 1427, 2350, 2384
8673, 1153, 1429, 2346, 2386
8674, 1224, 609, 586, 2415
8675, 1153, 1176, 1154, 2407
8676, 1177, 1154, 1176, 2407
8677, 1445, 1450, 1297, 2394
8678, 1434, 2337, 1158, 2387
8679, 1364, 1363, 1386, 2399
8680, 1386, 1387, 1364, 2399
8681, 1374, 2381, 1351, 2402
8682, 1321, 2372, 2316, 2418
8683, 1188, 1166, 1165, 2376
8684, 1189, 1166, 1188, 2376
8685, 1451, 1228, 613, 2416
8686, 582, 559, 2408, 2411
8687, 576, 577, 2368, 2414
8688, 1258, 2383, 1235, 2402
8689, 1282, 2361, 1305, 2395
8690, 2372, 2401, 2373, 2418
8691, 1308, 2330, 1307, 2398
8692, 512, 2343, 1311, 2410
8693, 1263, 2390, 2391, 2413
8694, 535, 2343, 512, 2410
8695, 1302, 119, 1301, 2355
8696, 1303, 1304, 121, 2328
8697, 1315, 1316, 133, 2354
8698, 2367, 2358, 2387, 2392
8699, 92, 567, 1453, 2335
8700, 1263, 2390, 1264, 2391
8701, 2366, 2391, 2390, 2413
8702, 522, 456, 457, 2373
8703, 1270, 2379, 1293, 2385
8704, 583, 560, 561, 2371
8705, 561, 584, 583, 2371
8706, 532, 531, 2330, 2374
8707, 2369, 2394, 1453, 2397
8708, 446, 2401, 2372, 2418
8709, 505, 2328, 1304, 2389
8710, 533, 2391, 556, 2413
8711, 1451, 1446, 1228, 2416
8712, 1426, 1150, 2350, 2384
8713, 1152, 2346, 1428, 2386
8714, 1181, 1182, 1159, 2367
8715, 1157, 2348, 1180, 2387
8716, 1409, 1408, 1431, 2370
8717, 1409, 1431, 1432, 2370
8718, 522, 457, 499, 2373
8719, 455, 545, 568, 2373
8720, 499, 458, 1298, 2373
8721, 1201, 2370, 1200, 2415
8722, 1157, 2337, 1433, 2387
8723, 1183, 1160, 2308, 2401
8724, 1447, 2369, 1448, 2416
8725, 1182, 1159, 2367, 2403
8726, 2387, 2392, 2358, 2400
8727, 1431, 1155, 1432, 2370
8728, 1371, 1348, 2326, 2412
8729, 1378, 1377, 1400, 2419
8730, 1400, 1401, 1378, 2419
8731, 1285, 1308, 2398, 2413
8732, 1400, 2366, 1423, 2419
8733, 1321, 2316, 1229, 2418
8734, 2386, 2396, 2371, 2407
8735, 1278, 2377, 1255, 2412
8736, 1448, 2394, 1449, 2397
8737, 1137, 1160, 2380, 2401
8738, 1452, 2369, 1447, 2416
8739, 2333, 2416, 1182, 2417
8740, 1367, 440, 1390, 2372
8741, 2359, 2377, 571, 2388
8742, 1240, 1332, 1355, 2413
8743, 442, 447, 446, 2418
8744, 446, 441, 442, 2418
8745, 540, 517, 518, 2379
8746, 518, 541, 540, 2379
8747, 502, 525, 524, 2378
8748, 502, 524, 501, 2378
8749, 608, 609, 1224, 2415
8750, 561, 2342, 2371, 2396
8751, 1389, 1439, 1366, 2403
8752, 580, 557, 558, 2410
8753, 558, 581, 580, 2410
8754, 1159, 2333, 1436, 2409
8755, 1305, 506, 505, 2395
8756, 1156, 1432, 1155, 2370
8757, 75, 443, 442, 2418
8758, 582, 559, 560, 2408
8759, 560, 583, 582, 2408
8760, 566, 2340, 543, 2392
8761, 586, 563, 2385, 2415
8762, 1159, 1436, 2336, 2409
8763, 548, 571, 2377, 2388
8764, 1372, 1395, 1373, 2404
8765, 1373, 1395, 1396, 2404
8766, 1391, 2357, 1368, 2380
8767, 1452, 613, 590, 2369
8768, 1261, 2398, 1284, 2414
8769, 1390, 2380, 2372, 2401
8770, 2385, 2407, 2370, 2415
8771, 1167, 1190, 1168, 2381
8772, 1191, 1168, 1190, 2381
8773, 1224, 1223, 608, 2415
8774, 1312, 2344, 1311, 2411
8775, 1202, 1180, 1179, 2399
8776, 1202, 1203, 1180, 2399
8777, 1177, 1176, 2371, 2407
8778, 505, 1304, 1305, 2395
8779, 2369, 2397, 1448, 2416
8780, 1365, 2367, 2358, 2387
8781, 2314, 2372, 1344, 2418
8782, 544, 91, 1454, 2352
8783, 1214, 1192, 1191, 2368
8784, 1257, 2383, 1258, 2389
8785, 608, 585, 586, 2415
8786, 608, 586, 609, 2415
8787, 1316, 1293, 2379, 2385
8788, 1402, 2390, 1379, 2419
8789, 1442, 2403, 2333, 2416
8790, 1287, 1310, 2391, 2410
8791, 571, 1209, 2327, 2359
8792, 1427, 2351, 1428, 2393
8793, 2334, 2397, 1443, 2403
8794, 510, 2345, 511, 2391
8795, 1204, 1227, 2369, 2400
8796, 1359, 1358, 1381, 2393
8797, 1381, 1382, 1359, 2393
8798, 521, 2392, 2353, 2394
8799, 556, 557, 579, 2391
8800, 579, 557, 580, 2391
8801, 1269, 1270, 1292, 2385
8802, 1270, 1293, 1292, 2385
8803, 2342, 2371, 2396, 2415
8804, 1195, 2390, 1172, 2419
8805, 1204, 2369, 1205, 2416
8806, 607, 1222, 1221, 2371
8807, 1177, 2407, 2371, 2415
8808, 1261, 2323, 1284, 2398
8809, 1178, 1179, 1156, 2370
8810, 1156, 1155, 1178, 2370
8811, 1265, 1287, 1264, 2410
8812, 1288, 1287, 1265, 2410
8813, 1424, 1401, 1423, 2419
8814, 1401, 1400, 1423, 2419
8815, 1365, 1388, 2367, 2387
8816, 2334, 2403, 1442, 2416
8817, 1161, 1160, 1183, 2380
8818, 1161, 1183, 1184, 2380
8819, 1223, 1201, 1200, 2415
8820, 1223, 1224, 1201, 2415
8821, 499, 1298, 2309, 2373
8822, 521, 2353, 1320, 2394
8823, 1205, 2416, 1446, 2417
8824, 2363, 2381, 1374, 2402
8825, 1147, 1423, 1400, 2366
8826, 601, 1216, 578, 2366
8827, 1271, 1293, 1270, 2379
8828, 1271, 1294, 1293, 2379
8829, 1277, 1254, 1255, 2378
8830, 1255, 1278, 1277, 2378
8831, 1137, 1160, 1138, 2380
8832, 1138, 1160, 1161, 2380
8833, 1278, 2378, 2377, 2388
8834, 539, 516, 2385, 2396
8835, 2307, 447, 2405, 2418
8836, 2366, 2413, 2390, 2419
8837, 1294, 1317, 1316, 2379
8838, 1316, 1293, 1294, 2379
8839, 1278, 1301, 1300, 2378
8840, 1300, 1277, 1278, 2378
8841, 1453, 2369, 567, 2394
8842, 549, 526, 2360, 2388
8843, 1383, 2386, 1406, 2407
8844, 563, 2338, 540, 2385
8845, 1183, 2380, 1160, 2401
8846, 1156, 1179, 2348, 2399
8847, 1315, 2385, 516, 2396
8848, 548, 2377, 2378, 2388
8849, 1311, 1310, 1288, 2410
8850, 1287, 1288, 1310, 2410
8851, 573, 550, 551, 2389
8852, 551, 574, 573, 2389
8853, 2382, 2406, 2388, 2412
8854, 1358, 1357, 1380, 2384
8855, 1380, 1381, 1358, 2384
8856, 1360, 1359, 1382, 2386
8857, 1360, 1382, 1383, 2386
8858, 586, 563, 564, 2379
8859, 586, 564, 587, 2379
8860, 548, 571, 570, 2378
8861, 547, 548, 570, 2378
8862, 1410, 2387, 1387, 2399
8863, 548, 2377, 571, 2378
8864, 1152, 2351, 1151, 2393
8865, 1278, 1301, 2378, 2388
8866, 1430, 2362, 1407, 2407
8867, 1309, 1310, 2345, 2391
8868, 1174, 2384, 1197, 2393
8869, 1175, 1198, 2386, 2393
8870, 1397, 1374, 2363, 2381
8871, 1365, 1364, 1387, 2387
8872, 1387, 1388, 1365, 2387
8873, 1164, 1187, 1165, 2404
8874, 1165, 1187, 1188, 2404
8875, 1442, 2416, 2333, 2417
8876, 1350, 2383, 1373, 2402
8877, 76, 77, 1344, 2314
8878, 1344, 77, 1367, 2314
8879, 1368, 1345, 2372, 2380
8880, 1283, 1260, 1261, 2414
8881, 1284, 1283, 1261, 2414
8882, 1181, 1204, 1182, 2416
8883, 1204, 1205, 1182, 2416
8884, 2334, 2416, 1442, 2417
8885, 1230, 1253, 1252, 2372
8886, 561, 562, 2342, 2396
8887, 539, 516, 517, 2385
8888, 517, 540, 539, 2385
8889, 1204, 1227, 1205, 2369
8890, 1228, 1205, 1227, 2369
8891, 534, 557, 2391, 2410
8892, 612, 613, 1227, 2369
8893, 1430, 1154, 2362, 2407
8894, 1439, 1389, 217, 1438
8895, 1440, 1343, 216, 1439
8896, 1367, 441, 77, 440
8897, 78, 439, 1390, 440
8898, 1255, 2377, 1278, 2378
8899, 1149, 2349, 1148, 2419
8900, 563, 585, 562, 2415
8901, 586, 585, 563, 2415
8902, 1306, 1307, 2329, 2414
8903, 1455, 1454, 2352, 2394
8904, 527, 550, 2360, 2389
8905, 1288, 2410, 1265, 2411
8906, 1279, 2388, 1278, 2412
8907, 552, 529, 2361, 2395
8908, 458, 453, 33, 2405
8909, 1298, 1275, 1276, 2373
8910, 1276, 1299, 1298, 2373
8911, 1151, 2351, 1427, 2393
8912, 2377, 2388, 2406, 2412
8913, 511, 2345, 1310, 2391
8914, 584, 561, 2342, 2371
8915, 576, 553, 554, 2414
8916, 576, 554, 577, 2414
8917, 1200, 1177, 2371, 2415
8918, 442, 441, 76, 2314
8919, 1454, 567, 544, 2394
8920, 448, 443, 31, 2315
8921, 1420, 1144, 1397, 2363
8922, 1360, 1337, 1245, 2364
8923, 1338, 1361, 1246, 2364
8924, 572, 1210, 595, 2359
8925, 594, 1209, 571, 2359
8926, 1436, 208, 1159, 2336
8927, 443, 1229, 31, 2315
8928, 506, 1305, 2361, 2395
8929, 613, 1228, 1227, 2369
8930, 1204, 2387, 1203, 2400
8931, 1228, 2369, 613, 2416
8932, 607, 608, 1222, 2415
8933, 1271, 2365, 1294, 2379
8934, 1257, 1258, 1280, 2389
8935, 1281, 1280, 1258, 2389
8936, 2397, 2403, 2334, 2416
8937, 1161, 2357, 1138, 2380
8938, 1173, 1196, 1174, 2384
8939, 1197, 1174, 1196, 2384
8940, 1161, 1184, 2357, 2380
8941, 243, 15, 220, 2336
8942, 1455, 213, 1450, 2394
8943, 1181, 1180, 1203, 2387
8944, 1203, 1204, 1181, 2387
8945, 1315, 1293, 1316, 2385
8946, 1292, 1293, 1315, 2385
8947, 1292, 2385, 1315, 2396
8948, 611, 1226, 588, 2400
8949, 1286, 1309, 1308, 2413
8950, 1308, 1285, 1286, 2413
8951, 508, 2329, 1307, 2414
8952, 1297, 1274, 1445, 2394
8953, 522, 545, 456, 2373
8954, 1411, 2332, 1412, 2367
8955, 1291, 2341, 1292, 2396
8956, 93, 1452, 590, 2335
8957, 1222, 608, 1223, 2415
8958, 1412, 2367, 2332, 2409
8959, 1262, 1239, 1240, 2413
8960, 1262, 1240, 1263, 2413
8961, 214, 1450, 1297, 1445
8962, 1440, 215, 1274, 1445
8963, 439, 444, 54, 1160
8964, 1228, 211, 1446, 1451
8965, 449, 56, 1183, 454
8966, 452, 2307, 447, 2405
8967, 1152, 1428, 2351, 2393
8968, 510, 1309, 2345, 2391
8969, 607, 1222, 2371, 2415
8970, 1312, 1313, 513, 2408
8971, 535, 558, 2410, 2411
8972, 562, 2342, 2396, 2415
8973, 1437, 2403, 1438, 2409
8974, 1275, 2405, 1252, 2418
8975, 535, 536, 558, 2411
8976, 559, 558, 536, 2411
8977, 503, 526, 525, 2388
8978, 502, 503, 525, 2388
8979, 1317, 1294, 2365, 2379
8980, 566, 565, 2340, 2400
8981, 1387, 1386, 1409, 2399
8982, 1410, 1387, 1409, 2399
8983, 531, 2398, 2374, 2414
8984, 1389, 1438, 2403, 2409
8985, 1384, 1383, 1406, 2407
8986, 1406, 1407, 1384, 2407
8987, 1296, 1273, 1274, 2392
8988, 1297, 1296, 1274, 2392
8989, 1175, 1174, 1197, 2393
8990, 1197, 1198, 1175, 2393
8991, 1446, 1205, 1228, 2416
8992, 1263, 1264, 1286, 2391
8993, 1286, 1264, 1287, 2391
8994, 92, 590, 567, 2335
8995, 534, 535, 557, 2410
8996, 558, 557, 535, 2410
8997, 1282, 1281, 1259, 2324
8998, 1259, 1281, 1258, 2324
8999, 2383, 2389, 2376, 2395
9000, 607, 2371, 584, 2415
9001, 1172, 1171, 1194, 2419
9002, 1194, 1195, 1172, 2419
9003, 521, 1455, 90, 2352
9004, 1442, 2333, 1441, 2417
9005, 1373, 2363, 1374, 2402
9006, 1249, 1250, 1272, 2358
9007, 1272, 1250, 1273, 2358
9008, 1185, 1184, 1207, 2357
9009, 1139, 1161, 1162, 2357
9010, 1139, 1138, 1161, 2357
9011, 1185, 1207, 1208, 2357
9012, 553, 2361, 530, 2414
9013, 1201, 1178, 1200, 2370
9014, 1437, 1436, 2333, 2409
9015, 1286, 2391, 1309, 2413
9016, 508, 531, 2329, 2414
9017, 1175, 1198, 2371, 2386
9018, 563, 540, 2379, 2385
9019, 1424, 2322, 1148, 2419
9020, 1442, 2334, 1443, 2403
9021, 1311, 2410, 1288, 2411
9022, 1177, 1176, 1199, 2371
9023, 1199, 1200, 1177, 2371
9024, 1437, 2333, 2403, 2409
9025, 76, 75, 442, 2418
9026, 566, 2392, 2369, 2400
9027, 1175, 2371, 1176, 2386
9028, 1199, 2371, 1222, 2415
9029, 552, 551, 2325, 2395
9030, 1306, 2329, 507, 2414
9031, 1279, 1301, 1278, 2388
9032, 1301, 1279, 1302, 2388
9033, 1321, 443, 75, 2418
9034, 527, 504, 505, 2389
9035, 505, 528, 527, 2389
9036, 2367, 2397, 2369, 2416
9037, 1345, 2316, 1344, 2372
9038, 1403, 1426, 1404, 2384
9039, 1404, 1426, 1427, 2384
9040, 450, 2308, 445, 2401
9041, 1405, 1428, 1406, 2386
9042, 1406, 1428, 1429, 2386
9043, 506, 2361, 529, 2395
9044, 585, 608, 607, 2415
9045, 607, 584, 585, 2415
9046, 1200, 1199, 1222, 2415
9047, 1200, 1222, 1223, 2415
9048, 1389, 1366, 2367, 2403
9049, 1384, 2364, 1383, 2407
9050, 1297, 2392, 1274, 2394
9051, 1434, 1411, 1433, 2387
9052, 1411, 1410, 1433, 2387
9053, 1344, 2314, 1367, 2372
9054, 1378, 1401, 1379, 2419
9055, 1401, 1402, 1379, 2419
9056, 541, 563, 540, 2379
9057, 541, 564, 563, 2379
9058, 525, 547, 524, 2378
9059, 548, 547, 525, 2378
9060, 1390, 1391, 2372, 2380
9061, 1266, 1267, 1289, 2408
9062, 1290, 1289, 1267, 2408
9063, 1259, 2324, 1258, 2402
9064, 1321, 1229, 443, 2418
9065, 135, 517, 134, 2339
9066, 119, 501, 118, 2356
9067, 1354, 1353, 1376, 2375
9068, 1354, 1376, 1377, 2375
9069, 1302, 2360, 503, 2388
9070, 531, 530, 2329, 2414
9071, 1148, 1170, 1171, 2366
9072, 1148, 1147, 1170, 2366
9073, 1193, 1216, 1194, 2366
9074, 1217, 1194, 1216, 2366
9075, 1263, 2391, 1286, 2413
9076, 1176, 1175, 1198, 2371
9077, 1199, 1176, 1198, 2371
9078, 589, 566, 2369, 2400
9079, 1200, 2371, 1199, 2415
9080, 2367, 2392, 2369, 2397
9081, 1324, 1325, 1232, 2412
9082, 1199, 1198, 1221, 2371
9083, 1221, 1222, 1199, 2371
9084, 568, 545, 546, 2373
9085, 546, 569, 568, 2373
9086, 503, 2360, 526, 2388
9087, 542, 564, 541, 2365
9088, 542, 565, 564, 2365
9089, 1448, 1449, 1444, 2397
9090, 1444, 1443, 1448, 2397
9091, 1148, 2366, 1171, 2419
9092, 1205, 1446, 210, 2417
9093, 2362, 2370, 1384, 2407
9094, 1252, 33, 32, 2405
9095, 1252, 1275, 33, 2405
9096, 541, 2365, 564, 2379
9097, 1281, 1258, 2383, 2389
9098, 1288, 1265, 1266, 2411
9099, 1266, 1289, 1288, 2411
9100, 518, 1317, 1318, 2365
9101, 1303, 1280, 1281, 2389
9102, 1281, 1304, 1303, 2389
9103, 590, 567, 2335, 2369
9104, 1151, 1150, 1173, 2384
9105, 1173, 1174, 1151, 2384
9106, 1175, 1176, 1153, 2386
9107, 1153, 1152, 1175, 2386
9108, 1303, 2360, 1280, 2389
9109, 1404, 2384, 1427, 2393
9110, 1405, 1428, 2386, 2393
9111, 1427, 2384, 1151, 2393
9112, 1152, 2386, 1428, 2393
9113, 1447, 2416, 2334, 2417
9114, 1384, 2362, 1385, 2370
9115, 1447, 2334, 1442, 2417
9116, 1233, 1232, 1325, 2412
9117, 1158, 1157, 1180, 2387
9118, 1180, 1181, 1158, 2387
9119, 548, 2378, 525, 2388
9120, 34, 1298, 458, 2405
9121, 590, 613, 612, 2369
9122, 612, 589, 590, 2369
9123, 516, 515, 1315, 2396
9124, 1368, 1367, 1390, 2372
9125, 1390, 1391, 1368, 2372
9126, 513, 2344, 1312, 2411
9127, 504, 2360, 1303, 2389
9128, 1391, 1368, 2372, 2380
9129, 1347, 1348, 1325, 2412
9130, 1324, 1347, 1325, 2412
9131, 611, 612, 1227, 2400
9132, 443, 2315, 448, 2418
9133, 1163, 1164, 1141, 2406
9134, 1141, 1140, 1163, 2406
9135, 1307, 1284, 2398, 2414
9136, 1450, 1454, 1455, 2394
9137, 1450, 1449, 1454, 2394
9138, 504, 527, 2360, 2389
9139, 1296, 2358, 1273, 2392
9140, 1168, 1191, 1169, 2368
9141, 1169, 1191, 1192, 2368
9142, 1278, 1255, 1256, 2412
9143, 1256, 1279, 1278, 2412
9144, 1315, 515, 1314, 2396
9145, 119, 1302, 120, 2355
9146, 121, 1304, 122, 2328
9147, 134, 133, 1316, 2354
9148, 2396, 2407, 2385, 2415
9149, 1371, 2326, 1370, 2406
9150, 611, 1227, 1226, 2400
9151, 1272, 2358, 1295, 2365
9152, 559, 536, 537, 2408
9153, 537, 560, 559, 2408
9154, 513, 536, 2344, 2411
9155, 1290, 1313, 1312, 2408
9156, 1312, 1289, 1290, 2408
9157, 1343, 1366, 216, 1439
9158, 217, 216, 1366, 1439
9159, 1389, 1439, 217, 1366
9160, 218, 217, 1389, 1438
9161, 1367, 77, 78, 440
9162, 439, 78, 1390, 79
9163, 1390, 1367, 78, 440
9164, 439, 79, 1390, 1413
9165, 1435, 2332, 1159, 2409
9166, 1437, 1438, 218, 2409
9167, 528, 551, 2389, 2395
9168, 507, 2329, 530, 2414
9169, 526, 548, 525, 2388
9170, 526, 549, 548, 2388
9171, 1407, 2362, 1384, 2407
9172, 1442, 1437, 2333, 2403
9173, 2372, 2380, 2373, 2401
9174, 16, 1440, 1343, 216
9175, 244, 443, 75, 1321
9176, 3, 443, 75, 244
9177, 1388, 1411, 2367, 2387
9178, 1174, 1151, 2384, 2393
9179, 1175, 2386, 1152, 2393
9180, 1312, 2408, 513, 2411
9181, 1344, 2316, 1321, 2372
9182, 521, 1320, 1455, 2394
9183, 33, 34, 458, 2405
9184, 1311, 1288, 1289, 2411
9185, 1311, 1289, 1312, 2411
9186, 76, 1321, 75, 2418
9187, 76, 1344, 1321, 2418
9188, 505, 506, 528, 2395
9189, 529, 528, 506, 2395
9190, 1251, 1343, 215, 1440
9191, 1440, 16, 1343, 215
9192, 443, 244, 1229, 1321
9193, 3, 443, 244, 31
9194, 212, 521, 1320, 1455
9195, 528, 550, 527, 2389
9196, 550, 528, 551, 2389
9197, 1389, 218, 1438, 2409
9198, 1381, 1380, 1403, 2384
9199, 1403, 1404, 1381, 2384
9200, 1383, 1382, 1405, 2386
9201, 1405, 1406, 1383, 2386
9202, 448, 2315, 2405, 2418
9203, 1205, 2369, 1228, 2416
9204, 1285, 1308, 1307, 2398
9205, 1285, 1307, 1284, 2398
9206, 1410, 1388, 1387, 2387
9207, 1388, 1410, 1411, 2387
9208, 521, 2352, 544, 2394
9209, 77, 76, 441, 2314
9210, 208, 1436, 220, 2336
9211, 1266, 2408, 1289, 2411
9212, 513, 2408, 536, 2411
9213, 213, 1455, 212, 2394
9214, 1204, 1203, 1226, 2400
9215, 1226, 1227, 1204, 2400
9216, 54, 53, 439, 1137
9217, 1160, 55, 444, 54
9218, 1137, 439, 54, 1160
9219, 1297, 214, 1445, 1274
9220, 56, 449, 1183, 55
9221, 244, 443, 1229, 31
9222, 1274, 1251, 215, 1440
9223, 1450, 214, 1297, 213
9224, 215, 214, 1274, 1445
9225, 210, 1228, 1446, 1205
9226, 56, 1183, 454, 1206
9227, 210, 1228, 211, 1446
9228, 447, 448, 2405, 2418
9229, 1306, 2361, 1283, 2414
9230, 1294, 1271, 1272, 2365
9231, 1272, 1295, 1294, 2365
9232, 1306, 1283, 1284, 2414
9233, 1284, 1307, 1306, 2414
9234, 538, 515, 516, 2396
9235, 516, 539, 538, 2396
9236, 1314, 1292, 1315, 2396
9237, 1314, 1291, 1292, 2396
9238, 2371, 2407, 2396, 2415
9239, 450, 445, 446, 2401
9240, 450, 446, 451, 2401
9241, 31, 32, 448, 2315
9242, 1328, 1236, 1327, 2402
9243, 1372, 2311, 1395, 2404
9244, 543, 521, 544, 2392
9245, 1405, 1404, 1427, 2393
9246, 1427, 1428, 1405, 2393
9247, 511, 533, 510, 2391
9248, 511, 534, 533, 2391
9249, 220, 2336, 1436, 2409
9250, 1320, 212, 1455, 2394
9251, 1151, 1174, 1152, 2393
9252, 1152, 1174, 1175, 2393
9253, 1287, 1310, 1309, 2391
9254, 1286, 1287, 1309, 2391
9255, 2367, 2403, 2397, 2416
9256, 589, 611, 588, 2400
9257, 589, 612, 611, 2400
9258, 1297, 1450, 213, 2394
9259, 1361, 2364, 1384, 2407
9260, 539, 561, 538, 2396
9261, 539, 562, 561, 2396
9262, 1236, 1235, 1327, 2402
9263, 1171, 1172, 1149, 2419
9264, 1149, 1148, 1171, 2419
9265, 577, 554, 555, 2374
9266, 1381, 2384, 1404, 2393
9267, 1405, 2386, 1382, 2393
9268, 1366, 1365, 1388, 2367
9269, 1388, 1389, 1366, 2367
9270, 543, 544, 566, 2392
9271, 544, 567, 566, 2392
9272, 1382, 1381, 1404, 2393
9273, 1405, 1382, 1404, 2393
9274, 556, 533, 534, 2391
9275, 534, 557, 556, 2391
9276, 567, 2369, 566, 2392
9277, 521, 90, 544, 2352
9278, 1443, 1438, 1442, 2403
9279, 1442, 1438, 1437, 2403
9280, 1285, 1262, 1263, 2413
9281, 1286, 1285, 1263, 2413
9282, 209, 1182, 1205, 2417
9283, 1205, 210, 209, 2417
9284, 1318, 1317, 1295, 2365
9285, 1295, 1317, 1294, 2365
9286, 1451, 613, 94, 1452
9287, 567, 1454, 92, 1453
9288, 81, 458, 499, 457
9289, 545, 83, 456, 455
9290, 82, 457, 522, 456
9291, 84, 455, 591, 454
9292, 219, 1435, 220, 2409
9293, 1435, 219, 1412, 2409
9294, 1255, 1232, 1233, 2412
9295, 1233, 1256, 1255, 2412
9296, 1148, 2349, 1424, 2419
9297, 443, 448, 447, 2418
9298, 443, 447, 442, 2418
9299, 1312, 1289, 2408, 2411
9300, 1389, 1388, 1411, 2367
9301, 1411, 1412, 1389, 2367
9302, 559, 536, 2408, 2411
9303, 531, 2374, 554, 2414
9304, 545, 522, 523, 2373
9305, 523, 546, 545, 2373
9306, 574, 551, 552, 2395
9307, 552, 575, 574, 2395
9308, 566, 588, 565, 2400
9309, 588, 566, 589, 2400
9310, 93, 590, 92, 2335
9311, 1350, 1373, 1351, 2402
9312, 1374, 1351, 1373, 2402
9313, 1393, 1416, 1394, 2406
9314, 1306, 507, 2361, 2414
9315, 33, 1275, 34, 2405
9316, 34, 1275, 1298, 2405
9317, 1272, 1273, 1295, 2358
9318, 1273, 1296, 1295, 2358
9319, 1161, 1184, 1162, 2357
9320, 1162, 1184, 1185, 2357
9321, 1236, 1258, 1235, 2402
9322, 1258, 1236, 1259, 2402
9323, 452, 447, 448, 2405
9324, 453, 452, 448, 2405
9325, 1321, 1344, 2372, 2418
9326, 1144, 2319, 1143, 2363
9327, 1419, 2319, 1420, 2363
9328, 218, 219, 1437, 2409
9329, 589, 566, 567, 2369
9330, 567, 590, 589, 2369
9331, 1345, 1344, 1367, 2372
9332, 1367, 1368, 1345, 2372
9333, 1447, 1446, 2416, 2417
9334, 553, 530, 531, 2414
9335, 531, 554, 553, 2414
9336, 1417, 1141, 225, 1418
9337, 1417, 224, 1140, 1416
9338, 228, 1144, 1421, 1420
9339, 222, 1415, 1414, 1138
9340, 256, 1332, 1333, 1240
9341, 1239, 1330, 254, 1331
9342, 1331, 255, 1239, 1332
9343, 248, 1324, 1325, 1232
9344, 250, 1326, 1327, 1234
9345, 1328, 252, 1236, 1329
9346, 1341, 1342, 265, 1250
9347, 1342, 1343, 266, 1250
9348, 232, 1424, 1148, 1425
9349, 1425, 1149, 233, 1426
9350, 1340, 1341, 264, 1249
9351, 1339, 1340, 263, 1248
9352, 246, 1322, 1323, 1230
9353, 1321, 1322, 245, 1230
9354, 1338, 262, 1246, 1339
9355, 1323, 247, 1231, 1324
9356, 1327, 1328, 251, 1236
9357, 1337, 1244, 260, 1336
9358, 223, 1139, 1416, 1415
9359, 242, 1158, 1435, 1434
9360, 239, 1155, 1432, 1431
9361, 240, 1433, 1432, 1156
9362, 1153, 237, 1429, 1430
9363, 1334, 1335, 258, 1243
9364, 1328, 1327, 1350, 2402
9365, 1350, 1351, 1328, 2402
9366, 1171, 2366, 1194, 2419
9367, 1320, 213, 212, 2394
9368, 1320, 1297, 213, 2394
9369, 1424, 2349, 1401, 2419
9370, 1170, 1193, 1171, 2366
9371, 1194, 1171, 1193, 2366
9372, 1141, 226, 1418, 1142
9373, 226, 1141, 1418, 225
9374, 1140, 1141, 225, 1417
9375, 224, 1417, 1140, 225
9376, 229, 1144, 1421, 228
9377, 222, 1415, 1138, 223
9378, 1138, 1415, 1139, 223
9379, 1139, 224, 1416, 1140
9380, 229, 1144, 1145, 1421
9381, 1149, 1150, 234, 1426
9382, 233, 1148, 1149, 1425
9383, 233, 1148, 1425, 232
9384, 234, 233, 1149, 1426
9385, 251, 250, 1327, 1235
9386, 1243, 259, 1335, 258
9387, 224, 1139, 1416, 223
9388, 252, 1328, 1236, 251
9389, 250, 1326, 1234, 249
9390, 249, 1325, 1233, 248
9391, 248, 1324, 1232, 247
9392, 1325, 248, 1232, 1233
9393, 246, 245, 1322, 1230
9394, 1321, 245, 244, 1229
9395, 1229, 1321, 245, 1230
9396, 1334, 258, 257, 1242
9397, 1230, 1323, 246, 1231
9398, 1330, 1239, 254, 1238
9399, 257, 1333, 1241, 256
9400, 256, 1332, 1240, 255
9401, 255, 1331, 1239, 254
9402, 247, 1231, 1324, 1232
9403, 254, 1330, 1238, 253
9404, 253, 1329, 1237, 252
9405, 256, 1240, 1333, 1241
9406, 1239, 1332, 255, 1240
9407, 1235, 1327, 251, 1236
9408, 1236, 1329, 252, 1237
9409, 1234, 1327, 250, 1235
9410, 240, 1155, 1432, 239
9411, 243, 1158, 1435, 242
9412, 1433, 240, 241, 1156
9413, 243, 1158, 1159, 1435
9414, 1155, 240, 1432, 1156
9415, 238, 1153, 1154, 1430
9416, 238, 1153, 1430, 237
9417, 1157, 1433, 241, 1156
9418, 1336, 1244, 260, 259
9419, 16, 1251, 1343, 215
9420, 247, 1323, 1231, 246
9421, 265, 1249, 1341, 1250
9422, 264, 1248, 1340, 1249
9423, 1251, 16, 1343, 266
9424, 1247, 1339, 263, 1248
9425, 266, 265, 1342, 1250
9426, 1249, 265, 1341, 264
9427, 1248, 264, 1340, 263
9428, 1339, 263, 262, 1247
9429, 262, 1338, 1246, 261
9430, 1343, 266, 1250, 1251
9431, 1242, 1334, 258, 1243
9432, 1339, 262, 1246, 1247
9433, 1244, 1337, 260, 1245
9434, 1455, 1454, 91, 2352
9435, 507, 530, 2361, 2414
9436, 1389, 2403, 2367, 2409
9437, 544, 2392, 521, 2394
9438, 549, 526, 527, 2360
9439, 527, 550, 549, 2360
9440, 1385, 1384, 1407, 2362
9441, 1407, 1408, 1385, 2362
9442, 1385, 2362, 1408, 2370
9443, 1186, 1209, 1187, 2359
9444, 1209, 1210, 1187, 2359
9445, 1305, 1282, 1283, 2361
9446, 1305, 1283, 1306, 2361
9447, 1144, 1143, 1166, 2363
9448, 1167, 1144, 1166, 2363
9449, 1269, 1268, 1246, 2364
9450, 1246, 1268, 1245, 2364
9451, 549, 572, 571, 2359
9452, 529, 530, 552, 2361
9453, 553, 552, 530, 2361
9454, 1373, 1396, 1374, 2363
9455, 1397, 1374, 1396, 2363
9456, 1361, 1360, 1383, 2364
9457, 1384, 1361, 1383, 2364
9458, 1393, 1394, 1371, 2406
9459, 1371, 1370, 1393, 2406
9460, 526, 503, 504, 2360
9461, 504, 527, 526, 2360
9462, 1408, 1407, 1430, 2362
9463, 1430, 1431, 1408, 2362
9464, 585, 2342, 562, 2415
9465, 15, 208, 220, 2336
9466, 1436, 1437, 219, 2409
9467, 572, 595, 594, 2359
9468, 594, 571, 572, 2359
9469, 507, 529, 506, 2361
9470, 507, 530, 529, 2361
9471, 1397, 1396, 1419, 2363
9472, 1420, 1397, 1419, 2363
9473, 1338, 1337, 1360, 2364
9474, 1360, 1361, 1338, 2364
9475, 2392, 2394, 2369, 2397
9476, 1452, 613, 93, 590
9477, 91, 567, 544, 1454
9478, 522, 81, 499, 457
9479, 83, 545, 568, 455
9480, 568, 84, 455, 591
9481, 82, 456, 522, 545
9482, 79, 439, 53, 2313
9483, 212, 521, 1455, 90
9484, 7, 454, 591, 1206
9485, 1298, 80, 458, 499
9486, 7, 56, 454, 1206
9487, 80, 1298, 458, 34
9488, 1389, 1412, 218, 2409
9489, 218, 1412, 219, 2409
9490, 239, 238, 1154, 2362
9491, 1154, 1155, 239, 2362
9492, 1447, 1442, 1446, 2417
9493, 1441, 1446, 1442, 2417
9494, 261, 1245, 260, 2364
9495, 1245, 261, 1246, 2364
9496, 1377, 1376, 1399, 2375
9497, 1377, 1399, 1400, 2375
9498, 1353, 1354, 1331, 2375
9499, 1412, 1389, 2367, 2409
9500, 1451, 161, 613, 1228
9501, 1430, 238, 1431, 2362
9502, 91, 544, 90, 2352
9503, 528, 2325, 551, 2395
9504, 211, 161, 1451, 1228
9505, 239, 1431, 238, 2362
9506, 1337, 1338, 261, 2364
9507, 1155, 2347, 1178, 2370
9508, 1452, 93, 1453, 2335
9509, 1337, 261, 260, 2364
9510, 1435, 1412, 2332, 2409
9511, 1155, 2362, 2347, 2370
9512, 219, 220, 1436, 2409
9513, 79, 53, 8, 2313
9514, 1182, 2416, 1205, 2417
9515, 1143, 2319, 1419, 2363
9516, 552, 2325, 529, 2395
9517, 606, 153, 605, 1220
9518, 606, 607, 154, 1221
9519, 612, 160, 1227, 613
9520, 610, 1224, 157, 609
9521, 1224, 608, 156, 609
9522, 1227, 611, 159, 612
9523, 610, 158, 1225, 611
9524, 607, 608, 155, 1222
9525, 1214, 598, 146, 599
9526, 601, 148, 600, 1215
9527, 603, 150, 602, 1218
9528, 602, 149, 601, 1217
9529, 600, 147, 599, 1215
9530, 1208, 592, 140, 593
9531, 598, 1212, 145, 597
9532, 592, 139, 591, 1207
9533, 1210, 595, 143, 596
9534, 144, 597, 1211, 596
9535, 593, 1209, 594, 141
9536, 152, 605, 1219, 604
9537, 118, 500, 1300, 501
9538, 505, 1305, 123, 506
9539, 125, 507, 1307, 508
9540, 509, 508, 126, 1308
9541, 510, 509, 127, 1309
9542, 511, 129, 512, 1311
9543, 132, 514, 1314, 515
9544, 516, 133, 1315, 515
9545, 131, 513, 1313, 514
9546, 136, 518, 1318, 519
9547, 137, 519, 1319, 520
9548, 512, 130, 513, 1312
9549, 1420, 2319, 1144, 2363
9550, 1431, 2362, 1155, 2370
9551, 242, 1158, 1434, 2337
9552, 235, 1151, 1427, 2350
9553, 237, 1153, 1429, 2346
9554, 1221, 153, 606, 1220
9555, 1222, 154, 607, 1221
9556, 598, 1214, 146, 1213
9557, 1223, 608, 156, 1224
9558, 1225, 157, 610, 1224
9559, 1228, 160, 613, 1227
9560, 611, 1227, 159, 1226
9561, 1223, 155, 608, 1222
9562, 1226, 158, 611, 1225
9563, 1216, 148, 601, 1215
9564, 1216, 149, 1217, 601
9565, 602, 150, 1217, 1218
9566, 147, 1215, 1214, 599
9567, 592, 1208, 140, 1207
9568, 1207, 139, 591, 1206
9569, 1212, 598, 145, 1213
9570, 1211, 143, 596, 1210
9571, 1212, 144, 597, 1211
9572, 593, 1209, 141, 1208
9573, 1220, 152, 605, 1219
9574, 117, 1299, 1300, 500
9575, 1304, 1305, 122, 505
9576, 1306, 124, 507, 1307
9577, 1307, 125, 508, 1308
9578, 1308, 126, 509, 1309
9579, 1312, 130, 513, 1313
9580, 1313, 1314, 131, 514
9581, 511, 128, 1311, 1310
9582, 1314, 1315, 132, 515
9583, 129, 512, 1311, 1312
9584, 135, 1318, 518, 1317
9585, 519, 136, 1319, 1318
9586, 138, 212, 521, 1320
9587, 613, 93, 94, 1452
9588, 91, 567, 1454, 92
9589, 456, 82, 83, 545
9590, 458, 81, 499, 80
9591, 84, 568, 455, 83
9592, 84, 7, 454, 591
9593, 457, 82, 522, 81
9594, 1151, 235, 1427, 2351
9595, 227, 1419, 1143, 2319
9596, 1145, 229, 1421, 2321
9597, 1147, 231, 1423, 2322
9598, 1431, 1408, 2362, 2370
9599, 1441, 210, 1446, 2417
9600, 1451, 161, 94, 613
9601, 120, 1302, 1303, 2360
9602, 1298, 80, 4, 34
9603, 123, 1305, 1306, 2361
9604, 1210, 1209, 142, 2359
9605, 1451, 12, 161, 211
9606, 91, 90, 1455, 2352
9607, 448, 32, 453, 2405
9608, 121, 504, 503, 2360
9609, 595, 142, 594, 2359
9610, 124, 507, 506, 2361
9611, 591, 139, 7, 1206
9612, 116, 80, 1298, 499
9613, 212, 11, 521, 90
9614, 1431, 239, 1155, 2362
9615, 1430, 1154, 238, 2362
9616, 1414, 222, 1138, 2312
9617, 1337, 260, 1245, 2364
9618, 1338, 1246, 261, 2364
9619, 1222, 154, 155, 607
9620, 159, 1227, 612, 160
9621, 160, 1228, 613, 161
9622, 1225, 157, 158, 610
9623, 1224, 156, 157, 609
9624, 155, 1223, 608, 156
9625, 1226, 158, 159, 611
9626, 153, 1221, 606, 154
9627, 146, 147, 1214, 599
9628, 603, 150, 1218, 151
9629, 602, 149, 1217, 150
9630, 1216, 148, 149, 601
9631, 604, 152, 151, 1219
9632, 600, 147, 1215, 148
9633, 1208, 140, 141, 593
9634, 592, 139, 1207, 140
9635, 1213, 145, 146, 598
9636, 1211, 143, 144, 596
9637, 1209, 141, 142, 594
9638, 144, 1212, 597, 145
9639, 152, 1220, 605, 153
9640, 500, 118, 1300, 117
9641, 1305, 123, 122, 505
9642, 514, 132, 1314, 131
9643, 125, 507, 124, 1307
9644, 513, 131, 1313, 130
9645, 125, 126, 508, 1308
9646, 133, 132, 1315, 515
9647, 126, 127, 509, 1309
9648, 511, 128, 129, 1311
9649, 518, 136, 1318, 135
9650, 519, 137, 1319, 136
9651, 138, 212, 11, 521
9652, 512, 129, 130, 1312
9653, 209, 210, 1441, 2417
9654, 1137, 221, 1413, 2312
9655, 230, 1146, 1422, 2321
9656, 228, 1144, 1420, 2319
9657, 1424, 232, 1148, 2322
9658, 1152, 1428, 236, 2351
9659, 1150, 234, 1426, 2350
9660, 1433, 1157, 241, 2337
9661, 1428, 1152, 236, 2346
9662, 12, 1451, 161, 94
9663, 33, 453, 32, 2405
9664, 1301, 119, 502, 2355
9665, 1303, 121, 504, 2328
9666, 133, 516, 1315, 2354
9667, 92, 1453, 93, 2335
9668, 521, 138, 1320, 2353
9669, 511, 128, 1310, 2345
9670, 117, 1299, 500, 2309
9671, 116, 80, 4, 1298
9672, 1303, 121, 120, 2360
9673, 448, 2315, 32, 2405
9674, 124, 123, 1306, 2361
9675, 142, 143, 1210, 2359
9676, 120, 121, 503, 2360
9677, 142, 595, 143, 2359
9678, 506, 123, 124, 2361
9679, 120, 503, 1302, 2360
9680, 121, 1303, 504, 2360
9681, 123, 506, 1305, 2361
9682, 124, 1306, 507, 2361
9683, 1210, 143, 595, 2359
9684, 1209, 594, 142, 2359
9685, 1300, 118, 501, 2356
9686, 134, 517, 1316, 2339
9687, 119, 1301, 502, 2356
9688, 518, 135, 1317, 2339
9689, 1298, 116, 499, 2309
9690, 127, 510, 1309, 2345
9691, 1319, 137, 520, 2353
9692, 503, 120, 1302, 2355
9693, 122, 1304, 505, 2328
9694, 517, 134, 1316, 2354
9695, 1186, 1208, 1209, 2327
9696, 1322, 1344, 1345, 2316
9697, 1299, 116, 1298, 2309
9698, 531, 509, 532, 2330
9699, 228, 227, 1143, 2319
9700, 1422, 1423, 1400, 2320
9701, 1251, 1274, 1273, 2331
9702, 1365, 1366, 1250, 2331
9703, 543, 566, 565, 2340
9704, 1375, 1374, 1397, 2317
9705, 509, 531, 508, 2330
9706, 1398, 1375, 1397, 2317
9707, 513, 512, 1312, 2344
9708, 528, 529, 551, 2325
9709, 236, 235, 1151, 2351
9710, 509, 508, 1308, 2330
9711, 1321, 1322, 1230, 2316
9712, 1185, 1208, 1186, 2327
9713, 1300, 1301, 118, 2356
9714, 120, 503, 502, 2355
9715, 1284, 1262, 1285, 2323
9716, 1261, 1262, 1284, 2323
9717, 508, 530, 507, 2329
9718, 530, 508, 531, 2329
9719, 507, 1307, 508, 2329
9720, 535, 534, 512, 2343
9721, 529, 552, 551, 2325
9722, 230, 229, 1145, 2321
9723, 1321, 1344, 1322, 2316
9724, 1152, 236, 1151, 2351
9725, 1347, 1370, 1348, 2326
9726, 1371, 1348, 1370, 2326
9727, 1418, 1396, 1395, 2318
9728, 1419, 1396, 1418, 2318
9729, 1422, 1400, 1399, 2320
9730, 232, 1147, 1148, 2322
9731, 1424, 231, 232, 2322
9732, 231, 1147, 232, 2322
9733, 234, 235, 1427, 2350
9734, 1426, 234, 1427, 2350
9735, 1144, 228, 1143, 2319
9736, 512, 1311, 1312, 2344
9737, 1146, 230, 1145, 2321
9738, 1372, 1394, 1395, 2311
9739, 504, 122, 505, 2328
9740, 1434, 241, 242, 2337
9741, 1311, 511, 1310, 2343
9742, 512, 511, 1311, 2343
9743, 1429, 1428, 236, 2346
9744, 1425, 1402, 1424, 2349
9745, 237, 1429, 236, 2346
9746, 1419, 227, 1420, 2319
9747, 1412, 1434, 1435, 2332
9748, 1156, 1179, 1157, 2348
9749, 1178, 1155, 1177, 2347
9750, 1179, 1180, 1157, 2348
9751, 513, 535, 512, 2344
9752, 1154, 1177, 1155, 2347
9753, 536, 535, 513, 2344
9754, 1158, 1159, 1435, 2332
9755, 1158, 1435, 1434, 2332
9756, 1156, 1410, 1409, 2348
9757, 1434, 1412, 1411, 2332
9758, 1320, 137, 1319, 2353
9759, 1424, 1148, 1425, 2349
9760, 1148, 1149, 1425, 2349
9761, 516, 134, 517, 2354
9762, 584, 561, 562, 2342
9763, 230, 1422, 229, 2321
9764, 1269, 1291, 1268, 2341
9765, 227, 228, 1420, 2319
9766, 585, 584, 562, 2342
9767, 1422, 1421, 229, 2321
9768, 542, 543, 565, 2340
9769, 231, 1424, 1423, 2322
9770, 1309, 1310, 127, 2345
9771, 512, 534, 511, 2343
9772, 241, 1434, 1433, 2337
9773, 1291, 1269, 1292, 2341
9774, 1250, 1251, 1273, 2331
9775, 563, 562, 540, 2338
9776, 562, 539, 540, 2338
9777, 235, 1428, 1427, 2351
9778, 221, 1137, 222, 2312
9779, 571, 1209, 570, 2327
9780, 222, 1137, 1138, 2312
9781, 1428, 235, 236, 2351
9782, 507, 1306, 1307, 2329
9783, 508, 1307, 1308, 2330
9784, 1229, 1321, 1230, 2316
9785, 1317, 134, 1316, 2339
9786, 1402, 1401, 1424, 2349
9787, 1165, 1166, 1143, 2363
9788, 539, 540, 2338, 2385
9789, 1281, 2324, 1282, 2395
9790, 2324, 2361, 1282, 2395
9791, 529, 2325, 528, 2395
9792, 1347, 2326, 1348, 2412
9793, 584, 2342, 585, 2415
9794, 584, 2371, 2342, 2415
9795, 447, 2418, 2401, 446
9796, 2401, 2418, 447, 2307
9797, 2401, 451, 447, 446
9798, 447, 451, 2401, 2307
9799, 2378, 1276, 1254, 2357
9800, 2378, 1254, 1276, 1277
9801, 1422, 2321, 1399, 1421
9802, 1399, 2321, 1398, 1421
9803, 1399, 1398, 2321, 2368
9804, 1398, 2321, 1145, 1421
9805, 1398, 1145, 2321, 2368
9806, 547, 2378, 546, 524
9807, 547, 546, 2378, 2357
9808, 523, 546, 2378, 524
9809, 523, 2378, 546, 2357
9810, 1439, 1440, 2397, 1444
9811, 1445, 1440, 2397, 1274
9812, 1445, 2397, 1440, 1444
9813, 2413, 2398, 2323, 2375
9814, 2323, 2413, 1239, 1262
9815, 1239, 2413, 2323, 2375
9816, 2323, 1239, 1261, 1262
9817, 1261, 1239, 2323, 2375
9818, 2381, 2324, 2383, 2395
9819, 2381, 2383, 2324, 2402
9820, 1261, 2375, 2368, 1353
9821, 1261, 2368, 2375, 2398
9822, 2410, 2384, 1172, 2390
9823, 1364, 2399, 1249, 1363
9824, 1364, 1249, 2399, 2365
9825, 1248, 1249, 2399, 1363
9826, 2411, 581, 2384, 582
9827, 2411, 2384, 581, 2410
9828, 2410, 1379, 2384, 2390
9829, 1402, 2384, 1379, 2390
9830, 1402, 1379, 2384, 1380
9831, 2333, 2417, 209, 1441
9832, 209, 2417, 2333, 1182
9833, 209, 1436, 2333, 1441
9834, 2408, 1221, 2371, 583
9835, 2408, 2371, 1221, 1198
9836, 1234, 2382, 2404, 1257
9837, 2404, 2382, 1234, 1349
9838, 2404, 2383, 1234, 1257
9839, 1234, 2383, 2404, 1349
9840, 1246, 2407, 1362, 1269
9841, 1362, 2407, 1246, 1361
9842, 2418, 1229, 2405, 1252
9843, 2418, 2405, 1229, 2315
9844, 32, 2405, 1229, 1252
9845, 32, 1229, 2405, 2315
9846, 1346, 2377, 2357, 1369
9847, 1212, 2395, 2376, 574
9848, 2376, 2395, 1212, 1189
9849, 2377, 2327, 2357, 1185
9850, 2377, 2357, 2327, 2378
9851, 570, 2327, 2357, 2378
9852, 2365, 1318, 2340, 1295
9853, 2365, 2340, 1318, 542
9854, 1296, 2340, 1318, 1295
9855, 2399, 1271, 1249, 1248
9856, 2399, 1249, 1271, 2365
9857, 2399, 2358, 2400, 2387
9858, 2399, 2400, 2358, 2365
9859, 2406, 1164, 2311, 2404
9860, 1247, 2379, 2385, 1362
9861, 2385, 2379, 1247, 1270
9862, 2379, 1248, 2399, 1363
9863, 2379, 2399, 1248, 1271
9864, 2387, 2332, 1181, 1158
9865, 2387, 1181, 2332, 2367
9866, 1159, 1181, 2332, 1158
9867, 1159, 2332, 1181, 2367
9868, 1358, 1266, 1244, 1243
9869, 1358, 1244, 1266, 2408
9870, 2408, 1244, 2386, 1359
9871, 2408, 2386, 1244, 1267
9872, 1218, 2410, 2390, 580
9873, 2390, 2410, 1218, 1195
9874, 2408, 1313, 2396, 1290
9875, 2408, 2396, 1313, 537
9876, 1150, 2384, 1172, 1173
9877, 2366, 1147, 2375, 1400
9878, 2366, 2375, 1147, 1170
9879, 1366, 2331, 2397, 1251
9880, 1366, 2397, 2331, 2367
9881, 2357, 2377, 1254, 2378
9882, 2377, 2357, 1139, 1162
9883, 2384, 1242, 2410, 1265
9884, 2384, 2410, 1242, 1357
9885, 1356, 1242, 2410, 1357
9886, 2386, 1245, 2364, 1360
9887, 2386, 2364, 1245, 1268
9888, 2379, 1385, 2385, 1362
9889, 2379, 2385, 1385, 2370
9890, 2407, 2385, 1385, 1362
9891, 2407, 1385, 2385, 2370
9892, 1249, 2365, 2358, 1272
9893, 2358, 2365, 1249, 1364
9894, 2376, 2404, 573, 2389
9895, 1231, 2377, 2357, 1346
9896, 2357, 2377, 1231, 1254
9897, 2357, 1253, 1231, 1346
9898, 1231, 1253, 2357, 1254
9899, 2390, 1217, 2366, 1194
9900, 1214, 2381, 2368, 1191
9901, 2368, 2381, 1214, 576
9902, 2308, 449, 55, 1183
9903, 55, 449, 2308, 444
9904, 55, 1160, 2308, 1183
9905, 2308, 1160, 55, 444
9906, 209, 2333, 208, 1182
9907, 209, 208, 2333, 1436
9908, 1159, 208, 2333, 1182
9909, 1159, 2333, 208, 1436
9910, 1167, 1397, 2381, 2317
9911, 2381, 1397, 1167, 2363
9912, 2382, 1211, 1210, 1188
9913, 2382, 1210, 1211, 573
9914, 1386, 2370, 2379, 1385
9915, 1386, 2379, 2370, 2399
9916, 2378, 523, 1300, 1277
9917, 1253, 2373, 2357, 1276
9918, 1253, 2357, 2373, 2380
9919, 2379, 1225, 2399, 587
9920, 2379, 2399, 1225, 1202
9921, 588, 2399, 1225, 587
9922, 2379, 1224, 2385, 1201
9923, 2379, 2385, 1224, 586
9924, 2415, 2385, 1224, 1201
9925, 2415, 1224, 2385, 586
9926, 2384, 2410, 1219, 581
9927, 2384, 1197, 1219, 1196
9928, 1219, 1197, 2384, 581
9929, 2414, 576, 2381, 2368
9930, 2414, 2381, 576, 553
9931, 2407, 2347, 2415, 1177
9932, 2407, 2415, 2347, 2370
9933, 2415, 2347, 1200, 1177
9934, 2415, 1200, 2347, 2370
9935, 1200, 2347, 1178, 1177
9936, 1200, 1178, 2347, 2370
9937, 2405, 453, 1298, 458
9938, 2373, 1298, 453, 458
9939, 1348, 1325, 1234, 1326
9940, 249, 1325, 1234, 1233
9941, 249, 1234, 1325, 1326
9942, 591, 1207, 568, 569
9943, 591, 568, 1207, 1206
9944, 2373, 568, 1207, 569
9945, 2373, 1207, 568, 1206
9946, 151, 1218, 604, 1219
9947, 151, 604, 1218, 603
9948, 581, 604, 1218, 1219
9949, 581, 1218, 604, 603
9950, 1352, 1329, 2402, 1237
9951, 1352, 2402, 1329, 1351
9952, 1236, 2402, 1329, 1237
9953, 253, 1238, 1329, 1330
9954, 253, 1329, 1238, 1237
9955, 1352, 1329, 1238, 1330
9956, 1352, 1238, 1329, 1237
9957, 257, 1242, 1333, 1334
9958, 257, 1333, 1242, 1241
9959, 1356, 1333, 1242, 1334
9960, 1356, 1242, 1333, 1241
9961, 1244, 259, 1335, 1243
9962, 1335, 259, 1244, 1336
9963, 1335, 1358, 1244, 1243
9964, 1244, 1358, 1335, 1336
9965, 2392, 2340, 1296, 2358
9966, 2392, 1296, 2340, 543
9967, 1302, 2388, 2310, 2360
9968, 1423, 2322, 2366, 1147
9969, 1423, 2366, 2322, 2419
9970, 1148, 2366, 2322, 1147
9971, 1148, 2322, 2366, 2419
9972, 2326, 2406, 2377, 1370
9973, 2377, 2406, 2326, 2412
9974, 2377, 1347, 2326, 1370
9975, 2326, 1347, 2377, 2412
9976, 1145, 2368, 2317, 1168
9977, 2317, 2368, 1145, 1398
9978, 2317, 1167, 1145, 1168
9979, 1264, 1356, 1263, 1241
9980, 1264, 1263, 1356, 2390
9981, 1240, 1263, 1356, 1241
9982, 2383, 2404, 1373, 2376
9983, 1373, 2404, 2383, 1372
9984, 1434, 2332, 2387, 1158
9985, 2387, 2332, 1434, 1411
9986, 1215, 577, 599, 600
9987, 1399, 1146, 2321, 1422
9988, 1379, 2419, 1356, 1378
9989, 1379, 1356, 2419, 2390
9990, 1355, 1356, 2419, 1378
9991, 1355, 2419, 1356, 2390
9992, 1429, 2407, 2386, 1153
9993, 2386, 2407, 1429, 1406
9994, 2419, 1355, 1377, 2413
9995, 2419, 1377, 1355, 1378
9996, 2412, 1325, 1234, 1348
9997, 2412, 1234, 1325, 1233
9998, 2381, 2383, 2363, 2376
9999, 2381, 2363, 2383, 2402
10000, 1373, 2363, 2383, 2376
10001, 1373, 2383, 2363, 2402
10002, 1364, 1249, 1250, 1341
10003, 1250, 1249, 1364, 2358
10004, 1250, 1342, 1364, 1341
10005, 1208, 570, 592, 593
10006, 2357, 1415, 2377, 1139
10007, 2357, 2377, 1415, 1392
10008, 1393, 2377, 1415, 1139
10009, 1393, 1415, 2377, 1392
10010, 2413, 509, 2398, 532
10011, 2413, 2398, 509, 1308
10012, 2418, 2316, 1252, 2372
10013, 2418, 1252, 2316, 1229
10014, 1230, 1252, 2316, 2372
10015, 1230, 2316, 1252, 1229
10016, 2413, 1331, 2375, 1239
10017, 2413, 2375, 1331, 1354
10018, 1448, 2416, 2334, 1447
10019, 2334, 2416, 1448, 2397
10020, 2334, 1443, 1448, 1447
10021, 1448, 1443, 2334, 2397
10022, 2366, 602, 2390, 579
10023, 2366, 2390, 602, 1217
10024, 1218, 602, 2390, 1217
10025, 2413, 510, 2391, 1309
10026, 2413, 2391, 510, 533
10027, 2414, 577, 2374, 554
10028, 2414, 2374, 577, 2368
10029, 1221, 607, 584, 606
10030, 584, 607, 1221, 2371
10031, 584, 583, 1221, 606
10032, 1221, 583, 584, 2371
10033, 2395, 505, 2389, 528
10034, 2395, 2389, 505, 1304
10035, 2402, 1328, 1329, 1351
10036, 2402, 1329, 1328, 1236
10037, 2396, 515, 537, 538
10038, 2396, 537, 515, 1314
10039, 2391, 580, 2410, 557
10040, 2391, 2410, 580, 2390
10041, 2412, 1324, 2377, 1232
10042, 2412, 2377, 1324, 1347
10043, 1231, 2377, 1324, 1232
10044, 1250, 1365, 1364, 1342
10045, 1250, 1364, 1365, 2358
10046, 570, 569, 1208, 592
10047, 570, 1208, 569, 2357
10048, 1207, 1208, 569, 592
10049, 1207, 569, 1208, 2357
10050, 1414, 2357, 2380, 1138
10051, 2380, 2357, 1414, 1391
10052, 2394, 2353, 1297, 2392
10053, 2394, 1297, 2353, 1320
10054, 1319, 2353, 1297, 1320
10055, 2369, 612, 2400, 1227
10056, 2369, 2400, 612, 589
10057, 2385, 517, 2379, 1316
10058, 2385, 2379, 517, 540
10059, 523, 1299, 2309, 500
10060, 523, 2309, 1299, 2373
10061, 499, 522, 2309, 500
10062, 499, 2309, 522, 2373
10063, 522, 523, 2309, 500
10064, 522, 2309, 523, 2373
10065, 1137, 1390, 2312, 1413
10066, 1137, 2312, 1390, 2380
10067, 1414, 2312, 1391, 1413
10068, 1414, 1391, 2312, 2380
10069, 2312, 1390, 1391, 1413
10070, 2312, 1391, 1390, 2380
10071, 2379, 518, 2365, 1317
10072, 2379, 2365, 518, 541
10073, 2378, 502, 2388, 1301
10074, 2378, 2388, 502, 525
10075, 501, 2378, 523, 1300
10076, 523, 2378, 501, 524
10077, 549, 2359, 2382, 572
10078, 2382, 2359, 549, 2388
10079, 2388, 571, 549, 548
10080, 2388, 549, 571, 2359
10081, 1394, 1141, 1140, 1417
10082, 1140, 1141, 1394, 2406
10083, 1140, 1416, 1394, 1417
10084, 1394, 1416, 1140, 2406
10085, 2406, 2377, 1139, 1140
10086, 1139, 2377, 2406, 1393
10087, 1139, 1416, 2406, 1140
10088, 2406, 1416, 1139, 1393
10089, 1331, 1353, 1239, 1330
10090, 1331, 1239, 1353, 2375
10091, 1238, 1239, 1353, 1330
10092, 1238, 1353, 1239, 2375
10093, 2391, 1264, 2410, 2390
10094, 2391, 2410, 1264, 1287
10095, 2402, 1327, 2383, 1235
10096, 2402, 2383, 1327, 1350
10097, 1234, 2383, 1327, 1235
10098, 1319, 543, 2353, 520
10099, 521, 2353, 543, 520
10100, 521, 543, 2353, 2392
10101, 2410, 2391, 2343, 1310
10102, 2410, 2343, 2391, 534
10103, 511, 2343, 2391, 1310
10104, 511, 2391, 2343, 534
10105, 542, 1318, 541, 519
10106, 542, 541, 1318, 2365
10107, 518, 541, 1318, 519
10108, 518, 1318, 541, 2365
10109, 2411, 2393, 1197, 2384
10110, 2411, 1197, 2393, 2408
10111, 2384, 1426, 1172, 1403
10112, 2384, 1172, 1426, 1150
10113, 1149, 1172, 1426, 1403
10114, 1149, 1426, 1172, 1150
10115, 537, 1313, 536, 514
10116, 537, 536, 1313, 2408
10117, 513, 536, 1313, 514
10118, 513, 1313, 536, 2408
10119, 1433, 2387, 2348, 1157
10120, 2348, 2387, 1433, 1410
10121, 2348, 1156, 1433, 1157
10122, 1433, 1156, 2348, 1410
10123, 555, 577, 2366, 578
10124, 2366, 577, 555, 2374
10125, 2394, 567, 2392, 2369
10126, 2394, 2392, 567, 544
10127, 1159, 1435, 2336, 243
10128, 1159, 2336, 1435, 2409
10129, 220, 2336, 1435, 243
10130, 220, 1435, 2336, 2409
10131, 53, 2313, 1137, 221
10132, 53, 1137, 2313, 439
10133, 1413, 1137, 2313, 221
10134, 1413, 2313, 1137, 439
10135, 1146, 2320, 1169, 1147
10136, 1146, 1169, 2320, 1399
10137, 2320, 1400, 2375, 1147
10138, 2320, 2375, 1400, 1399
10139, 1170, 2320, 2375, 1147
10140, 1169, 2320, 1170, 1147
10141, 2382, 1372, 2406, 1371
10142, 1394, 2406, 1372, 1371
10143, 1394, 1372, 2406, 2311
10144, 2311, 1141, 1394, 1395
10145, 1142, 2311, 1141, 1164
10146, 1142, 1141, 2311, 1395
10147, 1165, 2311, 1142, 1164
10148, 1165, 1142, 2311, 1395
10149, 2320, 1422, 230, 1146
10150, 2320, 230, 1422, 1423
10151, 231, 2320, 230, 1146
10152, 231, 230, 2320, 1423
10153, 1147, 2320, 231, 1146
10154, 1147, 231, 2320, 1423
10155, 2318, 1418, 226, 1142
10156, 2318, 226, 1418, 1419
10157, 227, 2318, 226, 1142
10158, 227, 226, 2318, 1419
10159, 1143, 2318, 227, 1142
10160, 1143, 227, 2318, 1419
10161, 1395, 2318, 1165, 1142
10162, 1143, 1165, 2318, 1142
10163, 1143, 2318, 1165, 2363
10164, 2376, 2404, 2363, 1166
10165, 2363, 2404, 1165, 1166
10166, 2406, 1141, 2311, 1164
10167, 2406, 2311, 1141, 1394
10168, 1297, 1296, 2353, 1319
10169, 1297, 2353, 1296, 2392
10170, 543, 2353, 1296, 1319
10171, 543, 1296, 2353, 2392
10172, 1357, 2384, 1379, 1380
10173, 1357, 1379, 2384, 2410
10174, 1172, 2384, 1195, 1173
10175, 1172, 1195, 2384, 2410
10176, 1196, 1195, 2384, 1173
10177, 1324, 1346, 2377, 1231
10178, 2377, 1346, 1324, 1347
10179, 602, 580, 2390, 579
10180, 2390, 580, 602, 1218
10181, 531, 2330, 2414, 508
10182, 531, 2414, 2330, 2398
10183, 1307, 2414, 2330, 508
10184, 1307, 2330, 2414, 2398
10185, 1214, 1192, 599, 1215
10186, 577, 599, 1192, 1215
10187, 1399, 1169, 2321, 1146
10188, 1399, 2321, 1169, 2368
10189, 1145, 2321, 1168, 1146
10190, 1145, 1168, 2321, 2368
10191, 2321, 1169, 1168, 1146
10192, 2321, 1168, 1169, 2368
10193, 577, 576, 1192, 599
10194, 577, 1192, 576, 2368
10195, 1214, 1192, 576, 599
10196, 1214, 576, 1192, 2368
10197, 2415, 2338, 2396, 562
10198, 2415, 2396, 2338, 2385
10199, 539, 2396, 2338, 562
10200, 539, 2338, 2396, 2385
10201, 2360, 1280, 1302, 1303
10202, 2360, 1302, 1280, 2310
10203, 2318, 1165, 2404, 1395
10204, 2404, 1165, 2318, 2363
10205, 2404, 1396, 2318, 1395
10206, 2318, 1396, 2404, 2363
10207, 1440, 2397, 1251, 1439
10208, 1440, 1251, 2397, 1274
10209, 2323, 2413, 1285, 2398
10210, 1285, 2413, 2323, 1262
10211, 2357, 1208, 2327, 570
10212, 2357, 2327, 1208, 1185
10213, 543, 2340, 1319, 1296
10214, 543, 1319, 2340, 542
10215, 1318, 1319, 2340, 1296
10216, 1318, 2340, 1319, 542
10217, 1247, 1269, 2385, 1270
10218, 1362, 1269, 2385, 1247
10219, 1362, 2385, 1269, 2407
10220, 1242, 2410, 1264, 1356
10221, 1242, 1264, 2410, 1265
10222, 1188, 2376, 573, 1211
10223, 573, 2376, 1188, 2404
10224, 573, 2382, 1188, 1211
10225, 1188, 2382, 573, 2404
10226, 2399, 1225, 1203, 588
10227, 2399, 1203, 1225, 1202
10228, 2384, 1195, 1218, 2410
10229, 1218, 1195, 2384, 1196
10230, 1218, 1219, 2384, 2410
10231, 2384, 1219, 1218, 1196
10232, 1298, 2405, 2373, 453
10233, 2373, 2405, 1298, 1275
10234, 1349, 1327, 2383, 1350
10235, 1349, 2383, 1327, 1234
10236, 2317, 1397, 1144, 1167
10237, 1144, 1397, 2317, 1398
10238, 1144, 1145, 2317, 1167
10239, 2317, 1145, 1144, 1398
10240, 1263, 1356, 2413, 1240
10241, 1263, 2413, 1356, 2390
10242, 1355, 2413, 1356, 1240
10243, 1355, 1356, 2413, 2390
10244, 1279, 1302, 2310, 1280
10245, 2310, 1302, 1279, 2388
10246, 2310, 2382, 1279, 1280
10247, 1279, 2382, 2310, 2388
10248, 2320, 2375, 1169, 1170
10249, 2320, 1169, 2375, 1399
10250, 1372, 2406, 2404, 2382
10251, 1372, 2404, 2406, 2311
10252, 2404, 2363, 1373, 2376
10253, 2404, 1373, 2363, 1396
*ELEMENT, type=C3D4, ELSET=Volume3
10254, 1338, 1337, 261, 2441
10255, 1335, 1334, 258, 2442
10256, 1664, 1665, 245, 2459
10257, 1674, 1675, 255, 2443
10258, 247, 1666, 1667, 2460
10259, 1672, 1673, 253, 2425
10260, 3, 1663, 244, 2456
10261, 1732, 416, 2461, 2523
10262, 261, 1337, 260, 2441
10263, 258, 1334, 257, 2442
10264, 246, 245, 1665, 2459
10265, 247, 1667, 248, 2460
10266, 256, 255, 1675, 2443
10267, 253, 1673, 254, 2425
10268, 1732, 2453, 416, 2523
10269, 2458, 2481, 2472, 2506
10270, 1543, 1408, 2484, 2505
10271, 1540, 2483, 1405, 2514
10272, 1712, 2486, 1597, 2504
10273, 1381, 1358, 1359, 2499
10274, 1382, 1381, 1359, 2499
10275, 421, 2461, 416, 2523
10276, 1597, 2486, 1598, 2504
10277, 1542, 2485, 1407, 2505
10278, 1385, 1384, 2433, 2505
10279, 417, 416, 2453, 2523
10280, 1713, 1597, 1712, 2486
10281, 1597, 1713, 1598, 2486
10282, 428, 427, 2454, 2523
10283, 1353, 2424, 2497, 2512
10284, 1598, 2486, 1621, 2504
10285, 2424, 1649, 2497, 2512
10286, 1754, 1753, 2436, 2491
10287, 1724, 1725, 1609, 2514
10288, 1610, 1609, 1725, 2514
10289, 1726, 1611, 2485, 2505
10290, 1610, 1725, 2494, 2514
10291, 1724, 2494, 1725, 2514
10292, 2485, 2495, 1407, 2505
10293, 1527, 1393, 1528, 2504
10294, 1393, 1527, 1392, 2504
10295, 436, 431, 2506, 2520
10296, 1406, 2494, 1405, 2514
10297, 1543, 1408, 1544, 2484
10298, 1409, 1544, 1408, 2484
10299, 1542, 2476, 2485, 2505
10300, 1542, 1408, 1543, 2505
10301, 1407, 1408, 1542, 2505
10302, 1646, 2422, 1623, 2509
10303, 1595, 2481, 1710, 2501
10304, 1598, 1621, 1620, 2504
10305, 1620, 1597, 1598, 2504
10306, 1611, 2495, 2485, 2505
10307, 1714, 2480, 1715, 2513
10308, 1517, 2483, 1540, 2514
10309, 436, 435, 431, 2520
10310, 431, 435, 430, 2520
10311, 1527, 2501, 1392, 2504
10312, 1710, 2481, 2474, 2501
10313, 1600, 1715, 2480, 2513
10314, 1404, 1405, 1539, 2483
10315, 1539, 1405, 1540, 2483
10316, 1609, 2483, 1724, 2514
10317, 1621, 2486, 2468, 2504
10318, 1383, 2494, 1406, 2514
10319, 1391, 2481, 1526, 2520
10320, 1383, 2495, 2494, 2514
10321, 1543, 2484, 1520, 2505
10322, 1403, 2483, 2496, 2498
10323, 1610, 2494, 2495, 2514
10324, 1598, 2473, 1621, 2486
10325, 1713, 2473, 1598, 2486
10326, 1520, 2505, 2484, 2515
10327, 1395, 2493, 1394, 2513
10328, 1526, 2481, 2474, 2520
10329, 1726, 2485, 2476, 2505
10330, 1732, 2461, 2503, 2523
10331, 1727, 1612, 1726, 2505
10332, 1611, 1726, 1612, 2505
10333, 2433, 2495, 1657, 2505
10334, 1391, 1526, 2481, 2501
10335, 1716, 2489, 1601, 2509
10336, 1403, 1404, 2483, 2498
10337, 1527, 1528, 2475, 2504
10338, 1527, 2475, 2501, 2504
10339, 1721, 2500, 1720, 2518
10340, 1536, 2500, 1537, 2518
10341, 1595, 1710, 2481, 2508
10342, 2426, 2498, 2483, 2514
10343, 1540, 1405, 2494, 2514
10344, 1720, 1721, 1605, 2500
10345, 1721, 1606, 1605, 2500
10346, 1536, 1401, 1537, 2500
10347, 1537, 1401, 1402, 2500
10348, 1394, 1530, 1529, 2493
10349, 1394, 1395, 1530, 2493
10350, 1540, 1406, 1541, 2494
10351, 1406, 1540, 1405, 2494
10352, 1719, 1603, 1718, 2490
10353, 1604, 1603, 1719, 2490
10354, 1716, 1717, 1601, 2489
10355, 1602, 1601, 1717, 2489
10356, 1534, 1400, 1535, 2490
10357, 1399, 1400, 1534, 2490
10358, 1532, 1397, 1533, 2489
10359, 1603, 2490, 1604, 2497
10360, 1400, 2490, 1399, 2497
10361, 2474, 2481, 1526, 2501
10362, 1348, 2468, 2473, 2486
10363, 1722, 1607, 2477, 2498
10364, 1722, 2477, 2496, 2498
10365, 1403, 2496, 2477, 2498
10366, 1720, 2500, 1743, 2518
10367, 1513, 2500, 1536, 2518
10368, 1610, 2495, 1633, 2514
10369, 1710, 2474, 2481, 2508
10370, 2433, 1384, 2495, 2505
10371, 1595, 1710, 1711, 2501
10372, 1711, 1596, 1595, 2501
10373, 2489, 1397, 2512, 2521
10374, 1544, 1410, 1545, 2484
10375, 1409, 1410, 1544, 2484
10376, 1615, 2479, 2491, 2517
10377, 1615, 2491, 1730, 2517
10378, 1403, 1404, 1538, 2483
10379, 1539, 1538, 1404, 2483
10380, 1600, 2480, 1715, 2509
10381, 1600, 1715, 1601, 2509
10382, 1716, 1601, 1715, 2509
10383, 1722, 2483, 1607, 2498
10384, 1722, 2496, 2483, 2498
10385, 1397, 2489, 1532, 2521
10386, 1803, 1802, 1807, 2510
10387, 1807, 1808, 1803, 2510
10388, 1410, 1545, 2484, 2492
10389, 1353, 1352, 2424, 2512
10390, 1743, 2500, 2488, 2518
10391, 1513, 2488, 2500, 2518
10392, 1658, 2433, 1657, 2505
10393, 1621, 2473, 2468, 2486
10394, 1528, 1393, 2486, 2504
10395, 1390, 2481, 1391, 2520
10396, 1403, 2483, 1538, 2496
10397, 1544, 2484, 1545, 2492
10398, 1617, 1618, 2458, 2481
10399, 1609, 1608, 1723, 2483
10400, 1724, 1609, 1723, 2483
10401, 1596, 2501, 1711, 2504
10402, 1615, 2479, 1730, 2491
10403, 1617, 2455, 428, 2506
10404, 2453, 1732, 2508, 2523
10405, 1724, 2483, 1747, 2514
10406, 2474, 2503, 2481, 2508
10407, 1394, 1371, 1372, 2513
10408, 1372, 1395, 1394, 2513
10409, 1726, 1611, 1725, 2485
10410, 1611, 1610, 1725, 2485
10411, 1406, 1542, 1541, 2485
10412, 1407, 1542, 1406, 2485
10413, 1383, 1406, 2494, 2495
10414, 1610, 1725, 2485, 2494
10415, 1406, 2485, 1541, 2494
10416, 1610, 2494, 2485, 2495
10417, 2485, 2494, 1406, 2495
10418, 1503, 1504, 2452, 2501
10419, 1602, 2489, 2478, 2512
10420, 1394, 1529, 2486, 2493
10421, 1539, 1538, 2483, 2496
10422, 1543, 1544, 1521, 2484
10423, 1521, 1520, 1543, 2484
10424, 1370, 2468, 2486, 2504
10425, 1747, 2483, 2471, 2514
10426, 1747, 2471, 2494, 2514
10427, 1716, 1715, 1738, 2509
10428, 1738, 1739, 1716, 2509
10429, 1367, 435, 436, 2520
10430, 1727, 1726, 2476, 2505
10431, 1530, 2493, 1395, 2513
10432, 1391, 1526, 1525, 2520
10433, 1403, 1538, 2477, 2496
10434, 1603, 2478, 1718, 2490
10435, 1602, 1717, 2478, 2489
10436, 1399, 1534, 2478, 2490
10437, 2478, 2490, 1603, 2497
10438, 1399, 2490, 2478, 2497
10439, 1384, 1407, 2495, 2505
10440, 1546, 1545, 2479, 2519
10441, 1721, 1720, 1743, 2518
10442, 1743, 1744, 1721, 2518
10443, 1536, 1537, 1514, 2518
10444, 1514, 1513, 1536, 2518
10445, 1410, 2479, 1545, 2492
10446, 1738, 2480, 1739, 2509
10447, 1610, 2485, 1611, 2495
10448, 1407, 2485, 1406, 2495
10449, 1537, 2500, 1402, 2518
10450, 428, 2455, 433, 2506
10451, 1715, 2480, 1738, 2509
10452, 1714, 1737, 2480, 2513
10453, 1728, 1612, 1727, 2515
10454, 1728, 1613, 1612, 2515
10455, 1520, 2484, 1521, 2515
10456, 1410, 2484, 2479, 2492
10457, 1720, 1605, 2487, 2500
10458, 1536, 2487, 1401, 2500
10459, 1604, 1719, 2487, 2490
10460, 1400, 2487, 1535, 2490
10461, 1604, 2490, 2487, 2497
10462, 2487, 2490, 1400, 2497
10463, 1621, 2468, 1620, 2504
10464, 1735, 2486, 1712, 2504
10465, 426, 431, 2503, 2523
10466, 2481, 2508, 2503, 2523
10467, 1539, 1517, 1516, 2483
10468, 1539, 1540, 1517, 2483
10469, 1721, 1722, 1607, 2477
10470, 1607, 1606, 1721, 2477
10471, 1403, 1538, 1402, 2477
10472, 1603, 1717, 1718, 2478
10473, 1603, 1602, 1717, 2478
10474, 1533, 1399, 1534, 2478
10475, 1398, 1399, 1533, 2478
10476, 1733, 1710, 2474, 2501
10477, 1737, 2493, 2480, 2513
10478, 1517, 1540, 2494, 2514
10479, 1618, 2481, 1595, 2501
10480, 1402, 2500, 2477, 2518
10481, 1649, 2512, 2424, 2516
10482, 1546, 1545, 1411, 2479
10483, 1545, 1410, 1411, 2479
10484, 2486, 2493, 2473, 2513
10485, 1727, 1612, 2505, 2515
10486, 1808, 1809, 1804, 2517
10487, 1808, 1804, 1803, 2517
10488, 1528, 2486, 2475, 2504
10489, 1545, 2492, 2479, 2519
10490, 1722, 1608, 1607, 2483
10491, 1608, 1722, 1723, 2483
10492, 1364, 1363, 1660, 2484
10493, 1363, 1659, 1660, 2484
10494, 1386, 1408, 1385, 2505
10495, 1634, 2495, 1611, 2505
10496, 1624, 2509, 1601, 2512
10497, 2478, 2497, 1626, 2512
10498, 1659, 2484, 1363, 2505
10499, 2470, 1739, 2480, 2509
10500, 1803, 1777, 1802, 2510
10501, 1711, 2501, 1734, 2504
10502, 1398, 2478, 1533, 2512
10503, 2478, 2489, 1533, 2512
10504, 1395, 1396, 1530, 2480
10505, 1530, 1396, 1531, 2480
10506, 1712, 1597, 1711, 2504
10507, 1597, 1596, 1711, 2504
10508, 1362, 1659, 1363, 2505
10509, 1659, 1362, 1658, 2505
10510, 1405, 1382, 1383, 2514
10511, 1383, 1406, 1405, 2514
10512, 2479, 2482, 1546, 2519
10513, 1530, 1395, 2480, 2513
10514, 1364, 1660, 2479, 2484
10515, 1355, 1354, 1651, 2487
10516, 1535, 1401, 1536, 2487
10517, 1401, 1535, 1400, 2487
10518, 1719, 1720, 1604, 2487
10519, 1720, 1605, 1604, 2487
10520, 1393, 1370, 2486, 2504
10521, 1734, 2501, 2475, 2504
10522, 1387, 2479, 1410, 2484
10523, 1728, 2484, 1613, 2515
10524, 1376, 2478, 1375, 2512
10525, 421, 2503, 2461, 2523
10526, 1376, 1398, 1375, 2478
10527, 1376, 1399, 1398, 2478
10528, 1753, 2491, 2479, 2519
10529, 1391, 1527, 1526, 2501
10530, 1392, 1527, 1391, 2501
10531, 1649, 1626, 2497, 2512
10532, 1517, 2471, 1516, 2483
10533, 417, 2453, 2508, 2523
10534, 1505, 2475, 1528, 2486
10535, 1376, 2497, 2478, 2512
10536, 1498, 2435, 1497, 2515
10537, 1546, 2479, 1411, 2482
10538, 1615, 1730, 2479, 2524
10539, 1615, 1638, 2479, 2517
10540, 2489, 2512, 2509, 2521
10541, 1526, 1503, 2474, 2501
10542, 1758, 2462, 1759, 2486
10543, 1721, 1722, 2477, 2518
10544, 1398, 1375, 2478, 2512
10545, 1641, 2472, 1345, 2506
10546, 1530, 2480, 2493, 2513
10547, 1396, 2480, 1395, 2513
10548, 1328, 2509, 2449, 2512
10549, 1613, 2484, 1636, 2505
10550, 1635, 1612, 1613, 2505
10551, 1613, 1636, 1635, 2505
10552, 2470, 2489, 1739, 2509
10553, 436, 2506, 1367, 2520
10554, 1790, 1468, 1791, 2431
10555, 1329, 1672, 1330, 2424
10556, 1724, 1723, 1746, 2483
10557, 1746, 1747, 1724, 2483
10558, 1735, 2475, 2486, 2504
10559, 2479, 2484, 1660, 2524
10560, 1393, 1529, 1528, 2486
10561, 1394, 1529, 1393, 2486
10562, 1391, 2481, 1368, 2501
10563, 1657, 2433, 1361, 2495
10564, 2481, 2506, 431, 2520
10565, 1624, 1601, 1602, 2512
10566, 1602, 1625, 1624, 2512
10567, 1362, 2433, 1658, 2505
10568, 1481, 2452, 1504, 2501
10569, 1520, 2476, 2505, 2515
10570, 1618, 1595, 1596, 2501
10571, 1596, 1619, 1618, 2501
10572, 1595, 2481, 1594, 2508
10573, 2472, 2481, 1345, 2506
10574, 1754, 1803, 1804, 2517
10575, 1713, 1712, 1735, 2486
10576, 1735, 1736, 1713, 2486
10577, 1817, 1818, 1813, 2482
10578, 1813, 1812, 1817, 2482
10579, 1504, 1527, 2475, 2501
10580, 1730, 2479, 1753, 2491
10581, 1394, 1393, 1371, 2486
10582, 1371, 1393, 1370, 2486
10583, 1819, 1820, 1815, 2517
10584, 1804, 1809, 1805, 2517
10585, 1815, 1814, 1819, 2517
10586, 1810, 1805, 1809, 2517
10587, 1619, 2501, 1596, 2504
10588, 1732, 2503, 2474, 2508
10589, 1618, 2472, 2481, 2501
10590, 1728, 2484, 2434, 2524
10591, 1419, 1396, 1553, 1418
10592, 1416, 1415, 1393, 1550
10593, 1417, 1530, 1529, 1394
10594, 1528, 1393, 1416, 1529
10595, 1416, 1528, 1550, 1393
10596, 1395, 1530, 1417, 1394
10597, 1394, 1416, 1529, 1417
10598, 1416, 1394, 1529, 1393
10599, 1526, 1391, 1525, 1413
10600, 1527, 1391, 1414, 1392
10601, 1423, 1559, 1401, 1424
10602, 1403, 1425, 1561, 1426
10603, 1402, 1559, 1425, 1424
10604, 1559, 1402, 1401, 1424
10605, 1531, 1553, 1396, 1530
10606, 1393, 1527, 1528, 1550
10607, 1530, 1552, 1417, 1529
10608, 1552, 1530, 1417, 1553
10609, 1402, 1559, 1537, 1425
10610, 1416, 1551, 1529, 1552
10611, 1551, 1528, 1416, 1529
10612, 1529, 1417, 1416, 1552
10613, 1422, 1535, 1534, 1400
10614, 1425, 1538, 1537, 1402
10615, 1536, 1423, 1401, 1535
10616, 1528, 1416, 1550, 1551
10617, 1420, 1398, 1533, 1397
10618, 1400, 1534, 1422, 1399
10619, 1423, 1401, 1535, 1400
10620, 1423, 1535, 1422, 1400
10621, 1480, 1756, 1757, 1779
10622, 1561, 1404, 1403, 1426
10623, 1526, 1548, 1413, 1525
10624, 1548, 1526, 1413, 1549
10625, 1401, 1559, 1536, 1537
10626, 1402, 1559, 1401, 1537
10627, 1536, 1423, 1559, 1401
10628, 1558, 1536, 1423, 1559
10629, 1536, 1558, 1423, 1535
10630, 1533, 1420, 1555, 1556
10631, 1556, 1534, 1422, 1557
10632, 1535, 1558, 1422, 1557
10633, 1560, 1537, 1559, 1425
10634, 1538, 1425, 1560, 1561
10635, 1538, 1425, 1537, 1560
10636, 1422, 1535, 1557, 1534
10637, 1535, 1423, 1422, 1558
10638, 1404, 1538, 1561, 1403
10639, 1674, 1354, 1651, 1355
10640, 1712, 1690, 1597, 1713
10641, 1405, 1404, 1562, 1427
10642, 1597, 1690, 1598, 1713
10643, 1575, 1597, 1690, 1598
10644, 1606, 1699, 1584, 1607
10645, 1562, 1428, 1405, 1427
10646, 1597, 1575, 1690, 1574
10647, 1539, 1561, 1404, 1538
10648, 1606, 1699, 1583, 1584
10649, 1600, 1693, 1715, 1577
10650, 1433, 1411, 1568, 1410
10651, 1565, 1408, 1430, 1431
10652, 1563, 1406, 1405, 1428
10653, 1411, 1433, 1568, 1434
10654, 1407, 1429, 1564, 1430
10655, 1429, 1407, 1564, 1406
10656, 1432, 1433, 1568, 1410
10657, 1577, 1692, 1693, 1715
10658, 1428, 1562, 1405, 1563
10659, 1600, 1578, 1693, 1577
10660, 1597, 1596, 1574, 1711
10661, 1565, 1408, 1431, 1543
10662, 1546, 1568, 1434, 1411
10663, 1578, 1693, 1579, 1601
10664, 1607, 1585, 1699, 1584
10665, 1595, 1711, 1573, 1596
10666, 1719, 1603, 1581, 1718
10667, 1721, 1699, 1607, 1722
10668, 1580, 1717, 1718, 1603
10669, 1578, 1600, 1693, 1601
10670, 1600, 1693, 1601, 1715
10671, 1596, 1573, 1574, 1711
10672, 1431, 1408, 1544, 1543
10673, 1581, 1604, 1603, 1719
10674, 1561, 1539, 1404, 1562
10675, 1562, 1404, 1405, 1539
10676, 1606, 1699, 1607, 1721
10677, 1580, 1602, 1717, 1603
10678, 1581, 1603, 1580, 1718
10679, 1409, 1431, 1544, 1432
10680, 1431, 1409, 1544, 1408
10681, 1409, 1432, 1544, 1410
10682, 1579, 1602, 1601, 1717
10683, 1602, 1580, 1717, 1579
10684, 1716, 1601, 1693, 1715
10685, 1405, 1562, 1539, 1540
10686, 1658, 1680, 1338, 1681
10687, 1695, 1717, 1580, 1694
10688, 1717, 1695, 1580, 1718
10689, 1697, 1719, 1581, 1696
10690, 1719, 1581, 1696, 1718
10691, 1545, 1568, 1546, 1411
10692, 1406, 1542, 1564, 1541
10693, 1563, 1541, 1406, 1564
10694, 1565, 1542, 1408, 1543
10695, 1541, 1563, 1406, 1540
10696, 1717, 1579, 1580, 1694
10697, 1545, 1568, 1411, 1410
10698, 1406, 1540, 1563, 1405
10699, 1542, 1406, 1564, 1407
10700, 1405, 1562, 1540, 1563
10701, 1569, 1568, 1434, 1546
10702, 1544, 1431, 1543, 1566
10703, 1566, 1543, 1565, 1431
10704, 1612, 1589, 1590, 1705
10705, 1674, 1331, 1354, 1332
10706, 1332, 1354, 1674, 1355
10707, 1609, 1587, 1702, 1586
10708, 1587, 1609, 1702, 1610
10709, 1702, 1587, 1610, 1588
10710, 1362, 1681, 1658, 1361
10711, 1659, 1362, 1363, 1682
10712, 1681, 1659, 1362, 1658
10713, 1682, 1659, 1362, 1681
10714, 1660, 1659, 1363, 1682
10715, 1458, 1480, 1780, 1457
10716, 1658, 1338, 1361, 1681
10717, 1611, 1725, 1588, 1726
10718, 1608, 1586, 1609, 1723
10719, 1589, 1611, 1726, 1612
10720, 1725, 1611, 1588, 1610
10721, 1611, 1589, 1726, 1588
10722, 1723, 1586, 1609, 1724
10723, 1727, 1705, 1612, 1728
10724, 1609, 1702, 1610, 1725
10725, 1588, 1610, 1702, 1725
10726, 1701, 1723, 1586, 1700
10727, 1586, 1701, 1702, 1724
10728, 1701, 1723, 1724, 1586
10729, 1588, 1702, 1703, 1725
10730, 1726, 1588, 1703, 1725
10731, 1589, 1726, 1703, 1704
10732, 1726, 1588, 1589, 1703
10733, 1682, 1362, 1340, 1339
10734, 1682, 1362, 1363, 1340
10735, 1681, 1339, 1338, 1361
10736, 1339, 1681, 1362, 1361
10737, 1362, 1682, 1681, 1339
10738, 1526, 2474, 1503, 2520
10739, 1749, 2476, 1726, 2485
10740, 1542, 2476, 1519, 2485
10741, 1576, 1714, 1691, 2466
10742, 1348, 2468, 1644, 2473
10743, 1722, 2477, 1745, 2496
10744, 1538, 1515, 2477, 2496
10745, 1626, 2478, 1603, 2497
10746, 1399, 2478, 1376, 2497
10747, 1409, 1386, 1387, 2484
10748, 1387, 1410, 1409, 2484
10749, 1481, 2475, 1757, 2501
10750, 2462, 2475, 1459, 2486
10751, 428, 427, 423, 2454
10752, 422, 423, 427, 2454
10753, 1724, 1747, 2494, 2514
10754, 1714, 1737, 1715, 2480
10755, 1738, 1715, 1737, 2480
10756, 1670, 2449, 1328, 2509
10757, 1607, 2483, 1608, 2498
10758, 1376, 1353, 2497, 2512
10759, 2431, 1492, 2496, 2518
10760, 1363, 2484, 1386, 2505
10761, 1738, 2470, 1739, 2480
10762, 1507, 1530, 2480, 2493
10763, 1638, 2469, 2479, 2517
10764, 423, 27, 1594, 2465
10765, 1501, 268, 1806, 2437
10766, 1822, 219, 1412, 2439
10767, 1364, 2479, 1387, 2484
10768, 1745, 2477, 1722, 2518
10769, 1538, 2477, 1515, 2518
10770, 1651, 1355, 2487, 2500
10771, 1746, 2471, 1747, 2483
10772, 1647, 2449, 1670, 2509
10773, 1460, 2462, 1459, 2486
10774, 1577, 1692, 1715, 2466
10775, 1758, 2475, 2462, 2486
10776, 1805, 1708, 1804, 2517
10777, 1368, 2481, 2472, 2501
10778, 1745, 2496, 2477, 2518
10779, 2477, 2496, 1515, 2518
10780, 1358, 2499, 2498, 2514
10781, 1711, 1710, 1733, 2501
10782, 1734, 1711, 1733, 2501
10783, 2498, 2499, 2483, 2514
10784, 1722, 1723, 2483, 2496
10785, 1662, 1820, 1825, 2507
10786, 1413, 434, 435, 2520
10787, 2482, 2491, 1546, 2519
10788, 1800, 1801, 1802, 2510
10789, 1385, 1407, 1384, 2505
10790, 1408, 1407, 1385, 2505
10791, 2482, 2491, 2479, 2517
10792, 2469, 2482, 2479, 2517
10793, 1768, 2431, 2496, 2518
10794, 1393, 1392, 1370, 2504
10795, 1743, 2488, 1766, 2518
10796, 1513, 1490, 2488, 2518
10797, 1435, 219, 220, 2439
10798, 1435, 1412, 219, 2439
10799, 269, 268, 1524, 2437
10800, 1524, 268, 1501, 2437
10801, 29, 28, 1617, 2455
10802, 27, 26, 1571, 2465
10803, 1594, 27, 1571, 2465
10804, 1716, 1739, 2489, 2509
10805, 1364, 1386, 1363, 2484
10806, 1364, 1387, 1386, 2484
10807, 1768, 2431, 1791, 2496
10808, 1679, 1336, 1678, 2514
10809, 426, 2503, 431, 2520
10810, 1645, 1644, 2473, 2513
10811, 1619, 2472, 1618, 2501
10812, 1360, 2495, 1383, 2514
10813, 1615, 1730, 1707, 2517
10814, 1755, 2461, 415, 2502
10815, 1636, 2484, 1659, 2505
10816, 2449, 2509, 1647, 2512
10817, 1501, 2437, 1806, 2510
10818, 1362, 1363, 1385, 2505
10819, 1363, 1386, 1385, 2505
10820, 1509, 2489, 2470, 2521
10821, 1531, 2480, 1396, 2521
10822, 1732, 1733, 1710, 2474
10823, 1626, 1649, 1648, 2512
10824, 1648, 1625, 1626, 2512
10825, 1664, 1641, 1345, 2506
10826, 1664, 1345, 1322, 2506
10827, 1503, 2474, 1502, 2520
10828, 1632, 1609, 1610, 2514
10829, 1610, 1633, 1632, 2514
10830, 431, 432, 2506, 2523
10831, 1644, 2468, 1621, 2473
10832, 423, 2465, 1594, 2508
10833, 1637, 1660, 2484, 2524
10834, 1619, 2472, 2501, 2504
10835, 1412, 1822, 2439, 2511
10836, 2473, 2486, 1713, 2493
10837, 1631, 2483, 2426, 2498
10838, 1509, 2470, 2480, 2521
10839, 1655, 1678, 1677, 2514
10840, 1637, 2484, 1636, 2524
10841, 1679, 1678, 1656, 2514
10842, 1678, 1655, 1656, 2514
10843, 1368, 1345, 2472, 2481
10844, 1731, 1730, 2491, 2517
10845, 1677, 2442, 1676, 2498
10846, 1808, 2510, 1813, 2517
10847, 2481, 2503, 431, 2523
10848, 1390, 435, 1367, 2520
10849, 427, 432, 431, 2523
10850, 417, 422, 421, 2523
10851, 431, 426, 427, 2523
10852, 421, 416, 417, 2523
10853, 1751, 2434, 1728, 2484
10854, 1527, 1528, 1505, 2475
10855, 1505, 1504, 1527, 2475
10856, 1727, 1726, 1749, 2476
10857, 1749, 1750, 1727, 2476
10858, 1542, 1520, 1519, 2476
10859, 1707, 1708, 1593, 2517
10860, 1594, 2508, 2481, 2523
10861, 1734, 1733, 1756, 2501
10862, 1756, 1757, 1734, 2501
10863, 1708, 1707, 1730, 2517
10864, 1730, 1731, 1708, 2517
10865, 1615, 1707, 1730, 2524
10866, 1503, 1502, 1525, 2520
10867, 1526, 1503, 1525, 2520
10868, 1636, 1659, 1658, 2505
10869, 1658, 1635, 1636, 2505
10870, 1389, 2444, 1823, 2507
10871, 1523, 1546, 2491, 2519
10872, 2480, 2513, 1396, 2521
10873, 1736, 1713, 2486, 2493
10874, 1656, 1633, 2495, 2514
10875, 2454, 2508, 1594, 2523
10876, 1545, 1522, 2492, 2519
10877, 1752, 2519, 1753, 2524
10878, 1767, 2431, 1768, 2518
10879, 1630, 2477, 1607, 2498
10880, 1825, 1820, 1824, 2507
10881, 1824, 1820, 1819, 2507
10882, 1371, 1348, 1349, 2513
10883, 1349, 1372, 1371, 2513
10884, 2484, 2492, 2434, 2524
10885, 1815, 1820, 1639, 2517
10886, 1810, 1616, 1805, 2517
10887, 1794, 2448, 1795, 2485
10888, 1473, 2448, 1472, 2485
10889, 1389, 218, 1823, 2444
10890, 1672, 2424, 1649, 2497
10891, 1634, 1611, 1612, 2505
10892, 1635, 1634, 1612, 2505
10893, 1637, 1660, 1659, 2484
10894, 1636, 1637, 1659, 2484
10895, 2509, 2513, 2480, 2521
10896, 2434, 2484, 1751, 2492
10897, 1760, 1783, 1761, 2480
10898, 1784, 1761, 1783, 2480
10899, 2479, 2491, 2482, 2519
10900, 1600, 1622, 1599, 2513
10901, 433, 432, 428, 2506
10902, 1535, 2487, 1536, 2488
10903, 1719, 1720, 2487, 2488
10904, 1800, 1799, 2447, 2491
10905, 1819, 2507, 1820, 2517
10906, 1571, 2465, 418, 2508
10907, 1631, 2426, 1654, 2498
10908, 1366, 1365, 2440, 2469
10909, 1434, 2482, 1411, 2511
10910, 1350, 1328, 1351, 2509
10911, 1728, 1613, 2484, 2524
10912, 1628, 2487, 1605, 2500
10913, 1401, 2487, 1378, 2500
10914, 1604, 2487, 1627, 2497
10915, 1377, 2487, 1400, 2497
10916, 1411, 2479, 1388, 2482
10917, 1370, 1347, 2468, 2504
10918, 1782, 2462, 1460, 2486
10919, 1806, 1802, 1801, 2510
10920, 1802, 1806, 1807, 2510
10921, 1824, 2444, 1366, 2507
10922, 1330, 2424, 1672, 2497
10923, 1355, 1377, 1354, 2487
10924, 1355, 1378, 1377, 2487
10925, 1627, 1604, 1605, 2487
10926, 1627, 1605, 1628, 2487
10927, 1628, 1651, 1650, 2487
10928, 1627, 1628, 1650, 2487
10929, 1378, 1400, 1377, 2487
10930, 1401, 1400, 1378, 2487
10931, 1478, 2447, 1477, 2491
10932, 1777, 1803, 1754, 2510
10933, 1721, 1744, 1722, 2518
10934, 1744, 1745, 1722, 2518
10935, 1514, 1537, 1515, 2518
10936, 1537, 1538, 1515, 2518
10937, 1484, 1485, 1462, 2480
10938, 1782, 1759, 2462, 2486
10939, 1391, 1368, 1369, 2501
10940, 1392, 1391, 1369, 2501
10941, 1593, 1616, 1615, 2517
10942, 1324, 1323, 1666, 2504
10943, 1665, 1666, 1323, 2504
10944, 1617, 2454, 1594, 2523
10945, 1647, 1669, 1646, 2509
10946, 1670, 1669, 1647, 2509
10947, 1370, 2451, 1347, 2504
10948, 1748, 2485, 1725, 2494
10949, 1541, 2485, 1518, 2494
10950, 1822, 1823, 1818, 2511
10951, 1818, 1817, 1822, 2511
10952, 1435, 2439, 1821, 2511
10953, 1466, 2428, 1465, 2490
10954, 1788, 2429, 1789, 2488
10955, 1786, 1785, 2467, 2489
10956, 1472, 2432, 1471, 2494
10957, 1797, 2446, 1798, 2492
10958, 1782, 2463, 1783, 2493
10959, 1330, 2425, 1331, 2497
10960, 1470, 2430, 1469, 2496
10961, 1680, 2441, 1679, 2495
10962, 1390, 1367, 1368, 2481
10963, 1390, 1368, 1391, 2481
10964, 1617, 1594, 1595, 2481
10965, 1595, 1618, 1617, 2481
10966, 1811, 269, 2438, 2522
10967, 1367, 2506, 2481, 2520
10968, 1330, 1353, 2424, 2497
10969, 1755, 2461, 2502, 2503
10970, 1657, 2495, 1634, 2505
10971, 1649, 1648, 2512, 2516
10972, 1382, 1359, 1360, 2514
10973, 1360, 1383, 1382, 2514
10974, 1546, 1411, 1434, 2482
10975, 1813, 2482, 1818, 2507
10976, 1733, 2474, 1756, 2501
10977, 1816, 1811, 2438, 2522
10978, 1361, 2433, 1384, 2495
10979, 1397, 1374, 2512, 2521
10980, 1629, 1606, 2477, 2500
10981, 1379, 2477, 1402, 2500
10982, 1718, 2478, 1741, 2490
10983, 1717, 1740, 2478, 2489
10984, 1511, 2478, 1534, 2490
10985, 1533, 2478, 1510, 2489
10986, 1737, 1760, 2480, 2493
10987, 1779, 1480, 1756, 2474
10988, 1467, 2429, 1466, 2488
10989, 1464, 2467, 1463, 2489
10990, 1788, 1787, 2428, 2490
10991, 1476, 2446, 1475, 2492
10992, 1460, 1461, 2463, 2493
10993, 1793, 2432, 1794, 2494
10994, 1338, 1337, 2441, 2495
10995, 1673, 2425, 1672, 2497
10996, 1792, 1791, 2430, 2496
10997, 1366, 1825, 1824, 2507
10998, 1388, 2479, 2469, 2482
10999, 1812, 2482, 1813, 2510
11000, 1490, 1491, 1468, 2518
11001, 1766, 1789, 1767, 2518
11002, 1767, 1789, 1790, 2518
11003, 1368, 2472, 1369, 2501
11004, 1521, 2484, 2492, 2515
11005, 1821, 1435, 220, 2439
11006, 418, 1571, 26, 2465
11007, 1617, 28, 428, 2455
11008, 1373, 1396, 2513, 2521
11009, 1591, 1706, 1707, 2524
11010, 1630, 1607, 1608, 2498
11011, 1630, 1608, 1631, 2498
11012, 1403, 1381, 1404, 2498
11013, 1817, 2482, 1812, 2511
11014, 1794, 1472, 2448, 2485
11015, 1473, 1795, 2448, 2485
11016, 415, 2461, 420, 2502
11017, 1594, 1571, 1572, 2508
11018, 1595, 1594, 1572, 2508
11019, 1501, 1806, 1801, 2510
11020, 1800, 2447, 1478, 2491
11021, 416, 1732, 72, 2453
11022, 217, 1366, 1824, 2444
11023, 1676, 2442, 1334, 2498
11024, 1757, 2475, 1734, 2501
11025, 2509, 2512, 1374, 2521
11026, 1509, 1532, 2489, 2521
11027, 2491, 2510, 1754, 2517
11028, 1623, 1600, 1601, 2509
11029, 1623, 1601, 1624, 2509
11030, 1594, 2454, 423, 2508
11031, 426, 431, 430, 2520
11032, 430, 425, 426, 2520
11033, 425, 424, 420, 2520
11034, 430, 434, 429, 2520
11035, 430, 435, 434, 2520
11036, 1754, 1804, 1731, 2517
11037, 1664, 1345, 1641, 2472
11038, 2481, 2503, 2474, 2520
11039, 1822, 1412, 1823, 2511
11040, 1662, 1820, 2507, 2517
11041, 1672, 1329, 1671, 2516
11042, 1714, 2473, 1713, 2493
11043, 1492, 2431, 1491, 2518
11044, 1465, 1787, 1464, 2478
11045, 1464, 1787, 1786, 2478
11046, 1676, 1334, 1333, 2477
11047, 1675, 1676, 1333, 2477
11048, 431, 2503, 2481, 2520
11049, 1643, 1666, 1665, 2504
11050, 1665, 1642, 1643, 2504
11051, 420, 2502, 2461, 2503
11052, 1509, 2480, 1508, 2521
11053, 1617, 1594, 2481, 2523
11054, 1738, 1737, 1760, 2480
11055, 1760, 1761, 1738, 2480
11056, 1504, 1526, 1527, 2501
11057, 1526, 1504, 1503, 2501
11058, 1544, 1521, 2484, 2492
11059, 1743, 1766, 1744, 2518
11060, 1766, 1767, 1744, 2518
11061, 1513, 1491, 1490, 2518
11062, 1491, 1513, 1514, 2518
11063, 1643, 1620, 2468, 2504
11064, 1326, 2450, 1668, 2513
11065, 1730, 1729, 1752, 2524
11066, 1752, 1753, 1730, 2524
11067, 1814, 2507, 1819, 2517
11068, 1731, 1730, 1753, 2491
11069, 1753, 1754, 1731, 2491
11070, 1707, 1706, 1729, 2524
11071, 1707, 1729, 1730, 2524
11072, 1665, 1323, 2472, 2504
11073, 1467, 1789, 2429, 2488
11074, 1465, 2428, 1787, 2490
11075, 1786, 2467, 1464, 2489
11076, 1798, 2446, 1476, 2492
11077, 1793, 1471, 2432, 2494
11078, 1461, 1783, 2463, 2493
11079, 1469, 2430, 1791, 2496
11080, 1672, 2425, 1330, 2497
11081, 1338, 2441, 1680, 2495
11082, 1615, 2479, 1638, 2524
11083, 1516, 2483, 2471, 2496
11084, 1342, 1365, 1364, 2479
11085, 431, 2506, 2481, 2523
11086, 1572, 1686, 1687, 2508
11087, 1571, 1686, 1572, 2508
11088, 1353, 1375, 1352, 2512
11089, 1376, 1375, 1353, 2512
11090, 1808, 1812, 1813, 2510
11091, 1808, 1807, 1812, 2510
11092, 1412, 1411, 2482, 2511
11093, 1395, 1372, 1373, 2513
11094, 1373, 1396, 1395, 2513
11095, 1477, 2447, 1799, 2491
11096, 1813, 1814, 1809, 2517
11097, 1809, 1808, 1813, 2517
11098, 1638, 2479, 1637, 2524
11099, 1665, 2472, 1642, 2504
11100, 1434, 1435, 1570, 2511
11101, 1389, 2482, 2469, 2507
11102, 1412, 1434, 1411, 2511
11103, 1412, 1435, 1434, 2511
11104, 1539, 2483, 1516, 2496
11105, 1377, 1354, 2487, 2497
11106, 1355, 1378, 2487, 2500
11107, 1627, 2487, 1650, 2497
11108, 1628, 1651, 2487, 2500
11109, 1615, 1638, 1637, 2524
11110, 1637, 1614, 1615, 2524
11111, 1735, 2475, 1758, 2486
11112, 1641, 1663, 1640, 2506
11113, 1664, 1663, 1641, 2506
11114, 1509, 2470, 1508, 2480
11115, 1459, 2475, 1482, 2486
11116, 1664, 1322, 1321, 2506
11117, 1321, 1663, 1664, 2506
11118, 1628, 1605, 1606, 2500
11119, 1629, 1628, 1606, 2500
11120, 1714, 1713, 1736, 2493
11121, 1736, 1737, 1714, 2493
11122, 1722, 1745, 1723, 2496
11123, 1746, 1723, 1745, 2496
11124, 1626, 1603, 1604, 2497
11125, 1604, 1627, 1626, 2497
11126, 1401, 1378, 1379, 2500
11127, 1379, 1402, 1401, 2500
11128, 1724, 1747, 1725, 2494
11129, 1748, 1725, 1747, 2494
11130, 1719, 1718, 1741, 2490
11131, 1399, 1376, 1377, 2497
11132, 1377, 1400, 1399, 2497
11133, 1633, 1610, 1611, 2495
11134, 1741, 1742, 1719, 2490
11135, 1611, 1634, 1633, 2495
11136, 1716, 1739, 1717, 2489
11137, 1507, 1506, 1529, 2493
11138, 1529, 1530, 1507, 2493
11139, 1717, 1739, 1740, 2489
11140, 1538, 1516, 1515, 2496
11141, 1719, 1742, 1720, 2488
11142, 1720, 1742, 1743, 2488
11143, 1539, 1516, 1538, 2496
11144, 1383, 1384, 1406, 2495
11145, 1407, 1406, 1384, 2495
11146, 1517, 1540, 1518, 2494
11147, 1540, 1541, 1518, 2494
11148, 1534, 1535, 1512, 2490
11149, 1511, 1534, 1512, 2490
11150, 1544, 1545, 1522, 2492
11151, 1544, 1522, 1521, 2492
11152, 1510, 1509, 1532, 2489
11153, 1532, 1533, 1510, 2489
11154, 1535, 1536, 1513, 2488
11155, 1513, 1512, 1535, 2488
11156, 1410, 1387, 1388, 2479
11157, 1388, 1411, 1410, 2479
11158, 1731, 2491, 1754, 2517
11159, 1817, 1812, 1816, 2511
11160, 1708, 1731, 1804, 2517
11161, 1657, 1634, 1635, 2505
11162, 1658, 1657, 1635, 2505
11163, 1718, 1717, 1740, 2478
11164, 1740, 1741, 1718, 2478
11165, 1511, 1533, 1534, 2478
11166, 1511, 1510, 1533, 2478
11167, 1629, 1606, 1607, 2477
11168, 1607, 1630, 1629, 2477
11169, 1379, 1380, 1402, 2477
11170, 1403, 1402, 1380, 2477
11171, 1608, 2483, 1631, 2498
11172, 1520, 1521, 1498, 2515
11173, 1498, 1497, 1520, 2515
11174, 1686, 1709, 1687, 2508
11175, 1710, 1687, 1709, 2508
11176, 1759, 1736, 1758, 2486
11177, 1735, 1758, 1736, 2486
11178, 1334, 2477, 1676, 2498
11179, 1653, 1676, 2477, 2498
11180, 1656, 1655, 1633, 2514
11181, 1655, 1632, 1633, 2514
11182, 1726, 1725, 1748, 2485
11183, 1749, 1726, 1748, 2485
11184, 1519, 1518, 1541, 2485
11185, 1519, 1541, 1542, 2485
11186, 1465, 1464, 1487, 2478
11187, 1487, 1488, 1465, 2478
11188, 1787, 1764, 1786, 2478
11189, 1764, 1763, 1786, 2478
11190, 1356, 1333, 1334, 2477
11191, 1334, 1357, 1356, 2477
11192, 1675, 1653, 1676, 2477
11193, 1675, 1652, 1653, 2477
11194, 1732, 2461, 1755, 2503
11195, 1546, 1547, 2482, 2511
11196, 1825, 1685, 1662, 2507
11197, 1810, 1815, 1639, 2517
11198, 1708, 1805, 1593, 2517
11199, 1466, 2429, 1788, 2488
11200, 1785, 1463, 2467, 2489
11201, 1788, 2428, 1466, 2490
11202, 1797, 1475, 2446, 2492
11203, 1460, 2463, 1782, 2493
11204, 1794, 2432, 1472, 2494
11205, 1673, 1331, 2425, 2497
11206, 1679, 2441, 1337, 2495
11207, 1792, 2430, 1470, 2496
11208, 1675, 1333, 2443, 2500
11209, 1619, 1642, 2472, 2504
11210, 1814, 1818, 1819, 2507
11211, 1814, 1813, 1818, 2507
11212, 1390, 1413, 435, 2520
11213, 1802, 1777, 1800, 2510
11214, 1375, 1397, 1374, 2512
11215, 1398, 1397, 1375, 2512
11216, 1351, 2509, 1328, 2512
11217, 1507, 2480, 1484, 2493
11218, 436, 437, 1367, 2506
11219, 1622, 2473, 1599, 2513
11220, 1374, 2423, 1351, 2509
11221, 432, 437, 436, 2506
11222, 436, 431, 432, 2506
11223, 1638, 1639, 2469, 2517
11224, 1321, 1322, 1344, 2506
11225, 1322, 1345, 1344, 2506
11226, 1649, 2424, 1672, 2516
11227, 1752, 2434, 1751, 2492
11228, 1367, 2481, 1390, 2520
11229, 1385, 2433, 1362, 2505
11230, 1498, 1475, 2435, 2515
11231, 1814, 1813, 2507, 2517
11232, 2423, 2509, 1374, 2521
11233, 421, 420, 2461, 2503
11234, 1483, 1460, 1482, 2486
11235, 1459, 1482, 1460, 2486
11236, 1530, 1508, 1507, 2480
11237, 1508, 1530, 1531, 2480
11238, 1825, 1343, 1685, 2507
11239, 217, 1389, 1366, 2444
11240, 217, 218, 1389, 2444
11241, 29, 1640, 30, 2457
11242, 30, 1640, 1663, 2457
11243, 72, 1709, 71, 2453
11244, 1709, 72, 1732, 2453
11245, 1481, 1504, 2475, 2501
11246, 1813, 2510, 2482, 2517
11247, 1388, 2469, 1389, 2482
11248, 415, 414, 73, 2502
11249, 2471, 2483, 1746, 2496
11250, 1746, 2483, 1723, 2496
11251, 1684, 2469, 1342, 2479
11252, 1801, 1800, 1478, 2510
11253, 1497, 2476, 1520, 2515
11254, 1661, 1638, 2469, 2479
11255, 1388, 1365, 2469, 2479
11256, 1506, 2486, 1529, 2493
11257, 1668, 1669, 1326, 2513
11258, 1637, 2479, 1660, 2524
11259, 1497, 2435, 1474, 2515
11260, 1752, 2434, 2492, 2524
11261, 1786, 1464, 2478, 2489
11262, 1465, 1787, 2478, 2490
11263, 1675, 2477, 1333, 2500
11264, 1459, 2462, 1781, 2475
11265, 1521, 2492, 1498, 2515
11266, 1464, 1487, 2478, 2489
11267, 1465, 2478, 1488, 2490
11268, 1786, 2478, 1763, 2489
11269, 1787, 1764, 2478, 2490
11270, 1356, 1333, 2477, 2500
11271, 1675, 1652, 2477, 2500
11272, 1342, 2469, 1365, 2479
11273, 1684, 1661, 2469, 2479
11274, 1823, 2507, 1818, 2511
11275, 1324, 1666, 2468, 2504
11276, 2469, 2507, 2482, 2517
11277, 1672, 2424, 1329, 2516
11278, 1812, 2510, 1811, 2522
11279, 1345, 1368, 1367, 2481
11280, 419, 424, 50, 2502
11281, 1324, 2468, 1347, 2504
11282, 1823, 2444, 1824, 2507
11283, 1745, 1768, 2496, 2518
11284, 1492, 1515, 2496, 2518
11285, 1524, 1547, 269, 2522
11286, 269, 1547, 270, 2522
11287, 1776, 2445, 1799, 2519
11288, 1662, 1639, 1820, 2517
11289, 1805, 1616, 1593, 2517
11290, 1814, 1815, 1810, 2517
11291, 1810, 1809, 1814, 2517
11292, 1823, 218, 1824, 2444
11293, 1811, 270, 1816, 2438
11294, 417, 416, 71, 2453
11295, 433, 29, 438, 2457
11296, 2492, 2519, 1752, 2524
11297, 2482, 2507, 1813, 2517
11298, 1666, 1643, 2468, 2504
11299, 1636, 2484, 1613, 2524
11300, 1797, 2435, 1475, 2515
11301, 2482, 2510, 1812, 2511
11302, 1546, 1547, 1524, 2482
11303, 1411, 1388, 1389, 2482
11304, 1411, 1389, 1412, 2482
11305, 1381, 2427, 1358, 2498
11306, 433, 2457, 438, 2506
11307, 1647, 2509, 1624, 2512
11308, 1646, 1623, 1624, 2509
11309, 1624, 1647, 1646, 2509
11310, 1468, 1491, 2431, 2518
11311, 1619, 1597, 1620, 2504
11312, 1597, 1619, 1596, 2504
11313, 269, 270, 2438, 2522
11314, 1462, 2470, 1784, 2480
11315, 425, 2503, 426, 2520
11316, 423, 2454, 422, 2508
11317, 1522, 1545, 1523, 2519
11318, 1546, 1523, 1545, 2519
11319, 1758, 1781, 2462, 2475
11320, 1823, 1389, 2507, 2511
11321, 2454, 422, 2508, 2523
11322, 1825, 217, 1366, 1824
11323, 276, 1810, 1616, 1805
11324, 277, 1708, 1804, 1805
11325, 1815, 1810, 1639, 275
11326, 1815, 1820, 274, 1639
11327, 1820, 1825, 273, 1662
11328, 268, 1801, 1501, 1806
11329, 219, 1822, 1412, 1823
11330, 1803, 278, 1754, 1804
11331, 1802, 279, 1777, 1803
11332, 1801, 280, 1800, 1802
11333, 78, 436, 1367, 435
11334, 436, 437, 77, 1367
11335, 435, 1413, 79, 434
11336, 1732, 416, 72, 415
11337, 2424, 2512, 1329, 2516
11338, 1728, 1751, 2484, 2515
11339, 1811, 2510, 2437, 2522
11340, 1811, 1806, 2437, 2510
11341, 1474, 2435, 1796, 2515
11342, 425, 420, 2503, 2520
11343, 1531, 1509, 1508, 2521
11344, 1531, 1532, 1509, 2521
11345, 1615, 1616, 1638, 2517
11346, 1638, 1616, 1639, 2517
11347, 2481, 2506, 1617, 2523
11348, 2479, 2492, 2484, 2524
11349, 420, 415, 416, 2461
11350, 420, 416, 421, 2461
11351, 1784, 2470, 1761, 2480
11352, 1761, 2420, 1762, 2470
11353, 417, 2508, 422, 2523
11354, 1777, 1754, 2491, 2510
11355, 1739, 2470, 1762, 2489
11356, 1486, 2470, 1509, 2489
11357, 1821, 2439, 1822, 2511
11358, 1622, 2422, 1645, 2513
11359, 1472, 1495, 1473, 2485
11360, 1495, 1496, 1473, 2485
11361, 1772, 1771, 1794, 2485
11362, 1794, 1795, 1772, 2485
11363, 1366, 1343, 1825, 2507
11364, 1777, 1754, 2436, 2491
11365, 1484, 1507, 1485, 2480
11366, 1507, 1508, 1485, 2480
11367, 1485, 2470, 1462, 2480
11368, 1661, 1660, 1638, 2479
11369, 1638, 1660, 1637, 2479
11370, 1364, 1365, 1387, 2479
11371, 1365, 1388, 1387, 2479
11372, 1472, 2485, 1794, 2494
11373, 420, 2502, 2503, 2520
11374, 74, 2464, 1778, 2502
11375, 1374, 2509, 1351, 2512
11376, 1770, 1747, 2471, 2494
11377, 1769, 2471, 1746, 2496
11378, 1494, 2471, 1517, 2494
11379, 1516, 2471, 1493, 2496
11380, 1472, 1495, 2485, 2494
11381, 1771, 1794, 2485, 2494
11382, 1801, 1478, 1501, 2510
11383, 1643, 1620, 1621, 2468
11384, 1644, 1643, 1621, 2468
11385, 1347, 1348, 1370, 2468
11386, 1647, 1624, 1625, 2512
11387, 1647, 1625, 1648, 2512
11388, 1741, 1740, 1763, 2478
11389, 1763, 1764, 1741, 2478
11390, 1487, 1510, 1488, 2478
11391, 1510, 1511, 1488, 2478
11392, 1653, 1652, 1630, 2477
11393, 1630, 1652, 1629, 2477
11394, 1356, 1357, 1379, 2477
11395, 1357, 1380, 1379, 2477
11396, 1751, 2492, 2484, 2515
11397, 1477, 2491, 1799, 2519
11398, 1782, 2486, 1460, 2493
11399, 1796, 2435, 1797, 2515
11400, 423, 418, 2465, 2508
11401, 1482, 2475, 1505, 2486
11402, 1823, 1412, 1389, 2511
11403, 1782, 1759, 2486, 2493
11404, 1476, 1477, 1799, 2519
11405, 1653, 2477, 1630, 2498
11406, 1728, 1706, 1705, 2524
11407, 1729, 1706, 1728, 2524
11408, 2479, 2519, 2492, 2524
11409, 1738, 1761, 2470, 2480
11410, 2474, 2503, 2502, 2520
11411, 1614, 1613, 1591, 2524
11412, 1676, 1653, 1654, 2498
11413, 1654, 1677, 1676, 2498
11414, 1506, 1528, 1529, 2486
11415, 1506, 1505, 1528, 2486
11416, 1460, 2486, 1483, 2493
11417, 1795, 1473, 2476, 2485
11418, 1614, 1637, 1636, 2524
11419, 1636, 1613, 1614, 2524
11420, 1620, 1643, 1642, 2504
11421, 1642, 1619, 1620, 2504
11422, 1531, 1508, 2480, 2521
11423, 1477, 1500, 2491, 2519
11424, 429, 51, 424, 2520
11425, 1476, 2492, 1499, 2519
11426, 1662, 2507, 2469, 2517
11427, 1466, 2488, 1788, 2490
11428, 421, 426, 425, 2503
11429, 425, 420, 421, 2503
11430, 2482, 2511, 1547, 2522
11431, 1800, 2491, 1478, 2510
11432, 1797, 1475, 2492, 2515
11433, 1816, 2438, 270, 2522
11434, 1498, 2492, 1475, 2515
11435, 1477, 1500, 1478, 2491
11436, 1478, 1500, 1501, 2491
11437, 1800, 1777, 1799, 2491
11438, 1812, 2511, 2510, 2522
11439, 417, 2453, 71, 2508
11440, 1639, 1616, 1810, 2517
11441, 1777, 2491, 1800, 2510
11442, 1473, 1496, 2476, 2485
11443, 1795, 2476, 1772, 2485
11444, 1736, 2486, 1759, 2493
11445, 1466, 1489, 2488, 2490
11446, 1788, 2488, 1765, 2490
11447, 419, 414, 415, 2502
11448, 415, 420, 419, 2502
11449, 1524, 2491, 2482, 2510
11450, 1745, 1744, 1767, 2518
11451, 1745, 1767, 1768, 2518
11452, 1491, 1514, 1492, 2518
11453, 1515, 1492, 1514, 2518
11454, 1468, 2431, 1790, 2518
11455, 1502, 2474, 2502, 2520
11456, 1763, 2478, 1740, 2489
11457, 1764, 1741, 2478, 2490
11458, 1510, 2478, 1487, 2489
11459, 1488, 2478, 1511, 2490
11460, 1629, 2477, 1652, 2500
11461, 1379, 1356, 2477, 2500
11462, 1344, 1367, 437, 2506
11463, 1524, 2510, 2482, 2522
11464, 1372, 1349, 1350, 2513
11465, 1372, 1350, 1373, 2513
11466, 1329, 2424, 1352, 2512
11467, 1748, 1771, 1749, 2485
11468, 1772, 1749, 1771, 2485
11469, 1519, 1496, 1518, 2485
11470, 1495, 1518, 1496, 2485
11471, 1653, 1630, 1631, 2498
11472, 1654, 1653, 1631, 2498
11473, 1467, 1466, 1489, 2488
11474, 1467, 1489, 1490, 2488
11475, 1766, 1765, 1788, 2488
11476, 1788, 1789, 1766, 2488
11477, 1486, 1464, 1463, 2489
11478, 1487, 1464, 1486, 2489
11479, 1785, 1763, 1762, 2489
11480, 1786, 1763, 1785, 2489
11481, 1465, 1488, 1466, 2490
11482, 1489, 1466, 1488, 2490
11483, 1788, 1765, 1787, 2490
11484, 1764, 1787, 1765, 2490
11485, 1476, 1475, 1498, 2492
11486, 1498, 1499, 1476, 2492
11487, 1798, 1775, 1797, 2492
11488, 1774, 1797, 1775, 2492
11489, 1461, 1460, 1483, 2493
11490, 1461, 1483, 1484, 2493
11491, 1782, 1760, 1759, 2493
11492, 1782, 1783, 1760, 2493
11493, 1472, 1471, 1494, 2494
11494, 1494, 1495, 1472, 2494
11495, 1770, 1793, 1771, 2494
11496, 1794, 1771, 1793, 2494
11497, 1360, 1337, 1338, 2495
11498, 1361, 1360, 1338, 2495
11499, 1680, 1679, 1657, 2495
11500, 1679, 1656, 1657, 2495
11501, 1330, 1331, 1353, 2497
11502, 1354, 1353, 1331, 2497
11503, 1650, 1673, 1672, 2497
11504, 1672, 1649, 1650, 2497
11505, 1470, 1469, 1492, 2496
11506, 1768, 1791, 1769, 2496
11507, 1470, 1492, 1493, 2496
11508, 1792, 1769, 1791, 2496
11509, 1355, 1333, 1356, 2500
11510, 415, 73, 1755, 2502
11511, 1570, 2511, 1821, 2522
11512, 1662, 2469, 1639, 2517
11513, 1797, 2492, 1774, 2515
11514, 1524, 2482, 1547, 2522
11515, 1819, 1823, 1824, 2507
11516, 1819, 1818, 1823, 2507
11517, 1524, 2437, 2510, 2522
11518, 1821, 2511, 1816, 2522
11519, 1382, 2499, 1359, 2514
11520, 74, 73, 414, 2502
11521, 426, 2503, 421, 2523
11522, 438, 437, 433, 2506
11523, 437, 432, 433, 2506
11524, 1478, 2491, 1501, 2510
11525, 1524, 1501, 1523, 2491
11526, 1500, 1523, 1501, 2491
11527, 1806, 269, 1811, 2437
11528, 220, 1822, 1821, 2439
11529, 28, 433, 428, 2455
11530, 423, 418, 26, 2465
11531, 418, 1686, 1571, 2508
11532, 1771, 2485, 1748, 2494
11533, 1518, 2485, 1495, 2494
11534, 2482, 2510, 2491, 2517
11535, 2510, 2511, 2482, 2522
11536, 1366, 1389, 2469, 2507
11537, 50, 49, 419, 2502
11538, 74, 414, 48, 2502
11539, 1772, 2476, 1749, 2485
11540, 1519, 2476, 1496, 2485
11541, 1709, 2453, 1732, 2508
11542, 1524, 269, 2437, 2522
11543, 1807, 1806, 1811, 2510
11544, 1811, 1812, 1807, 2510
11545, 1483, 1505, 1506, 2486
11546, 1482, 1505, 1483, 2486
11547, 1508, 2470, 1485, 2480
11548, 2482, 2507, 1389, 2511
11549, 271, 1821, 1816, 2522
11550, 1765, 1743, 1742, 2488
11551, 1766, 1743, 1765, 2488
11552, 1740, 1739, 1762, 2489
11553, 1762, 1763, 1740, 2489
11554, 1764, 1742, 1741, 2490
11555, 1765, 1742, 1764, 2490
11556, 1512, 1513, 1490, 2488
11557, 1490, 1489, 1512, 2488
11558, 1509, 1487, 1486, 2489
11559, 1509, 1510, 1487, 2489
11560, 1489, 1488, 1511, 2490
11561, 1511, 1512, 1489, 2490
11562, 1774, 1775, 1752, 2492
11563, 1752, 1751, 1774, 2492
11564, 1737, 1736, 1759, 2493
11565, 1759, 1760, 1737, 2493
11566, 1521, 1499, 1498, 2492
11567, 1522, 1499, 1521, 2492
11568, 1483, 1506, 1484, 2493
11569, 1506, 1507, 1484, 2493
11570, 1748, 1747, 1770, 2494
11571, 1770, 1771, 1748, 2494
11572, 1656, 1633, 1634, 2495
11573, 1634, 1657, 1656, 2495
11574, 1746, 1745, 1768, 2496
11575, 1649, 1626, 1627, 2497
11576, 1627, 1650, 1649, 2497
11577, 1517, 1495, 1494, 2494
11578, 1518, 1495, 1517, 2494
11579, 1768, 1769, 1746, 2496
11580, 1383, 1360, 1361, 2495
11581, 1383, 1361, 1384, 2495
11582, 1354, 1376, 1353, 2497
11583, 1377, 1376, 1354, 2497
11584, 1493, 1492, 1515, 2496
11585, 1515, 1516, 1493, 2496
11586, 1628, 1629, 1651, 2500
11587, 1629, 1652, 1651, 2500
11588, 1355, 1356, 1378, 2500
11589, 1379, 1378, 1356, 2500
11590, 271, 1570, 1821, 2522
11591, 1329, 1351, 1328, 2512
11592, 1351, 1329, 1352, 2512
11593, 71, 2453, 1709, 2508
11594, 422, 2454, 427, 2523
11595, 216, 1825, 1366, 1343
11596, 217, 1825, 1366, 216
11597, 77, 76, 1344, 437
11598, 436, 78, 1367, 77
11599, 1478, 267, 1801, 1501
11600, 1801, 268, 1501, 267
11601, 1548, 1525, 52, 434
11602, 1343, 272, 216, 1825
11603, 277, 1731, 1804, 1708
11604, 1731, 277, 1804, 278
11605, 1548, 8, 434, 52
11606, 437, 1344, 77, 1367
11607, 18, 1708, 1805, 276
11608, 1593, 1805, 1708, 276
11609, 18, 1708, 277, 1805
11610, 1616, 1805, 1593, 276
11611, 1616, 1639, 1810, 275
11612, 272, 1343, 1685, 1825
11613, 218, 1412, 1389, 1823
11614, 1412, 218, 219, 1823
11615, 435, 79, 1390, 78
11616, 1390, 78, 1367, 435
11617, 1413, 8, 79, 434
11618, 1413, 435, 79, 1390
11619, 1685, 273, 1825, 1662
11620, 1662, 274, 1820, 1639
11621, 1754, 1804, 278, 1731
11622, 1685, 273, 272, 1825
11623, 274, 1662, 1820, 273
11624, 1639, 274, 1815, 275
11625, 1810, 276, 1616, 275
11626, 279, 1777, 1803, 1754
11627, 1777, 1802, 1800, 280
11628, 279, 1802, 1777, 280
11629, 1478, 281, 1801, 267
11630, 280, 1801, 1800, 281
11631, 1732, 73, 415, 72
11632, 1478, 281, 1800, 1801
11633, 418, 70, 305, 1686
11634, 278, 1803, 1754, 279
11635, 305, 418, 1571, 26
11636, 73, 1732, 415, 1755
11637, 2, 418, 305, 26
11638, 305, 418, 1686, 1571
11639, 418, 2, 305, 70
11640, 1532, 1531, 1554, 2521
11641, 1555, 1532, 1554, 2521
11642, 1821, 1822, 1817, 2511
11643, 1817, 1816, 1821, 2511
11644, 1497, 1474, 2476, 2515
11645, 1765, 2488, 1742, 2490
11646, 1512, 2488, 1489, 2490
11647, 1500, 1523, 2491, 2519
11648, 1767, 1790, 2431, 2518
11649, 1522, 1499, 2492, 2519
11650, 1785, 2470, 1463, 2489
11651, 1456, 2464, 48, 2502
11652, 1471, 1793, 2471, 2494
11653, 1470, 2471, 1792, 2496
11654, 1821, 1570, 1435, 2511
11655, 1661, 1638, 1639, 2469
11656, 1639, 1662, 1661, 2469
11657, 1388, 1365, 1366, 2469
11658, 1366, 1389, 1388, 2469
11659, 1738, 1761, 1739, 2470
11660, 1761, 1762, 1739, 2470
11661, 1485, 1508, 1486, 2470
11662, 1508, 1509, 1486, 2470
11663, 1755, 2502, 2474, 2503
11664, 1499, 1477, 1476, 2519
11665, 1477, 1499, 1500, 2519
11666, 417, 418, 422, 2508
11667, 423, 422, 418, 2508
11668, 1555, 1554, 1419, 2521
11669, 1474, 1796, 2476, 2515
11670, 1821, 271, 243, 1570
11671, 243, 1821, 1570, 1435
11672, 243, 1821, 1435, 220
11673, 8, 1548, 434, 221
11674, 1413, 1548, 221, 434
11675, 1413, 8, 434, 221
11676, 1502, 2474, 1479, 2502
11677, 1373, 2423, 1374, 2521
11678, 1685, 2469, 1662, 2507
11679, 217, 1824, 218, 2444
11680, 270, 1811, 269, 2438
11681, 72, 71, 416, 2453
11682, 29, 30, 438, 2457
11683, 1389, 1366, 2444, 2507
11684, 1732, 1755, 2474, 2503
11685, 1746, 1769, 1747, 2471
11686, 1747, 1769, 1770, 2471
11687, 1494, 1493, 1516, 2471
11688, 1516, 1517, 1494, 2471
11689, 1641, 1618, 1619, 2472
11690, 1642, 1641, 1619, 2472
11691, 1368, 1345, 1346, 2472
11692, 1346, 1369, 1368, 2472
11693, 1343, 2469, 1685, 2507
11694, 1752, 1729, 2434, 2524
11695, 1821, 15, 243, 271
11696, 15, 1821, 243, 220
11697, 1404, 1381, 1382, 2499
11698, 1486, 1463, 2470, 2489
11699, 1762, 2470, 1785, 2489
11700, 1640, 1663, 2457, 2506
11701, 1471, 2471, 1494, 2494
11702, 1793, 1770, 2471, 2494
11703, 1493, 2471, 1470, 2496
11704, 1792, 2471, 1769, 2496
11705, 1412, 2482, 1389, 2511
11706, 427, 426, 422, 2523
11707, 426, 421, 422, 2523
11708, 1750, 1728, 1727, 2515
11709, 1728, 1750, 1751, 2515
11710, 1374, 1351, 1352, 2512
11711, 1352, 1375, 1374, 2512
11712, 1778, 1456, 1779, 2474
11713, 1755, 1733, 1732, 2474
11714, 1756, 1733, 1755, 2474
11715, 1479, 1502, 1480, 2474
11716, 1502, 1503, 1480, 2474
11717, 74, 48, 2464, 2502
11718, 1524, 1501, 2491, 2510
11719, 1524, 2437, 1501, 2510
11720, 1473, 1474, 1796, 2476
11721, 1795, 1473, 1796, 2476
11722, 1750, 1749, 1772, 2476
11723, 1773, 1750, 1772, 2476
11724, 1520, 1497, 1519, 2476
11725, 1519, 1497, 1496, 2476
11726, 1758, 1735, 1757, 2475
11727, 1734, 1757, 1735, 2475
11728, 1482, 1504, 1505, 2475
11729, 1482, 1481, 1504, 2475
11730, 1435, 1412, 2439, 2511
11731, 429, 424, 425, 2520
11732, 425, 430, 429, 2520
11733, 1622, 1645, 2473, 2513
11734, 1522, 1523, 1500, 2519
11735, 1499, 1522, 1500, 2519
11736, 1751, 1774, 2492, 2515
11737, 51, 50, 424, 2520
11738, 1796, 1773, 2476, 2515
11739, 1324, 2460, 1325, 2468
11740, 1463, 2420, 1462, 2470
11741, 1755, 73, 74, 2502
11742, 1755, 74, 1778, 2502
11743, 1571, 1594, 2465, 2508
11744, 1483, 2486, 1506, 2493
11745, 1811, 2437, 269, 2522
11746, 1665, 2459, 1664, 2472
11747, 1773, 1750, 2476, 2515
11748, 50, 1479, 49, 2502
11749, 50, 1502, 1479, 2502
11750, 1756, 1755, 1778, 2474
11751, 1778, 1779, 1756, 2474
11752, 1796, 1797, 1774, 2515
11753, 1774, 1773, 1796, 2515
11754, 271, 270, 1570, 2522
11755, 1570, 270, 1547, 2522
11756, 1773, 1772, 1795, 2476
11757, 1795, 1796, 1773, 2476
11758, 1473, 1496, 1474, 2476
11759, 1496, 1497, 1474, 2476
11760, 1780, 1781, 1758, 2475
11761, 1758, 1757, 1780, 2475
11762, 1459, 1481, 1482, 2475
11763, 1645, 1644, 1622, 2473
11764, 1621, 1622, 1644, 2473
11765, 1576, 1599, 1598, 2473
11766, 1667, 2460, 1666, 2468
11767, 284, 1780, 1457, 1458
11768, 1457, 283, 1780, 284
11769, 1460, 1782, 286, 1459
11770, 1782, 285, 286, 1459
11771, 285, 1782, 1781, 1459
11772, 1457, 283, 1779, 1780
11773, 1456, 283, 1779, 1457
11774, 285, 1781, 1458, 1459
11775, 1456, 282, 1778, 1779
11776, 1691, 310, 1690, 1576
11777, 1573, 1688, 1687, 307
11778, 283, 1456, 1779, 282
11779, 1783, 1461, 287, 1784
11780, 1781, 284, 285, 1458
11781, 291, 1787, 1464, 1465
11782, 1467, 1468, 294, 1790
11783, 1468, 295, 1791, 1469
11784, 1698, 318, 1583, 1699
11785, 1689, 309, 1574, 1690
11786, 317, 1697, 1698, 1582
11787, 307, 1572, 1687, 1573
11788, 1787, 290, 291, 1464
11789, 1787, 290, 1464, 1786
11790, 1468, 294, 1790, 1791
11791, 293, 1467, 294, 1790
11792, 1467, 293, 1789, 1790
11793, 295, 1468, 1791, 294
11794, 1696, 316, 1581, 1697
11795, 1579, 313, 1693, 1578
11796, 288, 1461, 1462, 1784
11797, 1575, 1690, 310, 1576
11798, 1694, 1695, 314, 1580
11799, 1693, 1694, 313, 1579
11800, 1583, 1699, 318, 1584
11801, 288, 287, 1461, 1784
11802, 1583, 1582, 317, 1698
11803, 1690, 1574, 1575, 309
11804, 1572, 307, 1687, 306
11805, 1582, 316, 1697, 1581
11806, 1708, 18, 1593, 276
11807, 284, 1781, 1780, 1458
11808, 312, 1693, 313, 1578
11809, 309, 1575, 1690, 310
11810, 318, 1698, 1583, 317
11811, 314, 1579, 1694, 1580
11812, 1478, 17, 281, 267
11813, 306, 1572, 1686, 1687
11814, 1593, 1708, 1707, 327
11815, 309, 1689, 1574, 308
11816, 317, 1697, 1582, 316
11817, 316, 1696, 1581, 315
11818, 17, 1478, 281, 304
11819, 1707, 1591, 326, 1706
11820, 315, 1695, 1580, 314
11821, 312, 311, 1692, 1577
11822, 1572, 1571, 306, 1686
11823, 1593, 18, 1708, 327
11824, 1693, 312, 1692, 1577
11825, 1705, 325, 1590, 1706
11826, 1592, 327, 1593, 1707
11827, 311, 310, 1691, 1576
11828, 1579, 314, 1694, 313
11829, 1701, 321, 1586, 1702
11830, 1589, 1703, 323, 1704
11831, 324, 1704, 1705, 1589
11832, 1588, 1703, 1702, 322
11833, 1591, 1707, 326, 1592
11834, 1571, 305, 306, 1686
11835, 1591, 1590, 325, 1706
11836, 1590, 1589, 324, 1705
11837, 1589, 1703, 1588, 323
11838, 1592, 327, 1707, 326
11839, 1702, 1586, 1587, 321
11840, 1702, 1587, 1588, 322
11841, 1591, 326, 1706, 325
11842, 1797, 1474, 301, 1475
11843, 303, 1799, 1476, 1477
11844, 1473, 300, 1796, 1474
11845, 1590, 324, 325, 1705
11846, 321, 1701, 1586, 320
11847, 1577, 1693, 312, 1578
11848, 324, 1704, 1589, 323
11849, 323, 1703, 1588, 322
11850, 1797, 300, 1474, 1796
11851, 302, 1799, 1798, 1476
11852, 300, 1797, 1474, 301
11853, 300, 1473, 1796, 299
11854, 302, 1799, 1476, 303
11855, 281, 304, 1478, 1800
11856, 1796, 299, 1473, 1795
11857, 1702, 1587, 322, 321
11858, 308, 1688, 1573, 307
11859, 1585, 319, 320, 1700
11860, 1585, 320, 1586, 1700
11861, 1584, 318, 319, 1699
11862, 1701, 1586, 320, 1700
11863, 1585, 1584, 319, 1699
11864, 1699, 319, 1585, 1700
11865, 1502, 50, 51, 2520
11866, 51, 1525, 1502, 2520
11867, 1366, 2469, 1343, 2507
11868, 414, 419, 49, 2502
11869, 1420, 228, 1555, 1556
11870, 1552, 1417, 225, 1553
11871, 1416, 224, 1551, 1552
11872, 228, 1420, 1421, 1556
11873, 1553, 1417, 225, 1418
11874, 224, 1416, 1417, 1552
11875, 1549, 1548, 221, 1413
11876, 1555, 1554, 227, 1419
11877, 221, 1414, 1549, 1413
11878, 1553, 1419, 1418, 226
11879, 1560, 1559, 232, 1425
11880, 1557, 1422, 230, 1558
11881, 1557, 229, 1422, 1556
11882, 1561, 1560, 233, 1425
11883, 231, 1423, 1559, 1558
11884, 235, 1428, 1562, 1427
11885, 1559, 1424, 232, 1425
11886, 1421, 1422, 229, 1556
11887, 230, 1423, 1558, 1422
11888, 231, 1424, 1559, 1423
11889, 1425, 233, 1561, 1426
11890, 1553, 1419, 226, 1554
11891, 1550, 1416, 223, 1551
11892, 1563, 235, 1428, 1562
11893, 1419, 227, 1555, 1420
11894, 1322, 245, 1664, 1321
11895, 249, 1325, 1668, 1326
11896, 1416, 1550, 223, 1415
11897, 244, 1664, 1321, 1663
11898, 248, 1325, 1667, 1668
11899, 1566, 238, 1431, 1565
11900, 1570, 242, 1434, 1569
11901, 1568, 240, 1432, 1567
11902, 1564, 1430, 237, 1565
11903, 1569, 241, 1434, 1568
11904, 247, 1323, 1666, 1324
11905, 1434, 241, 1433, 1568
11906, 240, 1433, 1568, 1432
11907, 1430, 237, 1429, 1564
11908, 1565, 1430, 238, 1431
11909, 242, 1435, 1570, 1434
11910, 251, 1671, 1328, 1670
11911, 1326, 249, 1669, 1668
11912, 1671, 252, 1328, 1329
11913, 250, 1670, 1327, 1669
11914, 250, 1326, 1669, 1327
11915, 253, 1329, 1672, 1330
11916, 255, 1331, 1674, 1332
11917, 1329, 252, 1672, 1671
11918, 1334, 257, 1676, 1333
11919, 254, 1674, 1331, 1673
11920, 1666, 1323, 246, 1665
11921, 256, 1676, 1333, 1675
11922, 1327, 251, 1328, 1670
11923, 1677, 1678, 258, 1335
11924, 1679, 1336, 259, 1678
11925, 260, 1337, 1336, 1679
11926, 1339, 262, 1681, 1338
11927, 263, 1339, 1682, 1340
11928, 1341, 264, 1683, 1340
11929, 261, 1681, 1338, 1680
11930, 265, 1341, 1684, 1342
11931, 262, 1682, 1339, 1681
11932, 263, 1683, 1340, 1682
11933, 16, 1343, 272, 216
11934, 1341, 264, 1684, 1683
11935, 1678, 1336, 259, 1335
11936, 1343, 272, 1685, 266
11937, 1816, 270, 271, 2522
11938, 229, 228, 1421, 1556
11939, 225, 226, 1553, 1418
11940, 225, 224, 1417, 1552
11941, 222, 1550, 1415, 223
11942, 1414, 221, 1549, 222
11943, 1416, 223, 1551, 224
11944, 233, 234, 1561, 1426
11945, 1560, 232, 233, 1425
11946, 1424, 231, 1559, 232
11947, 1423, 230, 1558, 231
11948, 1422, 230, 229, 1557
11949, 1419, 226, 1554, 227
11950, 1429, 237, 236, 1564
11951, 235, 1563, 1428, 236
11952, 227, 228, 1555, 1420
11953, 1435, 242, 1570, 243
11954, 241, 1569, 1434, 242
11955, 1433, 240, 1568, 241
11956, 1567, 239, 240, 1432
11957, 1430, 238, 237, 1565
11958, 238, 1566, 1431, 239
11959, 1664, 244, 1321, 245
11960, 249, 1325, 248, 1668
11961, 1671, 251, 1328, 252
11962, 1326, 250, 1669, 249
11963, 247, 1323, 246, 1666
11964, 1670, 250, 1327, 251
11965, 253, 1329, 252, 1672
11966, 1562, 234, 235, 1427
11967, 1674, 254, 1331, 255
11968, 256, 1676, 257, 1333
11969, 259, 258, 1678, 1335
11970, 259, 260, 1336, 1679
11971, 261, 1681, 262, 1338
11972, 1682, 262, 1339, 263
11973, 1683, 263, 1340, 264
11974, 1341, 265, 1684, 264
11975, 16, 1343, 266, 272
11976, 268, 269, 1806, 2437
11977, 220, 219, 1822, 2439
11978, 28, 29, 433, 2455
11979, 27, 423, 26, 2465
11980, 1419, 1396, 1397, 2521
11981, 1778, 1456, 2474, 2502
11982, 48, 49, 1456, 2502
11983, 49, 1479, 1456, 2502
11984, 1778, 2474, 1755, 2502
11985, 71, 1709, 1686, 2508
11986, 1374, 1396, 1373, 2521
11987, 1374, 1397, 1396, 2521
11988, 1773, 1751, 1750, 2515
11989, 1774, 1751, 1773, 2515
11990, 296, 1793, 1792, 2471
11991, 297, 1793, 296, 2471
11992, 297, 1470, 1471, 2471
11993, 297, 296, 1470, 2471
11994, 1456, 1479, 2474, 2502
11995, 265, 1684, 1685, 2469
11996, 266, 1343, 1342, 2469
11997, 1621, 1598, 1599, 2473
11998, 1599, 1622, 1621, 2473
11999, 1664, 1641, 1642, 2472
12000, 1665, 1664, 1642, 2472
12001, 1323, 1346, 1345, 2472
12002, 1769, 1792, 1770, 2471
12003, 1493, 1471, 1470, 2471
12004, 1770, 1792, 1793, 2471
12005, 1471, 1493, 1494, 2471
12006, 1463, 1462, 1485, 2470
12007, 1485, 1486, 1463, 2470
12008, 1685, 1684, 1662, 2469
12009, 1684, 1661, 1662, 2469
12010, 1347, 1325, 1348, 2468
12011, 1325, 1347, 1324, 2468
12012, 1644, 1667, 1666, 2468
12013, 1644, 1666, 1643, 2468
12014, 1685, 266, 265, 2469
12015, 265, 266, 1342, 2469
12016, 48, 414, 49, 2502
12017, 1366, 2440, 1343, 2469
12018, 1323, 2459, 1665, 2472
12019, 1784, 2420, 1761, 2470
12020, 1785, 2420, 1463, 2470
12021, 1456, 1778, 2464, 2502
12022, 1342, 2440, 1365, 2469
12023, 3, 75, 30, 2456
12024, 1471, 297, 1793, 2432
12025, 295, 1791, 1469, 2430
12026, 48, 9, 74, 2464
12027, 291, 1787, 1465, 2428
12028, 1798, 302, 1476, 2446
12029, 1461, 1783, 287, 2463
12030, 304, 1478, 1800, 2447
12031, 290, 1464, 1786, 2467
12032, 293, 1467, 1789, 2429
12033, 296, 1792, 1470, 2471
12034, 297, 1471, 1793, 2471
12035, 1762, 2420, 1785, 2470
12036, 1462, 2420, 1784, 2470
12037, 1674, 255, 1332, 2443
12038, 1672, 253, 1330, 2425
12039, 245, 1322, 1664, 2459
12040, 258, 1677, 1335, 2442
12041, 1338, 261, 1680, 2441
12042, 1666, 2460, 247, 2468
12043, 247, 2460, 1324, 2468
12044, 1325, 2460, 1667, 2468
12045, 265, 1342, 1684, 2469
12046, 266, 1685, 1343, 2469
12047, 1570, 1547, 2511, 2522
12048, 1794, 1472, 298, 2448
12049, 299, 1473, 1795, 2448
12050, 1666, 247, 1324, 2468
12051, 1782, 1460, 286, 2463
12052, 282, 1456, 1778, 2464
12053, 1463, 289, 1785, 2467
12054, 1788, 1466, 292, 2429
12055, 1466, 1788, 292, 2428
12056, 296, 1470, 1792, 2430
12057, 301, 1797, 1475, 2446
12058, 303, 1799, 1477, 2447
12059, 1472, 1794, 298, 2432
12060, 1321, 244, 1663, 2456
12061, 257, 1334, 1676, 2442
12062, 1333, 256, 1675, 2443
12063, 1331, 254, 1673, 2425
12064, 1325, 248, 1667, 2460
12065, 1323, 246, 1665, 2459
12066, 260, 1337, 1679, 2441
12067, 1641, 1640, 1618, 2458
12068, 1618, 1640, 1617, 2458
12069, 75, 3, 244, 2456
12070, 293, 1466, 1467, 2429
12071, 75, 244, 1321, 2456
12072, 1732, 415, 1755, 2461
12073, 1330, 254, 1331, 2425
12074, 1800, 303, 304, 2447
12075, 260, 1680, 261, 2441
12076, 1325, 1667, 1668, 2450
12077, 1325, 1326, 1348, 2450
12078, 1369, 1347, 1370, 2451
12079, 245, 246, 1322, 2459
12080, 1715, 1692, 1714, 2466
12081, 1369, 1346, 1347, 2451
12082, 1646, 1645, 1623, 2422
12083, 1784, 1785, 1762, 2420
12084, 1352, 1330, 1353, 2424
12085, 1329, 1330, 1352, 2424
12086, 1373, 1350, 1351, 2423
12087, 1324, 248, 1325, 2460
12088, 248, 1324, 247, 2460
12089, 1374, 1373, 1351, 2423
12090, 1456, 282, 48, 2464
12091, 1759, 1781, 1782, 2462
12092, 1322, 246, 1323, 2459
12093, 1325, 1668, 1326, 2450
12094, 1475, 302, 301, 2446
12095, 48, 282, 9, 2464
12096, 9, 282, 1778, 2464
12097, 1503, 1481, 1480, 2452
12098, 1732, 416, 415, 2461
12099, 1794, 298, 1795, 2448
12100, 1781, 1759, 1758, 2462
12101, 298, 1472, 299, 2448
12102, 1476, 302, 1475, 2446
12103, 1481, 1503, 1504, 2452
12104, 1783, 286, 287, 2463
12105, 286, 1783, 1782, 2463
12106, 1789, 1788, 292, 2429
12107, 289, 1786, 1785, 2467
12108, 1786, 289, 290, 2467
12109, 1761, 1784, 1762, 2420
12110, 1466, 292, 1465, 2428
12111, 292, 1466, 293, 2429
12112, 1789, 292, 293, 2429
12113, 1728, 1751, 1729, 2434
12114, 303, 1477, 304, 2447
12115, 1380, 1358, 1381, 2427
12116, 1357, 1358, 1380, 2427
12117, 1332, 256, 1333, 2443
12118, 1469, 296, 295, 2430
12119, 1470, 296, 1469, 2430
12120, 1793, 297, 1794, 2432
12121, 1631, 1632, 1654, 2426
12122, 1472, 298, 1471, 2432
12123, 1475, 1497, 1498, 2435
12124, 1343, 1365, 1342, 2440
12125, 1497, 1475, 1474, 2435
12126, 257, 1677, 258, 2442
12127, 1658, 1362, 1361, 2433
12128, 1657, 1658, 1361, 2433
12129, 1776, 1754, 1753, 2436
12130, 1775, 1798, 1776, 2445
12131, 1797, 1474, 1475, 2435
12132, 1474, 1797, 1796, 2435
12133, 1478, 304, 1477, 2447
12134, 1776, 1777, 1754, 2436
12135, 303, 1800, 1799, 2447
12136, 295, 296, 1792, 2430
12137, 1798, 1799, 1776, 2445
12138, 1366, 1365, 1343, 2440
12139, 1362, 1385, 1384, 2433
12140, 1794, 297, 298, 2432
12141, 1361, 1362, 1384, 2433
12142, 1751, 1752, 1729, 2434
12143, 295, 1792, 1791, 2430
12144, 1677, 257, 1676, 2442
12145, 298, 297, 1471, 2432
12146, 256, 1332, 255, 2443
12147, 1768, 1767, 1790, 2431
12148, 1768, 1790, 1791, 2431
12149, 291, 1788, 1787, 2428
12150, 1788, 291, 292, 2428
12151, 254, 1330, 253, 2425
12152, 301, 1798, 1797, 2446
12153, 1680, 260, 1679, 2441
12154, 1461, 287, 1460, 2463
12155, 1460, 287, 286, 2463
12156, 1460, 1782, 1459, 2462
12157, 290, 1463, 1464, 2467
12158, 1778, 74, 9, 2464
12159, 1782, 1781, 1459, 2462
12160, 1622, 1623, 1645, 2422
12161, 289, 1463, 290, 2467
12162, 1795, 298, 299, 2448
12163, 30, 1663, 3, 2456
12164, 299, 1472, 1473, 2448
12165, 292, 291, 1465, 2428
12166, 1692, 1691, 1714, 2466
12167, 1798, 301, 302, 2446
12168, 1342, 1343, 2440, 2469
12169, 1640, 2458, 1641, 2506
12170, 1641, 2458, 2472, 2506
12171, 1350, 1351, 2423, 2509
12172, 1649, 1672, 1671, 2516
12173, 1649, 1671, 1648, 2516
12174, 1671, 1670, 1648, 2516
12175, 1670, 1647, 1648, 2516
12176, 1670, 2449, 1647, 2516
12177, 2503, 2508, 1732, 2523
12178, 1728, 2434, 1729, 2524
12179, 2426, 1632, 1609, 1631
12180, 2426, 1609, 1632, 2514
12181, 433, 2457, 2455, 29
12182, 433, 2455, 2457, 2506
12183, 1669, 2422, 1668, 1646
12184, 1669, 1668, 2422, 2513
12185, 1668, 2422, 1645, 1646
12186, 1668, 1645, 2422, 2513
12187, 2480, 2509, 2422, 2513
12188, 1600, 2480, 2422, 2513
12189, 2422, 1600, 1622, 1623
12190, 1622, 1600, 2422, 2513
12191, 1370, 2451, 1392, 1369
12192, 1370, 1392, 2451, 2504
12193, 1392, 2451, 2501, 1369
12194, 1392, 2501, 2451, 2504
12195, 2523, 428, 1617, 2454
12196, 2523, 1617, 428, 2506
12197, 1408, 2484, 1386, 1409
12198, 1408, 1386, 2484, 2505
12199, 2513, 1348, 1644, 2473
12200, 1325, 1348, 1667, 2450
12201, 1325, 1667, 1348, 2468
12202, 1644, 1348, 1667, 2468
12203, 2486, 1348, 2513, 2473
12204, 2486, 2513, 1348, 1371
12205, 2513, 2486, 1394, 1371
12206, 2513, 1394, 2486, 2493
12207, 1618, 2458, 2472, 1641
12208, 1618, 2472, 2458, 2481
12209, 1381, 2427, 1403, 1380
12210, 1381, 1403, 2427, 2498
12211, 1403, 2427, 2477, 1380
12212, 1403, 2477, 2427, 2498
12213, 2477, 2427, 1357, 1380
12214, 1533, 2512, 1397, 1398
12215, 1397, 2512, 1533, 2489
12216, 2426, 2483, 1609, 2514
12217, 2512, 1601, 2489, 2509
12218, 2512, 2489, 1601, 1602
12219, 2517, 1803, 2510, 1754
12220, 2517, 2510, 1803, 1808
12221, 2486, 1348, 1370, 1371
12222, 2486, 1370, 1348, 2468
12223, 1402, 2518, 1538, 1537
12224, 1538, 2518, 1402, 2477
12225, 2477, 1721, 2500, 1606
12226, 2477, 2500, 1721, 2518
12227, 1492, 2431, 1469, 1491
12228, 1468, 1469, 2431, 1491
12229, 1468, 2431, 1469, 1791
12230, 2514, 2471, 1517, 2483
12231, 2514, 1517, 2471, 2494
12232, 2505, 1613, 2515, 1612
12233, 2505, 2515, 1613, 2484
12234, 2524, 1753, 2479, 2519
12235, 2524, 2479, 1753, 1730
12236, 1626, 2512, 1603, 2478
12237, 1626, 1603, 2512, 1625
12238, 1602, 1603, 2512, 2478
12239, 1602, 2512, 1603, 1625
12240, 1520, 2505, 1542, 1543
12241, 1542, 2505, 1520, 2476
12242, 2475, 1780, 1481, 1757
12243, 1480, 1481, 1780, 1757
12244, 1480, 1780, 1481, 1458
12245, 1413, 1414, 1526, 1391
12246, 1413, 1526, 1414, 1549
12247, 1527, 1526, 1414, 1391
12248, 1527, 1414, 1526, 1549
12249, 1425, 1403, 1538, 1402
12250, 1425, 1538, 1403, 1561
12251, 1396, 1553, 1395, 1530
12252, 1396, 1395, 1553, 1418
12253, 1417, 1395, 1553, 1530
12254, 1417, 1553, 1395, 1418
12255, 222, 1414, 1550, 1549
12256, 222, 1550, 1414, 1415
12257, 1527, 1550, 1414, 1549
12258, 1404, 1561, 1427, 1426
12259, 1404, 1427, 1561, 1562
12260, 234, 1427, 1561, 1426
12261, 234, 1561, 1427, 1562
12262, 1421, 1556, 1399, 1422
12263, 1534, 1399, 1556, 1422
12264, 1534, 1556, 1399, 1533
12265, 1711, 1574, 1712, 1689
12266, 1711, 1712, 1574, 1597
12267, 1690, 1712, 1574, 1689
12268, 1690, 1574, 1712, 1597
12269, 1406, 1563, 1429, 1428
12270, 1406, 1429, 1563, 1564
12271, 236, 1429, 1563, 1428
12272, 236, 1563, 1429, 1564
12273, 1568, 1432, 1545, 1567
12274, 1568, 1545, 1432, 1410
12275, 1544, 1545, 1432, 1567
12276, 1544, 1432, 1545, 1410
12277, 1711, 1574, 1688, 1573
12278, 1711, 1688, 1574, 1689
12279, 308, 1688, 1574, 1573
12280, 308, 1574, 1688, 1689
12281, 1687, 1573, 1710, 1688
12282, 1711, 1710, 1573, 1688
12283, 1711, 1573, 1710, 1595
12284, 1693, 1579, 1716, 1694
12285, 1693, 1716, 1579, 1601
12286, 1717, 1716, 1579, 1694
12287, 1717, 1579, 1716, 1601
12288, 1480, 1779, 1780, 1457
12289, 1780, 1779, 1480, 1757
12290, 1582, 1697, 1604, 1581
12291, 1719, 1604, 1697, 1581
12292, 1719, 1697, 1604, 1720
12293, 1605, 1720, 1698, 1721
12294, 1605, 1583, 1698, 1582
12295, 1607, 1585, 1722, 1699
12296, 1607, 1722, 1585, 1608
12297, 1700, 1722, 1585, 1699
12298, 1718, 1581, 1695, 1580
12299, 1718, 1695, 1581, 1696
12300, 315, 1695, 1581, 1580
12301, 315, 1581, 1695, 1696
12302, 1564, 1565, 1407, 1430
12303, 1564, 1407, 1565, 1542
12304, 1408, 1407, 1565, 1430
12305, 1408, 1565, 1407, 1542
12306, 239, 1431, 1567, 1566
12307, 239, 1567, 1431, 1432
12308, 1544, 1567, 1431, 1566
12309, 1544, 1431, 1567, 1432
12310, 1726, 1589, 1727, 1704
12311, 1726, 1727, 1589, 1612
12312, 1705, 1727, 1589, 1704
12313, 1705, 1589, 1727, 1612
12314, 2524, 1613, 1705, 1728
12315, 1612, 1613, 1705, 1590
12316, 1612, 1705, 1613, 1728
12317, 1702, 1724, 1609, 1586
12318, 1702, 1609, 1724, 1725
12319, 1617, 2454, 28, 1594
12320, 28, 2454, 1617, 428
12321, 2454, 27, 28, 1594
12322, 28, 27, 2454, 428
12323, 2454, 423, 27, 1594
12324, 27, 423, 2454, 428
12325, 1776, 2445, 1753, 1775
12326, 1776, 1753, 2445, 2519
12327, 1753, 2445, 1752, 1775
12328, 1753, 1752, 2445, 2519
12329, 1752, 2445, 2492, 1775
12330, 1752, 2492, 2445, 2519
12331, 2492, 2445, 1798, 1775
12332, 2476, 1727, 2515, 1750
12333, 2476, 2515, 1727, 2505
12334, 2508, 1732, 1710, 2474
12335, 2508, 1710, 1732, 1709
12336, 1734, 2504, 1712, 1711
12337, 1572, 2508, 1710, 1595
12338, 1710, 2508, 1572, 1687
12339, 1710, 1573, 1572, 1595
12340, 1572, 1573, 1710, 1687
12341, 1679, 1336, 1359, 1337
12342, 1359, 1336, 1679, 2514
12343, 2520, 1413, 1391, 1390
12344, 2520, 1391, 1413, 1525
12345, 1525, 1413, 434, 1548
12346, 434, 1413, 1525, 2520
12347, 1617, 29, 2457, 1640
12348, 2457, 29, 1617, 2455
12349, 2457, 2506, 1617, 1640
12350, 1617, 2506, 2457, 2455
12351, 2423, 2509, 2513, 1350
12352, 2513, 2509, 2423, 2521
12353, 2513, 1373, 2423, 1350
12354, 2423, 1373, 2513, 2521
12355, 1707, 1615, 1593, 1592
12356, 1707, 1593, 1615, 2517
12357, 2504, 1735, 1734, 1712
12358, 2504, 1734, 1735, 2475
12359, 2493, 1714, 2513, 1737
12360, 2493, 2513, 1714, 2473
12361, 1615, 1707, 1614, 1592
12362, 1615, 1614, 1707, 2524
12363, 1591, 1614, 1707, 1592
12364, 1591, 1707, 1614, 2524
12365, 2509, 2470, 2521, 2480
12366, 2509, 2521, 2470, 2489
12367, 1669, 1350, 1670, 1327
12368, 1669, 1670, 1350, 2509
12369, 1328, 1670, 1350, 1327
12370, 1328, 1350, 1670, 2509
12371, 1381, 2499, 2498, 1358
12372, 1434, 2511, 1546, 2482
12373, 2488, 1535, 2490, 1512
12374, 2488, 2490, 1535, 2487
12375, 2488, 1536, 2500, 2487
12376, 2488, 2500, 1536, 1513
12377, 2488, 1719, 2490, 2487
12378, 2488, 2490, 1719, 1742
12379, 2488, 1720, 2500, 1743
12380, 2488, 2500, 1720, 2487
12381, 1456, 1779, 1479, 1457
12382, 1456, 1479, 1779, 2474
12383, 1480, 1479, 1779, 1457
12384, 1480, 1779, 1479, 2474
12385, 2523, 432, 428, 427
12386, 2523, 428, 432, 2506
12387, 1664, 1345, 2459, 1322
12388, 1664, 2459, 1345, 2472
12389, 1323, 2459, 1345, 1322
12390, 1323, 1345, 2459, 2472
12391, 1546, 2491, 1524, 1523
12392, 1524, 2491, 1546, 2482
12393, 2521, 1554, 1396, 1531
12394, 2521, 1396, 1554, 1419
12395, 1553, 1396, 1554, 1531
12396, 1553, 1554, 1396, 1419
12397, 2521, 1397, 1555, 1532
12398, 1533, 1397, 1555, 1420
12399, 1533, 1555, 1397, 1532
12400, 1350, 1669, 1349, 1327
12401, 1350, 1349, 1669, 2513
12402, 1326, 1349, 1669, 1327
12403, 1326, 1669, 1349, 2513
12404, 1364, 1683, 1363, 1341
12405, 1364, 1363, 1683, 1660
12406, 1363, 1683, 1340, 1341
12407, 1355, 1333, 2443, 1332
12408, 2443, 1333, 1355, 2500
12409, 2443, 1674, 1355, 1332
12410, 2497, 1673, 2487, 1650
12411, 1651, 2487, 1673, 1650
12412, 1331, 2497, 2487, 1354
12413, 2487, 2497, 1331, 1673
12414, 1331, 2487, 1651, 1354
12415, 1651, 2487, 1331, 1673
12416, 1331, 1651, 1674, 1354
12417, 1674, 1651, 1331, 1673
12418, 2495, 2514, 1679, 1656
12419, 2496, 1469, 2431, 1791
12420, 2496, 2431, 1469, 1492
12421, 1337, 2495, 2514, 1679
12422, 2514, 2495, 1337, 1360
12423, 2514, 1359, 1337, 1679
12424, 1337, 1359, 2514, 1360
12425, 1690, 1576, 1713, 1691
12426, 1714, 1713, 1576, 1691
12427, 1714, 1576, 1713, 2473
12428, 2513, 2473, 1715, 1714
12429, 1690, 1598, 1576, 1575
12430, 2522, 1812, 1816, 1811
12431, 2522, 1816, 1812, 2511
12432, 2502, 424, 420, 419
12433, 2502, 420, 424, 2520
12434, 2511, 1818, 2482, 2507
12435, 2511, 2482, 1818, 1817
12436, 1358, 1359, 2514, 1336
12437, 1358, 2514, 1359, 2499
12438, 2506, 1367, 1345, 1344
12439, 2506, 1345, 1367, 2481
12440, 418, 1686, 417, 70
12441, 418, 417, 1686, 2508
12442, 71, 417, 1686, 70
12443, 71, 1686, 417, 2508
12444, 1321, 438, 76, 75
12445, 1617, 2506, 2458, 1640
12446, 2458, 2506, 1617, 2481
12447, 2520, 50, 2502, 1502
12448, 2520, 2502, 50, 424
12449, 434, 2520, 52, 429
12450, 434, 52, 2520, 1525
12451, 51, 52, 2520, 429
12452, 51, 2520, 52, 1525
12453, 438, 437, 1321, 76
12454, 438, 1321, 437, 2506
12455, 1344, 1321, 437, 76
12456, 1344, 437, 1321, 2506
12457, 1463, 2420, 289, 1462
12458, 289, 2420, 1463, 1785
12459, 2420, 288, 289, 1462
12460, 289, 288, 2420, 1785
12461, 2420, 1784, 288, 1462
12462, 288, 1784, 2420, 1785
12463, 75, 2456, 438, 30
12464, 75, 438, 2456, 1321
12465, 2466, 1714, 2473, 1576
12466, 2466, 2473, 1714, 1715
12467, 1599, 2466, 2473, 1576
12468, 1577, 2466, 1599, 1576
12469, 1326, 1348, 2513, 1349
12470, 2513, 1348, 1326, 2450
12471, 1692, 2466, 311, 1691
12472, 1692, 311, 2466, 1577
12473, 1576, 311, 2466, 1691
12474, 1576, 2466, 311, 1577
12475, 2436, 1777, 1799, 1776
12476, 2436, 1799, 1777, 2491
12477, 2519, 2436, 1799, 1776
12478, 2519, 1799, 2436, 2491
12479, 1753, 2436, 2519, 1776
12480, 1753, 2519, 2436, 2491
12481, 2427, 1358, 1335, 1357
12482, 1334, 2427, 1335, 1357
12483, 2477, 2427, 1334, 1357
12484, 2477, 1334, 2427, 2498
12485, 1481, 2452, 1757, 1480
12486, 1481, 1757, 2452, 2501
12487, 1757, 2452, 1756, 1480
12488, 1757, 1756, 2452, 2501
12489, 1756, 2452, 2474, 1480
12490, 1756, 2474, 2452, 2501
12491, 2474, 2452, 1503, 1480
12492, 2474, 1503, 2452, 2501
12493, 2501, 2472, 2451, 2504
12494, 2451, 1347, 1324, 1346
12495, 2451, 1324, 1347, 2504
12496, 1323, 2451, 1324, 1346
12497, 1323, 1324, 2451, 2504
12498, 2472, 2451, 1323, 1346
12499, 2472, 1323, 2451, 2504
12500, 1632, 2426, 1655, 1654
12501, 1632, 1655, 2426, 2514
12502, 2426, 1358, 2498, 2514
12503, 1677, 1358, 2426, 2514
12504, 1655, 2426, 1677, 1654
12505, 1655, 1677, 2426, 2514
12506, 1329, 2516, 1328, 1671
12507, 1670, 1328, 2516, 1671
12508, 1670, 2516, 1328, 2449
12509, 2516, 1647, 2512, 2449
12510, 2516, 2512, 1647, 1648
12511, 2492, 2445, 1476, 1798
12512, 2492, 1476, 2445, 2519
12513, 1799, 1476, 2445, 1798
12514, 1799, 2445, 1476, 2519
12515, 1414, 1550, 1392, 1415
12516, 1414, 1392, 1550, 1527
12517, 1393, 1392, 1550, 1415
12518, 1393, 1550, 1392, 1527
12519, 1682, 1363, 1683, 1340
12520, 1682, 1683, 1363, 1660
12521, 2499, 1404, 2498, 2483
12522, 2499, 2498, 1404, 1381
12523, 1651, 1355, 2443, 1674
12524, 1651, 2443, 1355, 2500
12525, 1675, 1652, 2443, 1674
12526, 1675, 2443, 1652, 2500
12527, 1652, 1651, 2443, 1674
12528, 1652, 2443, 1651, 2500
12529, 1713, 1598, 1576, 1690
12530, 1713, 1576, 1598, 2473
12531, 1631, 2483, 1609, 2426
12532, 1631, 1609, 2483, 1608
12533, 1669, 2509, 2422, 1646
12534, 1669, 2513, 2509, 1350
12535, 2509, 2513, 1669, 2422
12536, 2422, 1600, 2509, 2480
12537, 2509, 1600, 2422, 1623
12538, 1369, 2472, 2451, 2501
12539, 1369, 2451, 2472, 1346
12540, 1780, 1481, 1781, 2475
12541, 1780, 1781, 1481, 1458
12542, 1459, 1781, 1481, 2475
12543, 1459, 1481, 1781, 1458
12544, 1420, 1556, 1398, 1421
12545, 1420, 1398, 1556, 1533
12546, 1399, 1398, 1556, 1421
12547, 1399, 1556, 1398, 1533
12548, 1698, 1697, 1605, 1582
12549, 1698, 1605, 1697, 1720
12550, 1604, 1605, 1697, 1582
12551, 1604, 1697, 1605, 1720
12552, 1698, 1605, 1606, 1583
12553, 1606, 1605, 1698, 1721
12554, 1606, 1699, 1698, 1583
12555, 1698, 1699, 1606, 1721
12556, 1722, 1585, 1723, 1700
12557, 1722, 1723, 1585, 1608
12558, 1586, 1723, 1585, 1700
12559, 1586, 1585, 1723, 1608
12560, 1591, 1613, 1706, 2524
12561, 1591, 1706, 1613, 1590
12562, 1705, 1706, 1613, 2524
12563, 1705, 1613, 1706, 1590
12564, 1336, 1358, 1678, 2514
12565, 1336, 1678, 1358, 1335
12566, 1677, 1678, 1358, 2514
12567, 1677, 1358, 1678, 1335
12568, 1677, 1358, 2427, 2498
12569, 1677, 2427, 1358, 1335
12570, 1334, 2442, 2427, 2498
12571, 1334, 2427, 2442, 1335
12572, 2442, 1677, 2427, 2498
12573, 2442, 2427, 1677, 1335
12574, 1677, 2498, 2426, 1358
12575, 2426, 2498, 1677, 1654
12576, 1468, 1790, 1490, 2518
12577, 1468, 1490, 1790, 1467
12578, 2518, 1789, 2488, 1766
12579, 1790, 1467, 2518, 1789
12580, 1790, 2518, 1467, 1490
12581, 2488, 2518, 1467, 1789
12582, 2488, 1467, 2518, 1490
12583, 1462, 1784, 1484, 2480
12584, 1462, 1484, 1784, 1461
12585, 2480, 1783, 2493, 1760
12586, 1784, 1461, 2480, 1783
12587, 1784, 2480, 1461, 1484
12588, 2493, 2480, 1461, 1783
12589, 2493, 1461, 2480, 1484
12590, 1434, 1570, 1547, 2511
12591, 1547, 1570, 1434, 1569
12592, 1547, 1546, 1434, 2511
12593, 1434, 1546, 1547, 1569
12594, 1397, 1555, 1419, 2521
12595, 1397, 1419, 1555, 1420
12596, 1342, 1364, 1684, 2479
12597, 1342, 1684, 1364, 1341
12598, 1683, 1364, 1684, 1341
12599, 1364, 1660, 1661, 2479
12600, 1661, 1660, 1364, 1683
12601, 1661, 1684, 1364, 2479
12602, 1364, 1684, 1661, 1683
12603, 1658, 1338, 1657, 1361
12604, 1658, 1657, 1338, 1680
12605, 2495, 1657, 1338, 1361
12606, 2495, 1338, 1657, 1680
12607, 2499, 1382, 1405, 2514
12608, 1405, 1382, 2499, 1404
12609, 1405, 2483, 2499, 2514
12610, 2499, 2483, 1405, 1404
12611, 2456, 1321, 2506, 1663
12612, 2506, 1321, 2456, 438
12613, 2456, 2506, 2457, 1663
12614, 2457, 2506, 2456, 438
12615, 2456, 2457, 30, 1663
12616, 30, 2457, 2456, 438
12617, 2466, 2473, 2513, 1599
12618, 2466, 2513, 2473, 1715
12619, 1600, 2466, 2513, 1599
12620, 1600, 2513, 2466, 1715
12621, 1577, 2466, 1600, 1599
12622, 1577, 1600, 2466, 1715
12623, 1348, 2450, 1644, 1667
12624, 1644, 2450, 1348, 2513
12625, 2450, 1645, 1644, 1667
12626, 1644, 1645, 2450, 2513
12627, 2450, 1668, 1645, 1667
12628, 1645, 1668, 2450, 2513
12629, 2516, 1328, 2512, 1329
12630, 2516, 2512, 1328, 2449
*ELEMENT, type=C3D4, ELSET=Volume4
12631, 2080, 2594, 2628, 2639
12632, 2615, 2628, 2594, 2639
12633, 2178, 2551, 2623, 2627
12634, 2145, 2146, 2123, 2631
12635, 392, 391, 396, 2636
12636, 392, 396, 397, 2636
12637, 319, 1932, 1933, 2638
12638, 320, 319, 1933, 2638
12639, 391, 2594, 396, 2636
12640, 1887, 2570, 1886, 2598
12641, 2080, 2628, 1850, 2639
12642, 1756, 2621, 2594, 2626
12643, 1711, 2526, 1712, 2629
12644, 1850, 2628, 2615, 2639
12645, 1886, 2598, 2570, 2617
12646, 2091, 2602, 2613, 2616
12647, 2025, 2598, 2571, 2634
12648, 2011, 2615, 2012, 2628
12649, 2027, 1772, 2028, 2645
12650, 1773, 2028, 1772, 2645
12651, 392, 2102, 391, 2636
12652, 1773, 1772, 2601, 2645
12653, 1850, 2080, 1851, 2628
12654, 2081, 1851, 2080, 2628
12655, 2022, 2021, 2613, 2616
12656, 2594, 2621, 2615, 2639
12657, 2598, 2600, 2118, 2644
12658, 2188, 2193, 2622, 2635
12659, 2149, 2531, 1942, 2594
12660, 2022, 2613, 2602, 2616
12661, 1756, 2594, 2011, 2626
12662, 2570, 2617, 2598, 2618
12663, 1765, 2605, 2589, 2606
12664, 1850, 1851, 2615, 2628
12665, 1733, 2615, 2594, 2621
12666, 1733, 2594, 1756, 2621
12667, 2093, 2598, 1863, 2617
12668, 1765, 2020, 2589, 2605
12669, 2581, 2578, 2591, 2643
12670, 2023, 2602, 1768, 2620
12671, 2578, 2595, 2591, 2643
12672, 2141, 2118, 2600, 2644
12673, 2149, 2148, 2531, 2594
12674, 1942, 2531, 1941, 2594
12675, 2095, 2592, 1865, 2598
12676, 2093, 2116, 2598, 2617
12677, 1765, 2593, 2605, 2606
12678, 2091, 2613, 2593, 2616
12679, 1771, 2598, 2592, 2600
12680, 396, 2594, 391, 2639
12681, 1765, 2593, 2020, 2605
12682, 1896, 2615, 2621, 2639
12683, 1983, 2559, 1984, 2646
12684, 2144, 2145, 2122, 2599
12685, 2144, 2122, 2121, 2599
12686, 2592, 2601, 1772, 2645
12687, 2593, 2613, 2021, 2616
12688, 2027, 2592, 1772, 2645
12689, 2091, 2602, 1861, 2613
12690, 1771, 2592, 2026, 2600
12691, 2106, 2581, 2578, 2591
12692, 2023, 2022, 1768, 2602
12693, 1767, 1768, 2022, 2602
12694, 1733, 1756, 2594, 2615
12695, 2526, 1711, 2615, 2629
12696, 2589, 2019, 2609, 2612
12697, 2020, 2593, 2021, 2605
12698, 2012, 2615, 2588, 2628
12699, 2580, 2571, 2598, 2634
12700, 1764, 2589, 2019, 2609
12701, 1767, 2022, 2021, 2613
12702, 1766, 1767, 2021, 2613
12703, 1757, 2012, 2011, 2615
12704, 1756, 1757, 2011, 2615
12705, 2028, 1774, 2029, 2608
12706, 2028, 1773, 1774, 2608
12707, 2106, 2591, 2578, 2595
12708, 1864, 2094, 1865, 2598
12709, 2095, 1865, 2094, 2598
12710, 1767, 2602, 2022, 2613
12711, 2028, 2608, 2005, 2645
12712, 2597, 2005, 2608, 2645
12713, 1774, 2029, 2608, 2637
12714, 2020, 1766, 2021, 2593
12715, 1765, 1766, 2020, 2593
12716, 2028, 2029, 2597, 2608
12717, 1873, 1850, 2615, 2639
12718, 2091, 2593, 2090, 2616
12719, 1856, 2087, 1857, 2630
12720, 1856, 2086, 2087, 2630
12721, 2192, 2187, 2188, 2622
12722, 2182, 2178, 2183, 2622
12723, 2188, 2193, 2192, 2622
12724, 2091, 1861, 2602, 2620
12725, 2597, 2608, 2029, 2637
12726, 2124, 2550, 2173, 2623
12727, 2019, 1764, 2020, 2589
12728, 1764, 1765, 2020, 2589
12729, 1854, 2084, 1855, 2595
12730, 1855, 2084, 2085, 2595
12731, 2113, 2112, 2563, 2605
12732, 2177, 2551, 2178, 2627
12733, 2581, 2591, 2629, 2643
12734, 2091, 1861, 1860, 2593
12735, 2091, 1860, 2090, 2593
12736, 2178, 2551, 2173, 2623
12737, 402, 401, 2621, 2636
12738, 2091, 1861, 2593, 2613
12739, 391, 390, 395, 2639
12740, 395, 396, 391, 2639
12741, 2592, 2600, 2598, 2644
12742, 1762, 2630, 2017, 2641
12743, 2624, 2635, 2587, 2640
12744, 2017, 2630, 2590, 2641
12745, 2087, 2603, 1857, 2630
12746, 1776, 2635, 2624, 2640
12747, 1766, 2021, 2593, 2613
12748, 402, 401, 406, 2621
12749, 407, 402, 406, 2621
12750, 2028, 2597, 2005, 2608
12751, 1855, 2595, 2085, 2610
12752, 2085, 2610, 2595, 2611
12753, 2093, 2094, 1863, 2598
12754, 1864, 1863, 2094, 2598
12755, 1766, 2593, 1765, 2606
12756, 2178, 2587, 2183, 2622
12757, 1760, 2595, 2015, 2643
12758, 2547, 2619, 2602, 2620
12759, 2183, 2587, 2178, 2635
12760, 1897, 2526, 2615, 2629
12761, 2585, 2603, 2087, 2630
12762, 2581, 2584, 2578, 2643
12763, 1896, 2621, 1895, 2639
12764, 1762, 2604, 2017, 2630
12765, 1892, 2596, 2583, 2597
12766, 2604, 2609, 2019, 2612
12767, 1757, 2588, 2012, 2615
12768, 2102, 2594, 391, 2636
12769, 1761, 2016, 2610, 2641
12770, 2016, 2611, 2610, 2641
12771, 1765, 2606, 2589, 2633
12772, 1855, 2085, 2590, 2610
12773, 2085, 2590, 2610, 2611
12774, 2023, 2000, 2620, 2634
12775, 2586, 2620, 2000, 2634
12776, 1725, 1724, 1911, 2598
12777, 1911, 1724, 1910, 2598
12778, 1858, 2603, 2537, 2642
12779, 1854, 2595, 1855, 2610
12780, 1764, 2019, 2604, 2609
12781, 2014, 2015, 2595, 2643
12782, 1857, 2537, 1858, 2603
12783, 1725, 2598, 1911, 2614
12784, 2603, 2612, 2537, 2642
12785, 1776, 2031, 2624, 2635
12786, 1896, 2615, 1710, 2621
12787, 1886, 1863, 2598, 2617
12788, 1870, 2596, 2587, 2640
12789, 2118, 2117, 2140, 2598
12790, 2082, 1852, 1851, 2588
12791, 2081, 2082, 1851, 2588
12792, 2013, 1757, 1758, 2588
12793, 2013, 2012, 1757, 2588
12794, 2031, 2030, 1776, 2596
12795, 1870, 1869, 2099, 2596
12796, 2174, 2173, 2550, 2623
12797, 2580, 2598, 2586, 2634
12798, 1761, 2016, 2595, 2610
12799, 2595, 2610, 2016, 2611
12800, 2016, 2015, 1760, 2595
12801, 1760, 1761, 2016, 2595
12802, 2085, 2595, 2084, 2611
12803, 1855, 2085, 1856, 2590
12804, 1856, 2085, 2086, 2590
12805, 393, 2125, 392, 2636
12806, 2093, 2116, 2617, 2620
12807, 2570, 1909, 2617, 2618
12808, 1869, 1868, 2098, 2625
12809, 2099, 1869, 2098, 2625
12810, 2089, 2593, 1859, 2642
12811, 2111, 2537, 2612, 2642
12812, 2089, 1860, 1859, 2593
12813, 2090, 1860, 2089, 2593
12814, 1869, 2597, 1868, 2625
12815, 2192, 2193, 1754, 2622
12816, 1868, 2597, 2098, 2625
12817, 1860, 2593, 1861, 2613
12818, 2542, 2604, 1739, 2630
12819, 2582, 2617, 1908, 2618
12820, 2190, 2195, 2194, 2635
12821, 2194, 2189, 2190, 2635
12822, 2089, 2605, 2593, 2642
12823, 1896, 1873, 2615, 2639
12824, 1879, 2590, 2630, 2641
12825, 2183, 2178, 2179, 2635
12826, 2189, 2193, 2188, 2635
12827, 2179, 2184, 2183, 2635
12828, 2194, 2193, 2189, 2635
12829, 2082, 2105, 2591, 2629
12830, 2117, 2118, 2095, 2598
12831, 2095, 2094, 2117, 2598
12832, 2031, 2596, 1776, 2624
12833, 1714, 2525, 2632, 2643
12834, 2570, 2598, 1910, 2618
12835, 396, 2594, 401, 2636
12836, 1941, 2531, 2148, 2594
12837, 398, 2533, 1964, 2636
12838, 2027, 2026, 1772, 2592
12839, 1771, 1772, 2026, 2592
12840, 1865, 2096, 1866, 2592
12841, 1865, 2095, 2096, 2592
12842, 1868, 1867, 2097, 2597
12843, 2098, 1868, 2097, 2597
12844, 1776, 1753, 2635, 2640
12845, 2082, 2588, 2105, 2629
12846, 2124, 2173, 2551, 2623
12847, 2105, 2581, 2106, 2591
12848, 2111, 2088, 2537, 2642
12849, 1776, 2624, 2596, 2640
12850, 1767, 1744, 1745, 2602
12851, 1745, 1768, 1767, 2602
12852, 391, 2079, 390, 2639
12853, 2116, 2586, 2580, 2598
12854, 2086, 1856, 2590, 2630
12855, 1984, 1985, 2575, 2624
12856, 2099, 2596, 1869, 2625
12857, 1988, 2594, 2011, 2628
12858, 1991, 2014, 2595, 2643
12859, 1891, 1868, 1869, 2597
12860, 1891, 1869, 1892, 2597
12861, 1866, 2592, 2096, 2601
12862, 1948, 2538, 1947, 2590
12863, 2551, 2124, 2623, 2627
12864, 2002, 2580, 2571, 2598
12865, 1879, 2590, 1856, 2630
12866, 2542, 1740, 2604, 2630
12867, 1891, 1892, 2583, 2597
12868, 2100, 2596, 2099, 2625
12869, 1886, 2570, 1909, 2617
12870, 1944, 2532, 1943, 2588
12871, 1918, 1895, 1896, 2621
12872, 1896, 1919, 1918, 2621
12873, 1733, 1710, 2615, 2621
12874, 2080, 2594, 2103, 2628
12875, 1686, 1918, 1919, 2621
12876, 1851, 2588, 1852, 2629
12877, 1855, 1856, 1878, 2590
12878, 1856, 1879, 1878, 2590
12879, 2598, 2618, 2617, 2634
12880, 1754, 2622, 2193, 2635
12881, 1879, 1878, 2590, 2641
12882, 2096, 2601, 2592, 2645
12883, 2194, 2195, 1800, 2635
12884, 2087, 2537, 1857, 2603
12885, 1991, 2584, 2014, 2643
12886, 2093, 2617, 1863, 2620
12887, 1727, 1726, 2556, 2601
12888, 2587, 2596, 2100, 2624
12889, 2012, 2588, 1989, 2628
12890, 2013, 1758, 2584, 2588
12891, 1754, 2193, 2194, 2635
12892, 1867, 1866, 2097, 2601
12893, 2097, 1866, 2096, 2601
12894, 1734, 2588, 2615, 2629
12895, 1908, 2617, 1909, 2618
12896, 1987, 2533, 403, 2636
12897, 2005, 2028, 2006, 2597
12898, 2028, 2029, 2006, 2597
12899, 1688, 1921, 1689, 2526
12900, 1761, 1762, 2016, 2641
12901, 2017, 2016, 1762, 2641
12902, 2559, 2599, 2597, 2625
12903, 1770, 2598, 2025, 2634
12904, 1982, 2597, 2143, 2645
12905, 2125, 2102, 392, 2636
12906, 2127, 1943, 2532, 2588
12907, 2590, 2611, 2016, 2641
12908, 2129, 2578, 2106, 2581
12909, 1983, 2144, 1982, 2597
12910, 2144, 2143, 1982, 2597
12911, 2617, 2618, 2569, 2634
12912, 2106, 2107, 2591, 2595
12913, 2587, 2623, 2178, 2635
12914, 2093, 2116, 2094, 2598
12915, 2117, 2094, 2116, 2598
12916, 2086, 2590, 2109, 2630
12917, 2109, 2590, 2585, 2630
12918, 2090, 2593, 2089, 2605
12919, 1725, 1748, 2598, 2614
12920, 1888, 1911, 2598, 2614
12921, 1858, 2537, 2088, 2642
12922, 2178, 2623, 2587, 2627
12923, 2031, 1776, 1799, 2635
12924, 2054, 2031, 1799, 2635
12925, 1744, 2582, 1745, 2602
12926, 1887, 1864, 1865, 2598
12927, 1865, 1888, 1887, 2598
12928, 1747, 1748, 1770, 2598
12929, 1770, 1748, 1771, 2598
12930, 1852, 2588, 2082, 2629
12931, 2104, 2588, 2081, 2628
12932, 1693, 1716, 2541, 2641
12933, 1783, 2016, 2015, 1760
12934, 1758, 1780, 2013, 1781
12935, 1760, 1783, 2016, 1761
12936, 1788, 1789, 2043, 1766
12937, 1758, 1780, 1757, 2013
12938, 2013, 1780, 1757, 2012
12939, 2034, 2012, 1780, 2035
12940, 2012, 2013, 1780, 2035
12941, 2038, 2016, 2015, 1783
12942, 2017, 2039, 1762, 2016
12943, 2038, 2016, 1783, 2039
12944, 1787, 2020, 1764, 1765
12945, 1768, 1767, 2022, 1790
12946, 2039, 2017, 1762, 2040
12947, 1707, 1916, 1706, 1939
12948, 2021, 2020, 2043, 1766
12949, 1938, 1916, 1706, 1915
12950, 1916, 1938, 1706, 1939
12951, 1939, 1917, 1707, 1916
12952, 1917, 1939, 1707, 1940
12953, 1796, 2051, 1795, 1773
12954, 1797, 2051, 1796, 1774
12955, 1773, 1796, 2051, 1774
12956, 2064, 1835, 2087, 2065
12957, 1855, 2084, 1854, 2062
12958, 1852, 1851, 2059, 2082
12959, 1855, 2084, 2062, 2085
12960, 2082, 1851, 2059, 2081
12961, 2080, 2058, 2057, 1828
12962, 1855, 2062, 2063, 2085
12963, 1850, 2057, 1828, 2080
12964, 2043, 1787, 2020, 2042
12965, 1851, 2059, 1829, 1852
12966, 2063, 1856, 1855, 2085
12967, 2098, 2076, 1846, 2099
12968, 2099, 1846, 2077, 2076
12969, 1828, 1851, 1850, 2080
12970, 2086, 2064, 1856, 2087
12971, 2076, 2098, 1846, 2075
12972, 2057, 1850, 1828, 1827
12973, 1856, 2063, 2064, 2086
12974, 1832, 1854, 1831, 2062
12975, 1856, 2063, 2086, 2085
12976, 1861, 1860, 1838, 2091
12977, 2045, 2022, 2044, 1790
12978, 1837, 1859, 2089, 1860
12979, 1960, 1959, 1982, 2167
12980, 2062, 1854, 1855, 1832
12981, 1835, 1857, 2087, 1858
12982, 1855, 2062, 1832, 2063
12983, 2025, 1770, 1793, 2026
12984, 2026, 1772, 1794, 2027
12985, 1855, 1833, 2063, 1832
12986, 1793, 1771, 2026, 1770
12987, 1772, 2026, 1794, 1771
12988, 1771, 1793, 2026, 1794
12989, 2027, 1795, 2028, 1772
12990, 1795, 1794, 1772, 2027
12991, 2031, 2030, 1798, 1776
12992, 1798, 1799, 2031, 1776
12993, 1856, 2064, 1833, 1834
12994, 2063, 1856, 2064, 1833
12995, 1833, 1855, 2063, 1856
12996, 2099, 1870, 2077, 1869
12997, 1868, 2097, 1867, 2075
12998, 1865, 2073, 1866, 2096
12999, 2098, 2097, 1868, 2075
13000, 2096, 2074, 1866, 2097
13001, 2093, 2071, 1863, 2094
13002, 2095, 2073, 1865, 2096
13003, 1864, 2072, 1865, 2094
13004, 2074, 2096, 1866, 2073
13005, 2095, 1865, 2072, 2094
13006, 2073, 2095, 1865, 2072
13007, 2071, 1864, 1863, 2094
13008, 1864, 2071, 2072, 2094
13009, 2029, 2051, 1774, 2028
13010, 2051, 2028, 1773, 1774
13011, 1846, 2098, 2099, 1869
13012, 2026, 2048, 1793, 2025
13013, 1846, 2099, 2077, 1869
13014, 2048, 2026, 1793, 2049
13015, 2027, 2049, 1794, 2026
13016, 1793, 1794, 2049, 2026
13017, 2049, 2027, 1794, 2050
13018, 1795, 2027, 2028, 2050
13019, 1795, 1794, 2027, 2050
13020, 2028, 1795, 2050, 2051
13021, 2072, 1842, 1841, 1864
13022, 1842, 2072, 1865, 1864
13023, 1865, 1843, 2073, 1842
13024, 1843, 1865, 2073, 1866
13025, 1864, 1841, 2071, 1863
13026, 2071, 1864, 2072, 1841
13027, 1846, 1868, 1845, 2075
13028, 1867, 1844, 1845, 2075
13029, 1867, 1845, 1868, 2075
13030, 2072, 1865, 2073, 1842
13031, 2031, 2053, 1798, 2030
13032, 1869, 1847, 2077, 1846
13033, 1847, 1869, 2077, 1870
13034, 2053, 2031, 1798, 2054
13035, 2031, 1799, 1798, 2054
13036, 1862, 1839, 1840, 2620
13037, 1840, 1863, 1862, 2620
13038, 1869, 2596, 1870, 2640
13039, 1776, 2596, 1775, 2640
13040, 1931, 1908, 1909, 2618
13041, 1932, 1931, 1909, 2618
13042, 391, 2594, 2102, 2639
13043, 2594, 2621, 401, 2636
13044, 2015, 2038, 1783, 2529
13045, 2091, 2068, 1838, 2560
13046, 2571, 2580, 2001, 2634
13047, 1851, 2588, 1874, 2615
13048, 1734, 2588, 1757, 2615
13049, 1992, 1991, 2014, 2595
13050, 2014, 2015, 1992, 2595
13051, 1859, 2593, 2606, 2642
13052, 1708, 2191, 2192, 2622
13053, 1850, 2057, 2080, 2639
13054, 1827, 2057, 1850, 2639
13055, 389, 394, 390, 2639
13056, 390, 394, 395, 2639
13057, 404, 400, 399, 2639
13058, 405, 400, 404, 2639
13059, 2173, 2178, 2177, 2551
13060, 2177, 2172, 2173, 2551
13061, 1874, 2588, 1851, 2629
13062, 389, 390, 2056, 2639
13063, 1714, 1713, 2525, 2643
13064, 2149, 2594, 1942, 2628
13065, 2077, 2587, 2100, 2627
13066, 2017, 2590, 2016, 2641
13067, 2025, 2002, 2571, 2598
13068, 2584, 2588, 1758, 2629
13069, 2106, 2578, 2107, 2595
13070, 1761, 2595, 1760, 2610
13071, 1731, 2622, 2587, 2640
13072, 2149, 2126, 2594, 2628
13073, 2097, 2601, 2096, 2645
13074, 2055, 2054, 1800, 2635
13075, 2054, 1799, 1800, 2635
13076, 1855, 2590, 1878, 2610
13077, 1772, 1749, 1750, 2601
13078, 1773, 1772, 1750, 2601
13079, 2096, 2592, 2095, 2644
13080, 2587, 2622, 1754, 2635
13081, 74, 1778, 413, 2534
13082, 2190, 2032, 2195, 2635
13083, 1799, 1776, 1777, 2635
13084, 1777, 1800, 1799, 2635
13085, 409, 404, 1918, 2621
13086, 1947, 2590, 2538, 2611
13087, 2146, 2145, 2168, 2631
13088, 2146, 2168, 2169, 2631
13089, 2583, 2597, 2596, 2637
13090, 2084, 2591, 2107, 2595
13091, 1867, 2597, 1868, 2608
13092, 1776, 1753, 1754, 2635
13093, 1776, 1754, 1777, 2635
13094, 1854, 2591, 2595, 2632
13095, 2084, 1854, 2591, 2595
13096, 1782, 2037, 2014, 2529
13097, 2127, 1943, 2150, 2532
13098, 2092, 1839, 2069, 2560
13099, 2587, 2622, 2178, 2627
13100, 1874, 2615, 2588, 2629
13101, 1747, 1724, 1725, 2598
13102, 1725, 1748, 1747, 2598
13103, 1888, 1910, 1887, 2598
13104, 1888, 1911, 1910, 2598
13105, 2117, 2116, 2580, 2598
13106, 2146, 2574, 2147, 2624
13107, 1878, 2610, 2590, 2641
13108, 1708, 1940, 2622, 2640
13109, 2079, 2057, 2056, 2639
13110, 2079, 2080, 2057, 2639
13111, 1734, 2615, 1711, 2629
13112, 2056, 1827, 1826, 2639
13113, 1827, 2056, 2057, 2639
13114, 1885, 2582, 2602, 2620
13115, 2583, 2596, 1892, 2640
13116, 1752, 2596, 2583, 2640
13117, 1752, 2583, 2596, 2637
13118, 1708, 2622, 1731, 2640
13119, 2055, 2032, 2054, 2635
13120, 2054, 2032, 2031, 2635
13121, 1852, 2082, 2591, 2629
13122, 2016, 2015, 2595, 2611
13123, 1755, 74, 73, 2534
13124, 74, 1755, 1778, 2534
13125, 1688, 2526, 1711, 2615
13126, 2140, 2598, 2580, 2600
13127, 2183, 2622, 2587, 2635
13128, 1754, 2587, 1731, 2622
13129, 1948, 2585, 2538, 2590
13130, 1997, 2589, 2020, 2605
13131, 1992, 2578, 1991, 2595
13132, 1940, 1917, 2622, 2640
13133, 396, 401, 2594, 2639
13134, 1982, 2005, 2597, 2645
13135, 1864, 1886, 1863, 2598
13136, 1887, 1886, 1864, 2598
13137, 2574, 2623, 2147, 2624
13138, 1944, 2581, 2532, 2588
13139, 1892, 2596, 1869, 2640
13140, 1775, 2596, 1752, 2640
13141, 1791, 1792, 2046, 2634
13142, 2046, 1792, 2047, 2634
13143, 1885, 2582, 1884, 2602
13144, 2138, 2602, 2137, 2619
13145, 1859, 2593, 1860, 2606
13146, 1917, 2554, 2186, 2622
13147, 2559, 2625, 2597, 2637
13148, 2131, 2538, 2590, 2611
13149, 2106, 2107, 2084, 2591
13150, 2084, 2083, 2106, 2591
13151, 2004, 2592, 2027, 2645
13152, 1862, 1863, 2617, 2620
13153, 2178, 2623, 2179, 2635
13154, 1731, 2587, 1754, 2640
13155, 1968, 1991, 2578, 2584
13156, 2191, 2186, 2187, 2622
13157, 2191, 2187, 2192, 2622
13158, 1947, 2538, 2154, 2611
13159, 2087, 2585, 2110, 2603
13160, 2123, 2100, 2596, 2624
13161, 1963, 2623, 2574, 2624
13162, 393, 398, 1941, 2636
13163, 1999, 2022, 2602, 2616
13164, 413, 2534, 1778, 2626
13165, 1744, 2602, 1767, 2613
13166, 2131, 2154, 2538, 2611
13167, 1848, 2171, 328, 2553
13168, 1772, 2592, 1771, 2614
13169, 1865, 2592, 1866, 2614
13170, 2159, 2562, 2160, 2616
13171, 1709, 2535, 410, 2621
13172, 1872, 1873, 1895, 2639
13173, 1849, 1826, 1827, 2639
13174, 1873, 1896, 1895, 2639
13175, 1827, 1850, 1849, 2639
13176, 1737, 2595, 1760, 2643
13177, 393, 392, 397, 2636
13178, 397, 398, 393, 2636
13179, 407, 403, 402, 2636
13180, 408, 403, 407, 2636
13181, 2158, 2546, 2159, 2605
13182, 2559, 2596, 2625, 2637
13183, 2592, 2601, 1866, 2614
13184, 405, 404, 409, 2621
13185, 409, 410, 405, 2621
13186, 1746, 2569, 2618, 2634
13187, 2082, 2105, 2083, 2591
13188, 2083, 2105, 2106, 2591
13189, 1793, 1770, 2025, 2634
13190, 1791, 1768, 1769, 2634
13191, 1769, 1792, 1791, 2634
13192, 1953, 2562, 1952, 2616
13193, 2605, 2606, 2593, 2642
13194, 2109, 2110, 2087, 2585
13195, 2046, 2024, 2023, 2634
13196, 2046, 2047, 2024, 2634
13197, 405, 404, 2621, 2639
13198, 2559, 2596, 1984, 2625
13199, 2589, 2605, 2112, 2642
13200, 2181, 2554, 1894, 2622
13201, 1898, 2526, 1897, 2629
13202, 1968, 2578, 2581, 2584
13203, 2602, 2616, 2137, 2619
13204, 2585, 2604, 2603, 2630
13205, 1952, 2546, 1951, 2605
13206, 2007, 2596, 2559, 2637
13207, 1737, 2632, 2595, 2643
13208, 2019, 2589, 1996, 2612
13209, 1848, 2171, 2553, 2627
13210, 1735, 2530, 1736, 2643
13211, 1941, 1964, 1942, 2594
13212, 1942, 1964, 1965, 2594
13213, 2149, 2126, 2148, 2594
13214, 2125, 2148, 2126, 2594
13215, 2102, 2103, 2080, 2594
13216, 2175, 2576, 2170, 2623
13217, 1984, 2559, 2007, 2596
13218, 1739, 2542, 1740, 2604
13219, 2011, 2012, 1989, 2628
13220, 1988, 2011, 1989, 2628
13221, 1961, 2625, 2575, 2631
13222, 2128, 2532, 2581, 2588
13223, 2005, 1983, 1982, 2597
13224, 1983, 2005, 2006, 2597
13225, 394, 389, 1826, 2639
13226, 404, 399, 1872, 2639
13227, 1892, 1869, 1870, 2640
13228, 1893, 1892, 1870, 2640
13229, 1775, 1752, 1753, 2640
13230, 1753, 1776, 1775, 2640
13231, 2558, 2583, 1915, 2640
13232, 2183, 2188, 2622, 2635
13233, 1917, 331, 2186, 2554
13234, 338, 2170, 2175, 2576
13235, 71, 410, 1709, 2535
13236, 44, 1964, 398, 2533
13237, 1889, 1866, 2601, 2614
13238, 2179, 2178, 2174, 2623
13239, 2174, 2178, 2173, 2623
13240, 2131, 2538, 2132, 2590
13241, 1732, 411, 2535, 2621
13242, 1729, 2583, 2558, 2640
13243, 1915, 2583, 1892, 2640
13244, 1752, 2583, 1729, 2640
13245, 1848, 328, 1871, 2553
13246, 1871, 328, 329, 2553
13247, 2125, 2594, 2102, 2636
13248, 1936, 1704, 2556, 2601
13249, 397, 396, 401, 2636
13250, 401, 402, 397, 2636
13251, 1727, 2556, 1704, 2601
13252, 1731, 2192, 1754, 2622
13253, 2089, 2112, 2605, 2642
13254, 1963, 2574, 1962, 2624
13255, 2128, 2127, 2532, 2588
13256, 1941, 2594, 2148, 2636
13257, 2191, 1940, 2186, 2622
13258, 2006, 2597, 2029, 2637
13259, 1773, 2601, 1750, 2608
13260, 2589, 2606, 2605, 2642
13261, 1730, 1729, 2558, 2640
13262, 2125, 393, 2148, 2636
13263, 1885, 2617, 2582, 2620
13264, 2124, 2623, 2587, 2624
13265, 2582, 2602, 1744, 2613
13266, 1711, 1712, 1734, 2629
13267, 1734, 1712, 1735, 2629
13268, 2100, 2587, 2101, 2627
13269, 1694, 2565, 1695, 2609
13270, 1917, 1707, 1916, 2640
13271, 1950, 2544, 1949, 2612
13272, 1752, 2596, 1775, 2637
13273, 1861, 2602, 1884, 2613
13274, 2111, 2612, 2589, 2642
13275, 1953, 2160, 2562, 2616
13276, 1871, 2553, 2176, 2627
13277, 2087, 2110, 2537, 2603
13278, 2138, 2115, 2602, 2620
13279, 2177, 2182, 2181, 2627
13280, 2181, 2176, 2177, 2627
13281, 409, 1686, 410, 2621
13282, 1928, 1929, 2566, 2606
13283, 1998, 2593, 2021, 2616
13284, 1740, 2609, 2604, 2630
13285, 411, 412, 407, 2626
13286, 1964, 2594, 1941, 2636
13287, 1755, 2534, 412, 2626
13288, 1697, 2567, 1698, 2613
13289, 2159, 2546, 1952, 2605
13290, 2143, 2597, 2120, 2645
13291, 2003, 2592, 2004, 2644
13292, 1704, 2555, 1705, 2608
13293, 1691, 2527, 1692, 2610
13294, 1947, 2539, 1946, 2611
13295, 2115, 2114, 2137, 2602
13296, 2138, 2115, 2137, 2602
13297, 1927, 2565, 1926, 2609
13298, 2564, 1882, 2633, 2642
13299, 1871, 2587, 1870, 2627
13300, 1769, 1768, 1746, 2634
13301, 2157, 2156, 2544, 2612
13302, 391, 2102, 2079, 2639
13303, 2103, 2081, 2080, 2628
13304, 2103, 2104, 2081, 2628
13305, 2148, 2594, 2125, 2636
13306, 1891, 2597, 2583, 2608
13307, 2537, 2603, 2110, 2612
13308, 401, 2621, 2594, 2639
13309, 2001, 2586, 2000, 2634
13310, 1874, 1851, 1852, 2629
13311, 1852, 1875, 1874, 2629
13312, 1983, 2006, 2559, 2597
13313, 1747, 2598, 1770, 2634
13314, 2006, 2559, 2597, 2637
13315, 1696, 2566, 1697, 2606
13316, 2179, 2623, 2184, 2635
13317, 1897, 2615, 1874, 2629
13318, 2025, 2002, 2598, 2600
13319, 1929, 1930, 2567, 2613
13320, 1708, 1707, 1940, 2640
13321, 2108, 2590, 2085, 2611
13322, 2016, 2590, 1993, 2611
13323, 1910, 2570, 1887, 2598
13324, 1937, 2555, 1936, 2608
13325, 1924, 2527, 1923, 2610
13326, 2153, 2539, 2154, 2611
13327, 2001, 2000, 2023, 2634
13328, 2001, 2023, 2024, 2634
13329, 1735, 2629, 2530, 2643
13330, 2595, 2632, 2591, 2643
13331, 404, 1895, 2621, 2639
13332, 1739, 2604, 1762, 2630
13333, 329, 2176, 1871, 2553
13334, 2032, 2190, 2185, 2635
13335, 2592, 2004, 2644, 2645
13336, 2021, 2593, 1998, 2605
13337, 2604, 2609, 2603, 2630
13338, 1910, 2598, 1724, 2618
13339, 2003, 2026, 2004, 2592
13340, 2027, 2004, 2026, 2592
13341, 393, 1941, 2148, 2636
13342, 2027, 2028, 2005, 2645
13343, 2005, 2004, 2027, 2645
13344, 2097, 2096, 2119, 2645
13345, 2119, 2120, 2097, 2645
13346, 73, 412, 1755, 2534
13347, 2091, 2090, 2113, 2616
13348, 2021, 2022, 1999, 2616
13349, 1998, 2021, 1999, 2616
13350, 2583, 1751, 2608, 2637
13351, 2583, 2608, 2597, 2637
13352, 2159, 1952, 2562, 2616
13353, 2014, 2584, 1759, 2643
13354, 1800, 1777, 2194, 2635
13355, 2055, 1800, 2195, 2635
13356, 1905, 2564, 1882, 2633
13357, 1997, 1996, 2019, 2589
13358, 2019, 2020, 1997, 2589
13359, 2090, 2089, 2112, 2605
13360, 2112, 2113, 2090, 2605
13361, 2020, 2021, 1998, 2605
13362, 1998, 1997, 2020, 2605
13363, 1854, 2595, 1877, 2632
13364, 1747, 2618, 2598, 2634
13365, 1739, 2630, 1762, 2641
13366, 1777, 1754, 2194, 2635
13367, 1987, 45, 403, 2533
13368, 1732, 411, 72, 2535
13369, 2173, 2124, 340, 2550
13370, 1894, 2181, 330, 2554
13371, 2158, 1951, 2546, 2605
13372, 1708, 1730, 1707, 2640
13373, 1708, 1731, 1730, 2640
13374, 2126, 2103, 2594, 2628
13375, 2587, 2623, 2124, 2627
13376, 395, 400, 396, 2639
13377, 396, 400, 401, 2639
13378, 1884, 2602, 2582, 2613
13379, 1998, 2605, 2593, 2616
13380, 2167, 2145, 2144, 2599
13381, 2168, 2145, 2167, 2599
13382, 1706, 1938, 1915, 2583
13383, 2181, 1894, 2176, 2627
13384, 1987, 2626, 2594, 2636
13385, 1792, 1769, 1770, 2634
13386, 1793, 1792, 1770, 2634
13387, 2589, 2612, 2603, 2642
13388, 411, 1732, 412, 2626
13389, 1707, 1917, 1940, 2640
13390, 1737, 2610, 2595, 2632
13391, 2047, 2025, 2024, 2634
13392, 1753, 1730, 1731, 2640
13393, 1731, 1754, 1753, 2640
13394, 2594, 2626, 2621, 2636
13395, 1926, 2565, 1694, 2609
13396, 1714, 2632, 1737, 2643
13397, 1877, 2595, 2610, 2632
13398, 2580, 2598, 1979, 2600
13399, 1949, 2544, 2156, 2612
13400, 2098, 2097, 2120, 2597
13401, 2120, 2121, 2098, 2597
13402, 1893, 1870, 2587, 2640
13403, 2008, 2624, 2031, 2635
13404, 1709, 1710, 1732, 2621
13405, 1733, 1732, 1710, 2621
13406, 2090, 2593, 2113, 2616
13407, 1736, 1737, 1759, 2643
13408, 1737, 1760, 1759, 2643
13409, 1697, 2566, 1929, 2606
13410, 2603, 2604, 2585, 2612
13411, 2009, 2624, 2008, 2635
13412, 1929, 2567, 1697, 2613
13413, 1979, 2598, 2002, 2600
13414, 1852, 2082, 2059, 2591
13415, 2123, 2596, 2100, 2625
13416, 1936, 2555, 1704, 2608
13417, 1691, 1923, 2527, 2610
13418, 1946, 2539, 2153, 2611
13419, 1857, 2603, 1880, 2630
13420, 2187, 2182, 2183, 2622
13421, 2183, 2188, 2187, 2622
13422, 2107, 2578, 2130, 2595
13423, 1957, 1958, 2549, 2644
13424, 1948, 1947, 1970, 2590
13425, 1970, 1971, 1948, 2590
13426, 2140, 2117, 2580, 2598
13427, 1979, 2580, 2002, 2598
13428, 1879, 1901, 1878, 2641
13429, 1879, 1902, 1901, 2641
13430, 2078, 1848, 2077, 2627
13431, 2192, 1731, 1708, 2622
13432, 1871, 1870, 1848, 2627
13433, 2056, 390, 2079, 2639
13434, 1766, 2593, 1743, 2613
13435, 1756, 1778, 1755, 2626
13436, 2026, 2592, 2003, 2600
13437, 1691, 1714, 2525, 2632
13438, 1916, 2558, 1915, 2640
13439, 1879, 2630, 1902, 2641
13440, 1877, 2595, 1854, 2610
13441, 2128, 2532, 2151, 2581
13442, 2113, 2593, 2090, 2605
13443, 1882, 1859, 1860, 2606
13444, 1860, 1883, 1882, 2606
13445, 1743, 1766, 1765, 2606
13446, 1752, 1751, 2583, 2637
13447, 406, 401, 405, 2621
13448, 2151, 2532, 1944, 2581
13449, 2055, 2195, 2032, 2635
13450, 1883, 1860, 1861, 2613
13451, 1883, 1861, 1884, 2613
13452, 1766, 1743, 1744, 2613
13453, 1744, 1767, 1766, 2613
13454, 1741, 1718, 1719, 2607
13455, 1719, 1742, 1741, 2607
13456, 1895, 1918, 404, 2621
13457, 1873, 1850, 1851, 2615
13458, 1851, 1874, 1873, 2615
13459, 1877, 1854, 1855, 2610
13460, 1855, 1878, 1877, 2610
13461, 2107, 2085, 2084, 2611
13462, 2107, 2108, 2085, 2611
13463, 1734, 1756, 1733, 2615
13464, 1734, 1757, 1756, 2615
13465, 1865, 1866, 1888, 2614
13466, 1866, 1889, 1888, 2614
13467, 1993, 1992, 2015, 2611
13468, 2016, 1993, 2015, 2611
13469, 1890, 1867, 1868, 2608
13470, 1868, 1891, 1890, 2608
13471, 1738, 1760, 1737, 2610
13472, 1738, 1761, 1760, 2610
13473, 1771, 1748, 1749, 2614
13474, 1749, 1772, 1771, 2614
13475, 1773, 1750, 1751, 2608
13476, 1751, 1774, 1773, 2608
13477, 2108, 2086, 2085, 2590
13478, 2108, 2109, 2086, 2590
13479, 1994, 1993, 2016, 2590
13480, 2017, 1994, 2016, 2590
13481, 1749, 1726, 2601, 2614
13482, 2009, 2008, 2031, 2635
13483, 2031, 2032, 2009, 2635
13484, 1751, 1774, 2608, 2637
13485, 2093, 2092, 2115, 2620
13486, 2116, 2093, 2115, 2620
13487, 399, 394, 1849, 2639
13488, 2124, 2101, 2587, 2627
13489, 1695, 2565, 1927, 2609
13490, 2124, 2147, 2623, 2624
13491, 2081, 2104, 2082, 2588
13492, 2104, 2105, 2082, 2588
13493, 1990, 2012, 2013, 2588
13494, 1989, 2012, 1990, 2588
13495, 2019, 1996, 2604, 2612
13496, 2157, 2544, 1950, 2612
13497, 1992, 1969, 2578, 2595
13498, 1743, 2593, 1766, 2606
13499, 2056, 1826, 389, 2639
13500, 2078, 2077, 2100, 2627
13501, 2100, 2101, 2078, 2627
13502, 2185, 2189, 2184, 2635
13503, 2190, 2189, 2185, 2635
13504, 2143, 2121, 2120, 2597
13505, 2144, 2121, 2143, 2597
13506, 2111, 2589, 2112, 2642
13507, 2603, 2609, 2604, 2612
13508, 1749, 1726, 1727, 2601
13509, 1750, 1749, 1727, 2601
13510, 2033, 2034, 2011, 2626
13511, 2010, 2033, 2011, 2626
13512, 1894, 1916, 1893, 2587
13513, 1696, 1928, 2566, 2606
13514, 1966, 1967, 1944, 2588
13515, 1944, 1943, 1966, 2588
13516, 1698, 2567, 1930, 2613
13517, 1741, 2607, 1764, 2609
13518, 1708, 1940, 2191, 2622
13519, 1989, 2588, 1966, 2628
13520, 2130, 2595, 2578, 2611
13521, 2003, 2600, 2592, 2644
13522, 1937, 1705, 2555, 2608
13523, 1924, 1692, 2527, 2610
13524, 1947, 2154, 2539, 2611
13525, 1688, 2536, 1920, 2615
13526, 1996, 1995, 2604, 2612
13527, 1984, 2596, 2007, 2624
13528, 2183, 2184, 2188, 2635
13529, 2184, 2189, 2188, 2635
13530, 2180, 2185, 2184, 2623
13531, 2184, 2179, 2180, 2623
13532, 1737, 1714, 2610, 2632
13533, 1879, 1856, 1857, 2630
13534, 1879, 1857, 1880, 2630
13535, 1965, 1964, 1987, 2594
13536, 1988, 1965, 1987, 2594
13537, 2103, 2102, 2125, 2594
13538, 2125, 2126, 2103, 2594
13539, 2118, 2096, 2095, 2644
13540, 2118, 2119, 2096, 2644
13541, 2107, 2595, 2130, 2611
13542, 2137, 2616, 2160, 2619
13543, 2111, 2537, 2110, 2612
13544, 408, 407, 2626, 2636
13545, 2182, 2622, 2181, 2627
13546, 2107, 2084, 2595, 2611
13547, 1882, 1859, 2606, 2642
13548, 409, 1918, 1686, 2621
13549, 1868, 2597, 1891, 2608
13550, 2104, 2127, 2588, 2628
13551, 1738, 1761, 2610, 2641
13552, 1981, 2644, 2004, 2645
13553, 1953, 2160, 2616, 2619
13554, 2184, 2623, 2185, 2635
13555, 2186, 2554, 2181, 2622
13556, 1690, 2629, 1922, 2643
13557, 2168, 2625, 1961, 2631
13558, 2590, 2610, 2611, 2641
13559, 1970, 2590, 1947, 2611
13560, 1916, 1893, 2587, 2640
13561, 1984, 2007, 1985, 2624
13562, 2008, 1985, 2007, 2624
13563, 1691, 2525, 1923, 2632
13564, 1883, 2593, 1860, 2613
13565, 44, 45, 1964, 2533
13566, 1987, 1964, 45, 2533
13567, 1709, 72, 71, 2535
13568, 72, 1709, 1732, 2535
13569, 338, 339, 2170, 2576
13570, 2170, 339, 2147, 2576
13571, 339, 340, 2147, 2550
13572, 2147, 340, 2124, 2550
13573, 330, 1917, 1894, 2554
13574, 331, 1917, 330, 2554
13575, 1984, 2575, 1961, 2625
13576, 1760, 2595, 1737, 2610
13577, 1713, 1714, 1736, 2643
13578, 1714, 1737, 1736, 2643
13579, 1996, 1995, 2018, 2604
13580, 2019, 1996, 2018, 2604
13581, 1953, 2616, 1976, 2619
13582, 2116, 2115, 2586, 2620
13583, 1762, 1785, 2040, 2604
13584, 1762, 2040, 2017, 2604
13585, 1860, 2593, 1883, 2606
13586, 410, 2535, 411, 2621
13587, 1922, 2629, 1899, 2643
13588, 1992, 2595, 2015, 2611
13589, 1890, 2601, 1867, 2608
13590, 2013, 1758, 1781, 2584
13591, 2003, 2004, 1981, 2644
13592, 1981, 1980, 2003, 2644
13593, 1902, 1903, 1925, 2630
13594, 1971, 2585, 1948, 2590
13595, 1872, 1849, 1850, 2639
13596, 1850, 1873, 1872, 2639
13597, 2163, 2141, 2140, 2600
13598, 2164, 2141, 2163, 2600
13599, 1893, 1870, 1871, 2587
13600, 1871, 1894, 1893, 2587
13601, 2578, 2595, 1969, 2611
13602, 1941, 398, 1964, 2636
13603, 2084, 2061, 2083, 2591
13604, 2061, 2060, 2083, 2591
13605, 2140, 2580, 2163, 2600
13606, 1690, 1689, 1922, 2629
13607, 1921, 1922, 1689, 2629
13608, 2123, 2146, 2124, 2624
13609, 2147, 2124, 2146, 2624
13610, 2181, 2622, 1894, 2627
13611, 2149, 2127, 2126, 2628
13612, 2110, 2603, 2585, 2612
13613, 2593, 2605, 2113, 2616
13614, 2121, 2098, 2597, 2625
13615, 1690, 1712, 1689, 2629
13616, 1759, 2014, 1782, 2584
13617, 2175, 2174, 2576, 2623
13618, 2603, 2609, 2589, 2642
13619, 2123, 2624, 2596, 2631
13620, 2174, 2173, 339, 2550
13621, 2181, 2186, 331, 2554
13622, 338, 2175, 2174, 2576
13623, 403, 44, 398, 2533
13624, 71, 411, 410, 2535
13625, 2124, 2147, 2550, 2623
13626, 1759, 2584, 1758, 2643
13627, 1826, 1849, 394, 2639
13628, 404, 1872, 1895, 2639
13629, 1915, 2558, 1706, 2583
13630, 411, 2621, 1732, 2626
13631, 1863, 1885, 1862, 2617
13632, 1886, 1885, 1863, 2617
13633, 1921, 2526, 1898, 2629
13634, 2112, 2135, 2563, 2605
13635, 1995, 2585, 1994, 2604
13636, 2603, 2609, 1880, 2630
13637, 1990, 2013, 2584, 2588
13638, 2159, 2605, 1952, 2616
13639, 1987, 2594, 1964, 2636
13640, 2609, 2633, 2589, 2642
13641, 2059, 2082, 2060, 2591
13642, 2083, 2060, 2082, 2591
13643, 2128, 2581, 2105, 2588
13644, 1967, 2581, 1944, 2588
13645, 2589, 2633, 2606, 2642
13646, 1995, 2585, 2604, 2612
13647, 2163, 2580, 1956, 2600
13648, 1899, 2632, 1922, 2643
13649, 2030, 2596, 2007, 2637
13650, 2185, 2623, 2009, 2635
13651, 2191, 1708, 2192, 277
13652, 2032, 2190, 2195, 334
13653, 2186, 2191, 332, 1940
13654, 2185, 2032, 335, 2190
13655, 1826, 394, 22, 389
13656, 2194, 1754, 279, 2193
13657, 389, 66, 2056, 390
13658, 1894, 2181, 2176, 330
13659, 70, 409, 1686, 410
13660, 398, 1941, 43, 393
13661, 2194, 1800, 2195, 280
13662, 278, 2193, 1754, 2192
13663, 399, 1849, 394, 23
13664, 2079, 391, 390, 67
13665, 411, 1732, 72, 412
13666, 45, 408, 1987, 403
13667, 399, 1872, 24, 404
13668, 68, 391, 392, 2102
13669, 392, 69, 2125, 393
13670, 409, 25, 1918, 404
13671, 1969, 2595, 1992, 2611
13672, 2138, 2137, 2160, 2619
13673, 2160, 2161, 2138, 2619
13674, 1903, 1880, 2609, 2630
13675, 1899, 2591, 2632, 2643
13676, 1910, 2618, 1933, 2638
13677, 1997, 1974, 2589, 2605
13678, 1901, 2610, 1878, 2641
13679, 1940, 1917, 2186, 2622
13680, 2111, 2112, 2089, 2642
13681, 2089, 2088, 2111, 2642
13682, 1952, 2605, 1975, 2616
13683, 395, 394, 399, 2639
13684, 399, 400, 395, 2639
13685, 2061, 1830, 2060, 2591
13686, 2180, 2175, 337, 2623
13687, 1858, 1880, 1857, 2603
13688, 1858, 1881, 1880, 2603
13689, 2589, 2609, 2603, 2612
13690, 1858, 1881, 2603, 2642
13691, 1932, 2618, 1909, 2638
13692, 2123, 2596, 2625, 2631
13693, 2001, 2571, 2002, 2580
13694, 1923, 2525, 1922, 2632
13695, 1709, 410, 1686, 2621
13696, 1740, 1762, 1739, 2604
13697, 1762, 1740, 1763, 2604
13698, 1986, 2623, 1963, 2624
13699, 2623, 2624, 2009, 2635
13700, 1743, 2593, 2606, 2613
13701, 412, 2534, 413, 2626
13702, 2596, 2624, 2587, 2640
13703, 1881, 2609, 2603, 2642
13704, 1735, 1712, 2530, 2629
13705, 2176, 2553, 2171, 2627
13706, 2587, 2624, 2623, 2635
13707, 2579, 2589, 1974, 2605
13708, 1988, 1989, 1966, 2628
13709, 1962, 2574, 2169, 2624
13710, 1830, 2059, 2060, 2591
13711, 1894, 2622, 2587, 2627
13712, 2108, 2131, 2109, 2590
13713, 2131, 2132, 2109, 2590
13714, 1993, 1971, 1970, 2590
13715, 1993, 1994, 1971, 2590
13716, 1936, 1704, 2601, 2608
13717, 2032, 2185, 2009, 2635
13718, 2164, 2141, 2600, 2644
13719, 1912, 1889, 2601, 2614
13720, 2161, 2586, 2138, 2619
13721, 341, 2172, 2171, 2627
13722, 1759, 1782, 1781, 2584
13723, 1781, 1758, 1759, 2584
13724, 2606, 2633, 1882, 2642
13725, 1743, 2568, 1720, 2606
13726, 46, 408, 413, 2626
13727, 1727, 2601, 1704, 2608
13728, 1889, 1866, 1867, 2601
13729, 1867, 1890, 1889, 2601
13730, 1956, 2580, 1979, 2600
13731, 2139, 2580, 2116, 2586
13732, 1884, 2582, 1907, 2613
13733, 1721, 2582, 1744, 2613
13734, 1891, 2583, 1914, 2608
13735, 1728, 2583, 1751, 2608
13736, 1957, 2549, 2164, 2644
13737, 2134, 2589, 2111, 2612
13738, 1706, 2558, 1729, 2583
13739, 1899, 2629, 2591, 2643
13740, 2106, 2129, 2107, 2578
13741, 2107, 2129, 2130, 2578
13742, 1991, 1992, 1969, 2578
13743, 1991, 1969, 1968, 2578
13744, 2169, 2168, 1961, 2631
13745, 1980, 2600, 2003, 2644
13746, 2127, 2128, 2105, 2588
13747, 2105, 2104, 2127, 2588
13748, 1989, 1990, 1967, 2588
13749, 1967, 1966, 1989, 2588
13750, 1910, 1932, 1909, 2638
13751, 1910, 1933, 1932, 2638
13752, 1913, 1936, 2601, 2608
13753, 1724, 2598, 1747, 2618
13754, 1958, 2165, 2644, 2645
13755, 2104, 2103, 2126, 2628
13756, 2104, 2126, 2127, 2628
13757, 1691, 1923, 2610, 2632
13758, 1958, 2165, 2549, 2644
13759, 1885, 1908, 2582, 2617
13760, 1691, 2610, 1714, 2632
13761, 1967, 2584, 2581, 2588
13762, 1894, 1871, 2176, 2627
13763, 1921, 1689, 2526, 2629
13764, 1707, 2558, 1916, 2640
13765, 1755, 412, 1732, 2626
13766, 2597, 2625, 2596, 2637
13767, 1880, 2603, 1881, 2609
13768, 1963, 1962, 1985, 2624
13769, 1986, 1963, 1985, 2624
13770, 2124, 2551, 2101, 2627
13771, 2172, 2551, 2177, 2627
13772, 1696, 1719, 2572, 2633
13773, 1921, 1899, 1922, 2629
13774, 1921, 1898, 1899, 2629
13775, 2579, 2589, 2134, 2612
13776, 1958, 2644, 1981, 2645
13777, 2100, 2099, 2122, 2625
13778, 2122, 2123, 2100, 2625
13779, 403, 2533, 398, 2636
13780, 1885, 1862, 2617, 2620
13781, 1953, 1952, 1975, 2616
13782, 1975, 1976, 1953, 2616
13783, 2159, 2160, 2137, 2616
13784, 1897, 1875, 1898, 2629
13785, 1897, 1874, 1875, 2629
13786, 1952, 1951, 1974, 2605
13787, 1974, 1975, 1952, 2605
13788, 1885, 1886, 1908, 2617
13789, 1886, 1909, 1908, 2617
13790, 1905, 1882, 2606, 2633
13791, 1998, 1975, 2605, 2616
13792, 1759, 1758, 1736, 2643
13793, 1736, 1758, 1735, 2643
13794, 1712, 2526, 1689, 2629
13795, 1697, 2606, 1929, 2613
13796, 2176, 329, 2171, 2553
13797, 1716, 1715, 2541, 2641
13798, 1900, 2610, 1923, 2632
13799, 1849, 1872, 399, 2639
13800, 1902, 1879, 1880, 2630
13801, 1880, 1903, 1902, 2630
13802, 1927, 1695, 2609, 2633
13803, 2164, 1956, 1957, 2600
13804, 2164, 2163, 1956, 2600
13805, 2145, 2625, 2168, 2631
13806, 1774, 1752, 1775, 2637
13807, 1752, 1774, 1751, 2637
13808, 2165, 2142, 2644, 2645
13809, 1954, 2586, 2161, 2619
13810, 1962, 2575, 1985, 2624
13811, 2141, 2549, 2142, 2644
13812, 2131, 2590, 2108, 2611
13813, 1993, 2590, 1970, 2611
13814, 1990, 2584, 1967, 2588
13815, 2001, 2024, 2571, 2634
13816, 1957, 2164, 2600, 2644
13817, 2181, 2182, 2186, 2622
13818, 2186, 2182, 2187, 2622
13819, 1994, 2585, 1971, 2590
13820, 1720, 2606, 1697, 2613
13821, 1929, 2606, 1906, 2613
13822, 2161, 2548, 2162, 2586
13823, 1928, 2606, 1696, 2633
13824, 1986, 2009, 2623, 2624
13825, 1986, 2009, 2185, 2623
13826, 1927, 2609, 1904, 2633
13827, 2121, 2099, 2098, 2625
13828, 2099, 2121, 2122, 2625
13829, 1695, 2572, 1718, 2633
13830, 1695, 1928, 1696, 2633
13831, 1927, 1928, 1695, 2633
13832, 1894, 2587, 1871, 2627
13833, 1978, 2548, 1977, 2586
13834, 1750, 2601, 1727, 2608
13835, 1694, 1695, 1717, 2609
13836, 1717, 1695, 1718, 2609
13837, 1903, 1904, 1926, 2609
13838, 1927, 1926, 1904, 2609
13839, 1972, 1950, 1949, 2612
13840, 1972, 1973, 1950, 2612
13841, 2156, 2157, 2134, 2612
13842, 2134, 2133, 2156, 2612
13843, 1883, 2606, 2593, 2613
13844, 1915, 1892, 1893, 2640
13845, 1916, 1915, 1893, 2640
13846, 1752, 1729, 1730, 2640
13847, 1730, 1753, 1752, 2640
13848, 1933, 2618, 1701, 2638
13849, 1905, 2606, 1928, 2633
13850, 1999, 1976, 1998, 2616
13851, 1998, 1976, 1975, 2616
13852, 1957, 1980, 1958, 2644
13853, 1981, 1958, 1980, 2644
13854, 2006, 2007, 2559, 2637
13855, 406, 405, 410, 2621
13856, 410, 411, 406, 2621
13857, 2119, 2644, 2142, 2645
13858, 1928, 1905, 1906, 2606
13859, 1928, 1906, 1929, 2606
13860, 1720, 1697, 1698, 2613
13861, 1720, 1698, 1721, 2613
13862, 1929, 1906, 1907, 2613
13863, 1907, 1930, 1929, 2613
13864, 2138, 2586, 2115, 2620
13865, 1997, 1998, 1975, 2605
13866, 1997, 1975, 1974, 2605
13867, 1727, 1704, 1705, 2608
13868, 1728, 1727, 1705, 2608
13869, 1913, 1914, 1936, 2608
13870, 1937, 1936, 1914, 2608
13871, 1692, 1714, 1691, 2610
13872, 1715, 1714, 1692, 2610
13873, 1923, 1900, 1901, 2610
13874, 1924, 1923, 1901, 2610
13875, 1947, 1946, 1969, 2611
13876, 1970, 1947, 1969, 2611
13877, 2153, 2131, 2130, 2611
13878, 2153, 2154, 2131, 2611
13879, 1703, 1726, 1725, 2614
13880, 1911, 1912, 1934, 2614
13881, 1711, 1710, 1688, 2615
13882, 2597, 2599, 2121, 2625
13883, 1890, 1912, 1889, 2601
13884, 1913, 1912, 1890, 2601
13885, 1905, 1928, 1927, 2633
13886, 1927, 1904, 1905, 2633
13887, 1695, 1718, 2609, 2633
13888, 2144, 2121, 2597, 2599
13889, 2180, 2179, 2175, 2623
13890, 2179, 2174, 2175, 2623
13891, 1742, 1765, 2607, 2633
13892, 2158, 2579, 1951, 2605
13893, 2170, 2574, 1963, 2623
13894, 1987, 1964, 2533, 2636
13895, 412, 73, 413, 2534
13896, 1786, 1764, 1787, 2604
13897, 1764, 1786, 1763, 2604
13898, 1995, 1994, 2017, 2604
13899, 2017, 2018, 1995, 2604
13900, 2089, 2066, 2088, 2642
13901, 1954, 2548, 2161, 2586
13902, 1719, 1718, 2572, 2607
13903, 1876, 2591, 1899, 2629
13904, 1903, 1880, 1881, 2609
13905, 1881, 1904, 1903, 2609
13906, 1717, 1718, 1740, 2609
13907, 1740, 1718, 1741, 2609
13908, 1949, 2156, 2585, 2612
13909, 2110, 2133, 2111, 2612
13910, 2134, 2111, 2133, 2612
13911, 1995, 1973, 1972, 2612
13912, 1995, 1996, 1973, 2612
13913, 1983, 1984, 1961, 2646
13914, 1960, 1983, 1961, 2646
13915, 1875, 1852, 2591, 2629
13916, 1883, 1905, 1882, 2606
13917, 1883, 1906, 1905, 2606
13918, 1883, 1884, 1906, 2613
13919, 1884, 1907, 1906, 2613
13920, 1720, 1721, 1743, 2613
13921, 1744, 1743, 1721, 2613
13922, 1878, 1900, 1877, 2610
13923, 1901, 1900, 1878, 2610
13924, 1913, 1890, 1891, 2608
13925, 1891, 1914, 1913, 2608
13926, 2107, 2130, 2108, 2611
13927, 2130, 2131, 2108, 2611
13928, 1737, 1714, 1715, 2610
13929, 1715, 1738, 1737, 2610
13930, 1750, 1727, 1728, 2608
13931, 1970, 1969, 1992, 2611
13932, 1728, 1751, 1750, 2608
13933, 1992, 1993, 1970, 2611
13934, 1911, 1888, 1889, 2614
13935, 1889, 1912, 1911, 2614
13936, 1748, 1725, 1726, 2614
13937, 1726, 1749, 1748, 2614
13938, 1874, 1896, 1873, 2615
13939, 1897, 1896, 1874, 2615
13940, 1710, 1711, 1733, 2615
13941, 1734, 1733, 1711, 2615
13942, 1951, 2579, 1974, 2605
13943, 2135, 2579, 2158, 2605
13944, 1882, 2564, 1881, 2642
13945, 2153, 2578, 1946, 2611
13946, 1986, 2008, 2009, 2624
13947, 1986, 1985, 2008, 2624
13948, 2175, 2170, 1963, 2623
13949, 2042, 2041, 1787, 2604
13950, 2041, 1786, 1787, 2604
13951, 2165, 2143, 2142, 2645
13952, 1958, 1981, 1959, 2645
13953, 1982, 1959, 1981, 2645
13954, 2176, 2171, 2172, 2627
13955, 2172, 2177, 2176, 2627
13956, 1883, 1906, 2606, 2613
13957, 1743, 2606, 1720, 2613
13958, 1917, 1894, 2554, 2622
13959, 1686, 71, 70, 410
13960, 43, 44, 1941, 398
13961, 1686, 71, 410, 1709
13962, 1964, 1941, 44, 398
13963, 2055, 334, 2195, 333
13964, 73, 72, 1732, 412
13965, 408, 45, 1987, 46
13966, 1708, 1731, 2192, 277
13967, 278, 2192, 1731, 277
13968, 2191, 18, 1708, 277
13969, 43, 366, 393, 1941
13970, 409, 1918, 70, 1686
13971, 334, 2055, 2195, 2032
13972, 22, 21, 1826, 389
13973, 66, 389, 2056, 65
13974, 343, 21, 65, 389
13975, 2171, 2078, 1848, 328
13976, 47, 74, 1778, 413
13977, 413, 47, 2033, 1778
13978, 21, 343, 1826, 389
13979, 412, 1732, 73, 1755
13980, 2056, 343, 65, 389
13981, 23, 1849, 394, 22
13982, 18, 2191, 1708, 332
13983, 2056, 1826, 343, 389
13984, 394, 1826, 22, 1849
13985, 67, 66, 390, 2079
13986, 66, 2056, 390, 2079
13987, 43, 366, 10, 393
13988, 1872, 24, 23, 399
13989, 68, 391, 2102, 67
13990, 2009, 336, 2185, 335
13991, 2, 409, 1918, 70
13992, 1941, 366, 393, 2148
13993, 2032, 2185, 335, 2009
13994, 332, 2191, 1708, 1940
13995, 2171, 342, 2078, 328
13996, 2185, 1986, 336, 2009
13997, 331, 1940, 2186, 332
13998, 331, 1940, 1917, 2186
13999, 2176, 1894, 329, 1871
14000, 2055, 2195, 1800, 333
14001, 1777, 279, 2194, 1754
14002, 279, 1777, 2194, 280
14003, 1800, 281, 2195, 280
14004, 2195, 281, 1800, 333
14005, 10, 2148, 393, 366
14006, 69, 392, 2125, 68
14007, 25, 1895, 404, 24
14008, 68, 2102, 392, 2125
14009, 10, 2148, 69, 393
14010, 1872, 1895, 24, 404
14011, 69, 2125, 393, 2148
14012, 409, 2, 1918, 25
14013, 1895, 25, 404, 1918
14014, 1963, 338, 2170, 2175
14015, 1754, 278, 2192, 1731
14016, 1963, 338, 2175, 20
14017, 2193, 278, 1754, 279
14018, 2176, 1894, 330, 329
14019, 399, 1849, 23, 1872
14020, 2079, 391, 67, 2102
14021, 337, 2175, 20, 1963
14022, 2194, 1777, 1800, 280
14023, 2032, 335, 2190, 334
14024, 1950, 2579, 2157, 2612
14025, 412, 408, 407, 2626
14026, 408, 412, 413, 2626
14027, 2004, 2005, 1982, 2645
14028, 1982, 1981, 2004, 2645
14029, 2120, 2119, 2142, 2645
14030, 2142, 2143, 2120, 2645
14031, 2171, 1848, 2078, 2627
14032, 2170, 2147, 2574, 2623
14033, 1930, 2582, 1698, 2613
14034, 2110, 2585, 2133, 2612
14035, 1995, 1972, 2585, 2612
14036, 1937, 2583, 1705, 2608
14037, 413, 1778, 2033, 2626
14038, 1977, 2586, 1954, 2619
14039, 2164, 2549, 2141, 2644
14040, 2122, 2121, 2599, 2625
14041, 397, 402, 398, 2636
14042, 403, 398, 402, 2636
14043, 1949, 2585, 1972, 2612
14044, 2156, 2133, 2585, 2612
14045, 1709, 1732, 2535, 2621
14046, 337, 2175, 1963, 2623
14047, 1775, 1798, 1797, 2637
14048, 1797, 1774, 1775, 2637
14049, 1969, 1946, 2578, 2611
14050, 2153, 2130, 2578, 2611
14051, 2168, 2599, 1961, 2625
14052, 337, 336, 2180, 2623
14053, 1898, 1876, 1899, 2629
14054, 1876, 1898, 1875, 2629
14055, 1853, 1852, 1830, 2591
14056, 1876, 1875, 2591, 2629
14057, 2173, 340, 339, 2550
14058, 331, 330, 2181, 2554
14059, 339, 338, 2174, 2576
14060, 44, 403, 45, 2533
14061, 72, 411, 71, 2535
14062, 1977, 2548, 1954, 2586
14063, 2134, 2135, 2112, 2579
14064, 1974, 1973, 1996, 2579
14065, 2117, 2116, 2139, 2580
14066, 2139, 2140, 2117, 2580
14067, 1979, 1978, 2001, 2580
14068, 2001, 2002, 1979, 2580
14069, 2106, 2105, 2128, 2581
14070, 2128, 2129, 2106, 2581
14071, 1884, 1885, 1907, 2582
14072, 1908, 1907, 1885, 2582
14073, 1744, 1721, 1722, 2582
14074, 1722, 1745, 1744, 2582
14075, 1891, 1892, 1914, 2583
14076, 1915, 1914, 1892, 2583
14077, 1751, 1728, 1729, 2583
14078, 1752, 1751, 1729, 2583
14079, 1957, 2600, 1980, 2644
14080, 2170, 2576, 2147, 2623
14081, 1950, 1973, 2579, 2612
14082, 2157, 2579, 2134, 2612
14083, 1761, 1738, 1739, 2641
14084, 1739, 1762, 1761, 2641
14085, 1698, 2582, 1721, 2613
14086, 1907, 2582, 1930, 2613
14087, 2019, 2041, 2042, 2604
14088, 2019, 2018, 2041, 2604
14089, 1705, 2583, 1728, 2608
14090, 1914, 2583, 1937, 2608
14091, 2171, 2078, 342, 2627
14092, 2165, 2142, 2549, 2644
14093, 341, 2171, 342, 2627
14094, 1955, 2162, 2548, 2586
14095, 2033, 47, 413, 2626
14096, 1854, 1877, 2591, 2632
14097, 46, 413, 47, 2626
14098, 1877, 2610, 1900, 2632
14099, 1707, 1730, 2558, 2640
14100, 2146, 2624, 2123, 2631
14101, 1877, 1876, 2591, 2632
14102, 1955, 1956, 2573, 2580
14103, 2157, 2545, 2158, 2579
14104, 1961, 2599, 2168, 2646
14105, 1949, 2156, 1948, 2585
14106, 1871, 1848, 2553, 2627
14107, 2116, 2115, 2138, 2586
14108, 2138, 2139, 2116, 2586
14109, 2000, 1978, 1977, 2586
14110, 2000, 2001, 1978, 2586
14111, 1994, 1995, 1972, 2585
14112, 1994, 1972, 1971, 2585
14113, 1755, 1778, 2534, 2626
14114, 1954, 2161, 1953, 2619
14115, 2160, 1953, 2161, 2619
14116, 2152, 2540, 2153, 2578
14117, 1913, 2601, 1890, 2608
14118, 1876, 1899, 2591, 2632
14119, 1876, 1853, 1854, 2591
14120, 1876, 1854, 1877, 2591
14121, 1715, 1738, 2610, 2641
14122, 1922, 1899, 1900, 2632
14123, 1900, 1923, 1922, 2632
14124, 2119, 2118, 2141, 2644
14125, 2119, 2141, 2142, 2644
14126, 2156, 2133, 2543, 2585
14127, 2607, 2609, 1718, 2633
14128, 1955, 2548, 1978, 2586
14129, 1, 21, 65, 343
14130, 1786, 2041, 2040, 2604
14131, 2040, 1785, 1786, 2604
14132, 2162, 2573, 2163, 2580
14133, 1951, 2545, 1950, 2579
14134, 2003, 1980, 2002, 2600
14135, 1979, 2002, 1980, 2600
14136, 1718, 2607, 1741, 2609
14137, 1968, 2581, 1967, 2584
14138, 1875, 1852, 1853, 2591
14139, 1853, 1876, 1875, 2591
14140, 329, 328, 2171, 2553
14141, 1762, 1763, 1785, 2604
14142, 1786, 1785, 1763, 2604
14143, 337, 1986, 336, 2623
14144, 337, 1963, 1986, 2623
14145, 2139, 2138, 2161, 2586
14146, 2161, 2162, 2139, 2586
14147, 1949, 1948, 1971, 2585
14148, 1971, 1972, 1949, 2585
14149, 341, 342, 2101, 2627
14150, 342, 2078, 2101, 2627
14151, 1716, 1738, 1715, 2641
14152, 1738, 1716, 1739, 2641
14153, 1968, 1967, 1990, 2584
14154, 1990, 1991, 1968, 2584
14155, 2010, 46, 47, 2626
14156, 2033, 2010, 47, 2626
14157, 1946, 2540, 1945, 2578
14158, 2035, 1780, 283, 284
14159, 74, 47, 1778, 9
14160, 47, 9, 2033, 1778
14161, 2037, 285, 1782, 2036
14162, 285, 284, 1781, 2036
14163, 285, 1782, 2036, 1781
14164, 283, 2034, 1780, 2035
14165, 282, 2033, 9, 1778
14166, 282, 2033, 1778, 1779
14167, 285, 2037, 1782, 286
14168, 283, 2034, 1779, 1780
14169, 2033, 282, 2034, 1779
14170, 1783, 286, 2038, 287
14171, 282, 283, 2034, 1779
14172, 1942, 368, 2150, 1943
14173, 1923, 310, 1690, 1691
14174, 309, 1690, 1689, 1922
14175, 2039, 2038, 287, 1783
14176, 305, 70, 1918, 1686
14177, 368, 1942, 2150, 367
14178, 2062, 350, 349, 1832
14179, 1786, 2040, 2041, 289
14180, 308, 1688, 1921, 1689
14181, 1686, 1919, 306, 1687
14182, 1944, 2151, 369, 1943
14183, 309, 1923, 1690, 1922
14184, 1923, 309, 1690, 310
14185, 1786, 2040, 289, 1785
14186, 2042, 290, 1787, 2041
14187, 1922, 308, 1689, 309
14188, 308, 1922, 1689, 1921
14189, 2061, 348, 1830, 1831
14190, 1786, 289, 2041, 290
14191, 1787, 2041, 290, 1786
14192, 287, 1784, 2039, 1783
14193, 313, 1693, 1926, 1694
14194, 2063, 351, 350, 1833
14195, 2060, 348, 1830, 2061
14196, 1840, 358, 2070, 357
14197, 349, 2061, 1831, 348
14198, 2060, 348, 347, 1830
14199, 315, 1695, 1928, 1696
14200, 290, 2042, 1787, 291
14201, 347, 1829, 2059, 1830
14202, 2044, 292, 1789, 2043
14203, 1787, 2043, 291, 2042
14204, 347, 2059, 2060, 1830
14205, 1829, 347, 2059, 346
14206, 1942, 367, 2149, 2150
14207, 70, 305, 1918, 2
14208, 291, 1788, 2043, 1787
14209, 1788, 291, 2043, 292
14210, 1788, 1789, 292, 2043
14211, 2045, 293, 1790, 2044
14212, 1919, 305, 1918, 1686
14213, 1827, 345, 2057, 344
14214, 2056, 344, 343, 1826
14215, 1948, 374, 2156, 1949
14216, 292, 2044, 1789, 293
14217, 293, 2044, 1789, 1790
14218, 368, 369, 2151, 1943
14219, 305, 1919, 306, 1686
14220, 308, 1688, 307, 1921
14221, 293, 2045, 1790, 294
14222, 345, 1827, 2057, 1828
14223, 1790, 2046, 294, 2045
14224, 374, 1948, 2156, 373
14225, 2056, 1827, 344, 1826
14226, 1784, 287, 2039, 288
14227, 1828, 2057, 345, 2058
14228, 2061, 349, 1831, 2062
14229, 294, 295, 2046, 1791
14230, 2046, 1790, 294, 1791
14231, 2067, 1838, 355, 1837
14232, 1835, 2066, 353, 1836
14233, 351, 1833, 2064, 1834
14234, 1926, 312, 1693, 313
14235, 312, 1926, 1693, 1925
14236, 2056, 1827, 2057, 344
14237, 378, 2161, 1953, 379
14238, 315, 1695, 314, 1928
14239, 1927, 314, 1695, 1928
14240, 1835, 352, 2064, 1834
14241, 1954, 379, 1953, 2161
14242, 2063, 351, 1833, 2064
14243, 1948, 373, 2155, 2156
14244, 357, 2069, 1839, 356
14245, 2066, 1835, 353, 2065
14246, 356, 1838, 355, 2068
14247, 2067, 354, 1837, 355
14248, 353, 1835, 352, 2065
14249, 2066, 354, 353, 1836
14250, 351, 2064, 352, 1834
14251, 1838, 2067, 355, 2068
14252, 2064, 2065, 352, 1835
14253, 349, 1831, 2062, 1832
14254, 1925, 311, 1924, 1692
14255, 378, 2161, 2160, 1953
14256, 372, 2155, 2154, 1947
14257, 2062, 350, 1832, 2063
14258, 2151, 2150, 368, 1943
14259, 1688, 1920, 307, 1921
14260, 372, 2155, 1947, 373
14261, 359, 2071, 1841, 358
14262, 2063, 350, 1832, 1833
14263, 1934, 321, 1701, 1702
14264, 1925, 311, 1692, 312
14265, 281, 17, 304, 333
14266, 1707, 326, 1939, 1706
14267, 1785, 288, 2040, 289
14268, 323, 1703, 1936, 1704
14269, 1940, 1707, 1708, 327
14270, 1692, 1925, 312, 1693
14271, 19, 1848, 2078, 328
14272, 1846, 2077, 364, 1847
14273, 345, 2058, 346, 1828
14274, 365, 1847, 2077, 1848
14275, 362, 1845, 1844, 2075
14276, 363, 1845, 2075, 1846
14277, 1842, 359, 2072, 1841
14278, 332, 1708, 18, 327
14279, 360, 1842, 2073, 1843
14280, 1948, 373, 1947, 2155
14281, 320, 1934, 1701, 1933
14282, 1934, 320, 1701, 321
14283, 2071, 359, 1841, 2072
14284, 325, 1939, 326, 1706
14285, 327, 1940, 1707, 326
14286, 2077, 1846, 364, 2076
14287, 1939, 325, 1938, 1706
14288, 1708, 332, 1940, 327
14289, 1703, 322, 1936, 1935
14290, 326, 1940, 1707, 1939
14291, 381, 2164, 1956, 382
14292, 1703, 323, 1936, 322
14293, 2074, 362, 1844, 2075
14294, 19, 1848, 365, 2078
14295, 2078, 342, 19, 328
14296, 1847, 365, 2077, 364
14297, 364, 1846, 363, 2076
14298, 1842, 2073, 2072, 360
14299, 2074, 362, 361, 1844
14300, 1845, 363, 2075, 362
14301, 360, 2073, 361, 1843
14302, 2077, 365, 1848, 2078
14303, 2072, 359, 1842, 360
14304, 2076, 1846, 363, 2075
14305, 1793, 297, 2048, 2049
14306, 1792, 2046, 295, 1791
14307, 2164, 381, 1956, 2163
14308, 1800, 304, 2055, 333
14309, 298, 2049, 1794, 2050
14310, 297, 1793, 1794, 2049
14311, 318, 1932, 1699, 1931
14312, 1794, 297, 2049, 298
14313, 296, 2047, 1792, 2048
14314, 2069, 357, 1839, 2070
14315, 388, 338, 2170, 1963
14316, 300, 2052, 2051, 1797
14317, 299, 2051, 2050, 1795
14318, 304, 1800, 281, 333
14319, 1795, 298, 2050, 299
14320, 298, 1794, 1795, 2050
14321, 1956, 382, 2164, 1957
14322, 388, 338, 1963, 20
14323, 383, 1957, 2165, 382
14324, 2053, 301, 1798, 2052
14325, 299, 1796, 2051, 1795
14326, 1796, 299, 2051, 300
14327, 1797, 300, 1796, 2051
14328, 1957, 383, 2165, 1958
14329, 383, 2166, 1958, 384
14330, 1954, 379, 2161, 2162
14331, 2165, 382, 1957, 2164
14332, 300, 2052, 1797, 301
14333, 1798, 301, 1797, 2052
14334, 384, 2166, 1958, 1959
14335, 384, 2167, 1959, 385
14336, 383, 2166, 2165, 1958
14337, 2054, 1800, 303, 2055
14338, 1798, 2054, 302, 2053
14339, 1959, 1960, 385, 2167
14340, 301, 2053, 1798, 302
14341, 2167, 384, 1959, 2166
14342, 1799, 302, 2054, 303
14343, 1800, 2054, 303, 1799
14344, 302, 1799, 2054, 1798
14345, 387, 1961, 2169, 386
14346, 1961, 386, 2168, 2169
14347, 1961, 387, 2169, 1962
14348, 1800, 303, 2055, 304
14349, 1962, 2169, 2170, 387
14350, 1962, 388, 387, 2170
14351, 1962, 388, 2170, 1963
14352, 296, 1793, 2048, 1792
14353, 357, 1839, 2070, 1840
14354, 1793, 296, 2048, 297
14355, 2047, 2046, 295, 1792
14356, 380, 1954, 2162, 379
14357, 1932, 318, 1699, 319
14358, 1932, 319, 1699, 1700
14359, 1954, 380, 2162, 1955
14360, 2047, 295, 296, 1792
14361, 1713, 1736, 2530, 2643
14362, 2007, 2006, 2029, 2637
14363, 2029, 2030, 2007, 2637
14364, 1764, 1741, 1742, 2607
14365, 1742, 1765, 1764, 2607
14366, 1719, 2607, 2572, 2633
14367, 74, 413, 73, 2534
14368, 2572, 2607, 1718, 2633
14369, 2018, 2017, 2040, 2604
14370, 2041, 2018, 2040, 2604
14371, 1881, 1858, 1859, 2642
14372, 1859, 1882, 1881, 2642
14373, 1876, 1877, 1899, 2632
14374, 1877, 1900, 1899, 2632
14375, 2168, 2145, 2599, 2625
14376, 2025, 2026, 2003, 2600
14377, 2025, 2003, 2002, 2600
14378, 1746, 1723, 1724, 2618
14379, 1746, 1724, 1747, 2618
14380, 1955, 2580, 2162, 2586
14381, 1705, 325, 1706, 2583
14382, 1938, 325, 324, 2583
14383, 1938, 324, 1937, 2583
14384, 324, 325, 1705, 2583
14385, 318, 1699, 1698, 2582
14386, 1931, 317, 1930, 2582
14387, 318, 317, 1931, 2582
14388, 318, 1698, 317, 2582
14389, 369, 370, 2152, 2581
14390, 369, 2152, 2151, 2581
14391, 370, 1944, 1945, 2581
14392, 369, 1944, 370, 2581
14393, 2162, 2580, 2139, 2586
14394, 1955, 1978, 2580, 2586
14395, 1990, 2013, 1991, 2584
14396, 1991, 2013, 2014, 2584
14397, 1728, 1705, 1706, 2583
14398, 1706, 1729, 1728, 2583
14399, 1914, 1915, 1937, 2583
14400, 1938, 1937, 1915, 2583
14401, 1907, 1908, 1930, 2582
14402, 1908, 1931, 1930, 2582
14403, 1699, 1721, 1698, 2582
14404, 1699, 1722, 1721, 2582
14405, 2151, 2152, 2129, 2581
14406, 2151, 2129, 2128, 2581
14407, 1968, 1945, 1967, 2581
14408, 1944, 1967, 1945, 2581
14409, 2162, 2140, 2139, 2580
14410, 2162, 2163, 2140, 2580
14411, 1978, 1956, 1955, 2580
14412, 1978, 1979, 1956, 2580
14413, 2135, 2134, 2157, 2579
14414, 2157, 2158, 2135, 2579
14415, 1950, 1973, 1951, 2579
14416, 1974, 1951, 1973, 2579
14417, 1701, 1724, 1723, 2618
14418, 1946, 1945, 1968, 2578
14419, 1968, 1969, 1946, 2578
14420, 2153, 2130, 2152, 2578
14421, 2130, 2129, 2152, 2578
14422, 1957, 1956, 1979, 2600
14423, 1979, 1980, 1957, 2600
14424, 2152, 2578, 2129, 2581
14425, 1968, 2578, 1945, 2581
14426, 1955, 2573, 2162, 2580
14427, 2158, 2545, 1951, 2579
14428, 1719, 1742, 2607, 2633
14429, 1956, 2163, 2573, 2580
14430, 1950, 2545, 2157, 2579
14431, 2168, 2599, 2167, 2646
14432, 1945, 2578, 2152, 2581
14433, 1946, 371, 2153, 2539
14434, 374, 2156, 1949, 2544
14435, 1936, 323, 1704, 2555
14436, 1923, 310, 1691, 2527
14437, 1919, 306, 1687, 2536
14438, 1697, 1929, 316, 2567
14439, 380, 2162, 1955, 2573
14440, 1926, 313, 1694, 2565
14441, 2160, 378, 1953, 2562
14442, 1929, 1697, 316, 2566
14443, 1703, 322, 1935, 2557
14444, 377, 1952, 2159, 2546
14445, 376, 1951, 2158, 2545
14446, 367, 1942, 2149, 2531
14447, 1938, 1706, 325, 2583
14448, 324, 1705, 1937, 2583
14449, 318, 1931, 1699, 2582
14450, 317, 1698, 1930, 2582
14451, 2152, 370, 1945, 2581
14452, 369, 2151, 1944, 2581
14453, 371, 2540, 1946, 2578
14454, 371, 2153, 2540, 2578
14455, 2152, 1945, 2540, 2578
14456, 371, 1946, 2153, 2578
14457, 1952, 377, 2159, 2562
14458, 1920, 1688, 307, 2536
14459, 370, 2152, 1945, 2540
14460, 1941, 366, 2148, 2531
14461, 1951, 376, 2158, 2546
14462, 1928, 315, 1696, 2566
14463, 311, 1924, 1692, 2527
14464, 375, 2157, 1950, 2545
14465, 317, 1930, 1698, 2567
14466, 2154, 372, 1947, 2539
14467, 314, 1927, 1695, 2565
14468, 2157, 375, 1950, 2544
14469, 1934, 321, 1702, 2557
14470, 381, 1956, 2163, 2573
14471, 324, 1937, 1705, 2555
14472, 2145, 2122, 2599, 2625
14473, 385, 2167, 1960, 2646
14474, 386, 1961, 2168, 2646
14475, 319, 1700, 1932, 2638
14476, 320, 1933, 1701, 2638
14477, 1943, 1965, 1966, 2577
14478, 307, 1687, 306, 2536
14479, 1962, 1984, 1985, 2575
14480, 1688, 1687, 307, 2536
14481, 1713, 1735, 1712, 2530
14482, 1735, 1713, 1736, 2530
14483, 1691, 311, 1692, 2527
14484, 2157, 375, 2158, 2545
14485, 310, 311, 1691, 2527
14486, 1716, 1717, 1739, 2542
14487, 314, 1694, 313, 2565
14488, 1910, 1909, 1887, 2570
14489, 1691, 1714, 1713, 2525
14490, 1881, 1882, 1904, 2564
14491, 2155, 2154, 1947, 2538
14492, 2069, 2091, 2092, 2560
14493, 1711, 1689, 1712, 2526
14494, 1688, 1689, 1711, 2526
14495, 1929, 316, 315, 2566
14496, 1942, 1965, 1943, 2577
14497, 1690, 1691, 1713, 2525
14498, 315, 1928, 1929, 2566
14499, 1690, 1923, 1691, 2525
14500, 1717, 1740, 1739, 2542
14501, 2149, 2148, 366, 2531
14502, 374, 1949, 375, 2544
14503, 370, 2153, 2152, 2540
14504, 1946, 371, 1945, 2540
14505, 1945, 371, 370, 2540
14506, 2155, 2133, 2132, 2543
14507, 2128, 2150, 2151, 2532
14508, 371, 2153, 370, 2540
14509, 2127, 2150, 2128, 2532
14510, 366, 367, 2149, 2531
14511, 2156, 2133, 2155, 2543
14512, 2154, 2155, 2132, 2538
14513, 2014, 2037, 2015, 2529
14514, 1695, 1694, 314, 2565
14515, 2038, 2015, 2037, 2529
14516, 372, 2154, 371, 2539
14517, 2113, 2135, 2136, 2563
14518, 1719, 1720, 1742, 2568
14519, 1950, 375, 1949, 2544
14520, 375, 2157, 374, 2544
14521, 2110, 2111, 2088, 2537
14522, 2088, 2087, 2110, 2537
14523, 1947, 372, 1946, 2539
14524, 2158, 376, 2159, 2546
14525, 1857, 2087, 1858, 2537
14526, 1703, 1936, 1704, 2556
14527, 1692, 1693, 1715, 2541
14528, 1693, 1716, 1715, 2541
14529, 2131, 2154, 2132, 2538
14530, 1720, 1743, 1742, 2568
14531, 2135, 2113, 2112, 2563
14532, 371, 1946, 372, 2539
14533, 1886, 1887, 1909, 2570
14534, 1696, 1719, 1718, 2572
14535, 2068, 2091, 2069, 2560
14536, 2142, 2141, 2164, 2549
14537, 2164, 2165, 2142, 2549
14538, 1695, 1696, 1718, 2572
14539, 1936, 1703, 1935, 2556
14540, 2161, 1954, 2162, 2548
14541, 2162, 1954, 1955, 2548
14542, 1916, 1707, 1706, 2558
14543, 381, 1955, 1956, 2573
14544, 377, 2160, 2159, 2562
14545, 1955, 1954, 1977, 2548
14546, 378, 2160, 377, 2562
14547, 1957, 2165, 2164, 2549
14548, 380, 1955, 381, 2573
14549, 2025, 2002, 2024, 2571
14550, 2024, 2002, 2001, 2571
14551, 1936, 1937, 323, 2555
14552, 1916, 1706, 1915, 2558
14553, 1929, 1930, 316, 2567
14554, 1983, 2006, 1984, 2559
14555, 2006, 2007, 1984, 2559
14556, 1703, 1702, 322, 2557
14557, 2170, 1962, 1963, 2574
14558, 2169, 1962, 2170, 2574
14559, 1961, 1984, 1962, 2575
14560, 1704, 324, 1705, 2555
14561, 2146, 2169, 2147, 2574
14562, 321, 1934, 1935, 2557
14563, 2169, 2170, 2147, 2574
14564, 1935, 322, 321, 2557
14565, 322, 1702, 321, 2557
14566, 324, 1704, 323, 2555
14567, 380, 381, 2163, 2573
14568, 2162, 380, 2163, 2573
14569, 2165, 1957, 1958, 2549
14570, 1952, 378, 377, 2562
14571, 1978, 1955, 1977, 2548
14572, 1937, 324, 323, 2555
14573, 1953, 378, 1952, 2562
14574, 1704, 1727, 1726, 2556
14575, 1729, 1707, 1730, 2558
14576, 1707, 1729, 1706, 2558
14577, 2137, 2114, 2136, 2561
14578, 2136, 2114, 2113, 2561
14579, 317, 1697, 316, 2567
14580, 1726, 1703, 1704, 2556
14581, 1697, 317, 1698, 2567
14582, 317, 316, 1930, 2567
14583, 1947, 1948, 2155, 2538
14584, 1952, 377, 1951, 2546
14585, 375, 1950, 376, 2545
14586, 1858, 2087, 2088, 2537
14587, 376, 1950, 1951, 2545
14588, 1951, 377, 376, 2546
14589, 371, 2154, 2153, 2539
14590, 2151, 2150, 1943, 2532
14591, 1941, 367, 366, 2531
14592, 367, 1941, 1942, 2531
14593, 311, 310, 1924, 2527
14594, 1923, 1690, 1922, 2525
14595, 1944, 2151, 1943, 2532
14596, 2156, 374, 2157, 2544
14597, 1920, 307, 306, 2536
14598, 306, 1919, 1920, 2536
14599, 1924, 310, 1923, 2527
14600, 1927, 313, 1926, 2565
14601, 1696, 316, 1697, 2566
14602, 314, 313, 1927, 2565
14603, 316, 1696, 315, 2566
14604, 2158, 375, 376, 2545
14605, 1882, 1905, 1904, 2564
14606, 377, 2159, 376, 2546
14607, 1954, 1953, 1976, 2619
14608, 1977, 1954, 1976, 2619
14609, 1905, 1904, 2564, 2633
14610, 1696, 2572, 1695, 2633
14611, 2024, 2025, 2571, 2634
14612, 1700, 319, 320, 2638
14613, 320, 1701, 1700, 2638
14614, 1960, 1961, 386, 2646
14615, 386, 2168, 385, 2646
14616, 386, 385, 1960, 2646
14617, 385, 2168, 2167, 2646
14618, 1999, 2547, 2022, 2000
14619, 1999, 2022, 2547, 2602
14620, 2022, 2547, 2023, 2000
14621, 2022, 2023, 2547, 2602
14622, 2023, 2547, 2620, 2000
14623, 2023, 2620, 2547, 2602
14624, 2123, 2145, 2625, 2122
14625, 2625, 2145, 2123, 2631
14626, 2618, 2582, 1931, 1908
14627, 2011, 2615, 2594, 1756
14628, 2594, 2615, 2011, 2628
14629, 2645, 1773, 2608, 2601
14630, 2645, 2608, 1773, 2028
14631, 2628, 1851, 2588, 2081
14632, 2628, 2588, 1851, 2615
14633, 2025, 2600, 1770, 2026
14634, 2025, 1770, 2600, 2598
14635, 1771, 1770, 2600, 2026
14636, 1771, 2600, 1770, 2598
14637, 1912, 2556, 1913, 1935
14638, 1912, 1913, 2556, 2601
14639, 1913, 2556, 1936, 1935
14640, 1913, 1936, 2556, 2601
14641, 2561, 2113, 2091, 2114
14642, 2561, 2091, 2113, 2616
14643, 2118, 2600, 2140, 2141
14644, 2140, 2600, 2118, 2598
14645, 1885, 2620, 1884, 1862
14646, 1885, 1884, 2620, 2602
14647, 1861, 1884, 2620, 1862
14648, 1861, 2620, 1884, 2602
14649, 2115, 2620, 2114, 2602
14650, 2115, 2114, 2620, 2092
14651, 2091, 2114, 2620, 2602
14652, 2091, 2620, 2114, 2092
14653, 2635, 2640, 1754, 2587
14654, 1754, 2640, 2635, 1753
14655, 1743, 2568, 1765, 1742
14656, 1765, 2568, 1743, 2606
14657, 2568, 2633, 1765, 1742
14658, 1765, 2633, 2568, 2606
14659, 2568, 1719, 2633, 1742
14660, 2629, 2105, 2581, 2588
14661, 2629, 2581, 2105, 2591
14662, 2619, 1999, 1976, 1977
14663, 1976, 1999, 2619, 2547
14664, 1897, 1920, 2526, 1898
14665, 1921, 1920, 2526, 1688
14666, 1921, 2526, 1920, 1898
14667, 1710, 2621, 1919, 1896
14668, 2636, 407, 2621, 402
14669, 2636, 2621, 407, 2626
14670, 2643, 1991, 2578, 2595
14671, 2643, 2578, 1991, 2584
14672, 2596, 1869, 2597, 1892
14673, 2596, 2597, 1869, 2625
14674, 2109, 2630, 2087, 2086
14675, 2087, 2630, 2109, 2585
14676, 2584, 2629, 2581, 2588
14677, 2584, 2581, 2629, 2643
14678, 2046, 1790, 2023, 2045
14679, 2022, 2023, 1790, 2045
14680, 2022, 1790, 2023, 1768
14681, 1762, 2039, 1785, 1784
14682, 1762, 1785, 2039, 2040
14683, 288, 1785, 2039, 1784
14684, 288, 2039, 1785, 2040
14685, 1779, 2034, 1757, 1780
14686, 2012, 1757, 2034, 1780
14687, 2012, 2034, 1757, 2011
14688, 284, 1780, 2036, 2035
14689, 284, 2036, 1780, 1781
14690, 2013, 2036, 1780, 2035
14691, 2013, 1780, 2036, 1781
14692, 2020, 1787, 2019, 2042
14693, 2020, 2019, 1787, 1764
14694, 2604, 2019, 1787, 2042
14695, 2604, 1787, 2019, 1764
14696, 1762, 2039, 1761, 2016
14697, 1762, 1761, 2039, 1784
14698, 1783, 1761, 2039, 2016
14699, 1783, 2039, 1761, 1784
14700, 2089, 2066, 1837, 2067
14701, 354, 2066, 1837, 1836
14702, 354, 1837, 2066, 2067
14703, 1795, 1773, 2028, 1772
14704, 2028, 1773, 1795, 2051
14705, 1787, 2043, 1765, 1788
14706, 1787, 1765, 2043, 2020
14707, 1766, 1765, 2043, 1788
14708, 1766, 2043, 1765, 2020
14709, 2067, 1838, 2090, 2068
14710, 2091, 2090, 1838, 2068
14711, 2091, 1838, 2090, 1860
14712, 1835, 2064, 1857, 1834
14713, 1835, 1857, 2064, 2087
14714, 1856, 1857, 2064, 1834
14715, 1856, 2064, 1857, 2087
14716, 2022, 2044, 1767, 2021
14717, 2022, 1767, 2044, 1790
14718, 1789, 2044, 1767, 1790
14719, 346, 2059, 1828, 2058
14720, 346, 1828, 2059, 1829
14721, 1851, 2059, 1828, 1829
14722, 2089, 1837, 2090, 2067
14723, 2089, 2090, 1837, 1860
14724, 1838, 2090, 1837, 2067
14725, 1838, 1837, 2090, 1860
14726, 2075, 2074, 1867, 1844
14727, 2075, 1867, 2074, 2097
14728, 1866, 1867, 2074, 1844
14729, 1866, 2074, 1867, 2097
14730, 1863, 2071, 1840, 1841
14731, 358, 1840, 2071, 1841
14732, 358, 2071, 1840, 2070
14733, 1868, 1846, 2098, 2075
14734, 1868, 2098, 1846, 1869
14735, 361, 2074, 1843, 2073
14736, 361, 1843, 2074, 1844
14737, 1866, 1843, 2074, 2073
14738, 1866, 2074, 1843, 1844
14739, 2620, 2093, 1840, 1863
14740, 2071, 2093, 1840, 2070
14741, 2071, 1840, 2093, 1863
14742, 2551, 2101, 341, 2124
14743, 340, 2551, 341, 2124
14744, 340, 341, 2551, 2172
14745, 2173, 2551, 340, 2124
14746, 2173, 340, 2551, 2172
14747, 1722, 1700, 1932, 1699
14748, 1931, 1722, 1932, 1699
14749, 1931, 1932, 1722, 2618
14750, 2582, 1722, 1931, 1699
14751, 2582, 1931, 1722, 2618
14752, 1722, 1723, 1932, 1700
14753, 1722, 1932, 1723, 2618
14754, 1932, 1723, 2638, 1700
14755, 1932, 2638, 1723, 2618
14756, 2638, 1723, 1701, 1700
14757, 2638, 1701, 1723, 2618
14758, 2608, 2645, 2120, 2597
14759, 2608, 2120, 2097, 2597
14760, 2608, 2097, 1867, 2597
14761, 1867, 2097, 2608, 2601
14762, 2619, 2602, 1976, 2547
14763, 2619, 1976, 2602, 2616
14764, 1999, 1976, 2602, 2547
14765, 1999, 2602, 1976, 2616
14766, 2634, 1791, 2023, 2046
14767, 2634, 2023, 1791, 1768
14768, 1790, 2023, 1791, 2046
14769, 1790, 1791, 2023, 1768
14770, 1765, 2607, 2589, 1764
14771, 1765, 2589, 2607, 2633
14772, 2609, 2589, 2607, 1764
14773, 2609, 2607, 2589, 2633
14774, 2614, 1771, 2598, 2592
14775, 2614, 2598, 1771, 1748
14776, 2614, 1772, 2601, 1749
14777, 2614, 2601, 1772, 2592
14778, 2614, 1865, 2598, 1888
14779, 2614, 2598, 1865, 2592
14780, 2629, 1734, 1757, 1735
14781, 1757, 1734, 2629, 2588
14782, 1757, 1758, 2629, 1735
14783, 2629, 1758, 1757, 2588
14784, 2604, 1994, 2630, 2585
14785, 2604, 2630, 1994, 2017
14786, 2590, 2630, 1994, 2585
14787, 2590, 1994, 2630, 2017
14788, 2577, 1966, 1988, 1965
14789, 2577, 1988, 1966, 2628
14790, 2594, 2577, 1988, 1965
14791, 2594, 1988, 2577, 2628
14792, 1942, 2577, 2594, 1965
14793, 1942, 2594, 2577, 2628
14794, 2630, 1717, 1740, 2609
14795, 2630, 1740, 1717, 2542
14796, 2550, 2623, 2576, 2174
14797, 2576, 2623, 2550, 2147
14798, 2576, 339, 2550, 2174
14799, 2550, 339, 2576, 2147
14800, 2629, 1758, 2643, 1735
14801, 2629, 2643, 1758, 2584
14802, 2626, 1756, 2034, 2011
14803, 1757, 1756, 2034, 1779
14804, 1757, 2034, 1756, 2011
14805, 2124, 2624, 2101, 2123
14806, 2124, 2101, 2624, 2587
14807, 2100, 2101, 2624, 2123
14808, 2100, 2624, 2101, 2587
14809, 2077, 2627, 1870, 2587
14810, 2587, 2077, 2596, 1870
14811, 2587, 2596, 2077, 2100
14812, 2099, 2596, 2077, 1870
14813, 2099, 2077, 2596, 2100
14814, 2643, 2525, 1690, 1713
14815, 1910, 2618, 1909, 2570
14816, 1910, 1909, 2618, 2638
14817, 2025, 1793, 1792, 2048
14818, 1792, 1793, 2025, 2634
14819, 1792, 2047, 2025, 2048
14820, 2025, 2047, 1792, 2634
14821, 2095, 2644, 2598, 2118
14822, 2598, 2644, 2095, 2592
14823, 2644, 2096, 2645, 2119
14824, 2644, 2645, 2096, 2592
14825, 2619, 2620, 2138, 2602
14826, 2138, 2620, 2619, 2586
14827, 2645, 2097, 2608, 2120
14828, 2645, 2608, 2097, 2601
14829, 2011, 2626, 1988, 2010
14830, 2011, 1988, 2626, 2594
14831, 1987, 1988, 2626, 2010
14832, 1987, 2626, 1988, 2594
14833, 2640, 1917, 2587, 1916
14834, 2640, 2587, 1917, 2622
14835, 1894, 2587, 1917, 1916
14836, 1894, 1917, 2587, 2622
14837, 1904, 2564, 2609, 1881
14838, 1904, 2609, 2564, 2633
14839, 2642, 2609, 2564, 1881
14840, 2642, 2564, 2609, 2633
14841, 2143, 2645, 1959, 1982
14842, 1959, 2143, 2144, 2166
14843, 2144, 2143, 1959, 1982
14844, 1959, 2144, 2167, 2166
14845, 2167, 2144, 1959, 1982
14846, 2591, 2061, 1854, 2084
14847, 2062, 1854, 2061, 2084
14848, 2062, 2061, 1854, 1831
14849, 1768, 2620, 1745, 2617
14850, 1768, 1745, 2620, 2602
14851, 2582, 1745, 2620, 2617
14852, 2582, 2620, 1745, 2602
14853, 2127, 1943, 1942, 2150
14854, 1942, 2149, 2127, 2150
14855, 2127, 2149, 1942, 2628
14856, 2059, 1852, 1830, 1829
14857, 2059, 1830, 1852, 2591
14858, 1925, 1693, 1903, 1926
14859, 1925, 1903, 1693, 2630
14860, 2630, 2609, 1694, 1717
14861, 2642, 2066, 1859, 2089
14862, 1837, 1859, 2066, 2089
14863, 1837, 2066, 1859, 1836
14864, 2620, 1839, 1861, 1862
14865, 2092, 1839, 2070, 2069
14866, 2637, 2029, 1797, 1774
14867, 2051, 2029, 1797, 2052
14868, 2051, 1797, 2029, 1774
14869, 2637, 1798, 2596, 1775
14870, 2637, 2596, 1798, 2030
14871, 1776, 2596, 1798, 1775
14872, 1776, 1798, 2596, 2030
14873, 2030, 1798, 2052, 2053
14874, 2634, 1747, 1769, 1770
14875, 2636, 408, 1987, 2626
14876, 2636, 1987, 408, 403
14877, 2624, 2031, 2030, 2008
14878, 2030, 2031, 2624, 2596
14879, 2030, 2007, 2624, 2008
14880, 2624, 2007, 2030, 2596
14881, 2102, 2639, 2080, 2079
14882, 2080, 2639, 2102, 2594
14883, 2618, 1933, 1724, 1910
14884, 2618, 1724, 1933, 1701
14885, 1911, 1724, 1933, 1910
14886, 1740, 2604, 1741, 1763
14887, 1740, 1741, 2604, 2609
14888, 1764, 1741, 2604, 1763
14889, 1764, 2604, 1741, 2609
14890, 2167, 2144, 2646, 2599
14891, 2580, 2001, 2586, 1978
14892, 2580, 2586, 2001, 2634
14893, 1926, 2609, 2630, 1903
14894, 2630, 2609, 1926, 1694
14895, 2630, 1693, 1926, 1903
14896, 1926, 1693, 2630, 1694
14897, 2615, 1920, 2526, 1897
14898, 2615, 2526, 1920, 1688
14899, 1934, 2557, 1912, 1935
14900, 1934, 1912, 2557, 2614
14901, 1934, 2614, 1725, 1911
14902, 1934, 1725, 1724, 1911
14903, 1724, 1725, 1934, 1702
14904, 1701, 1724, 1934, 1702
14905, 2627, 2182, 2178, 2177
14906, 2627, 2178, 2182, 2622
14907, 2525, 1922, 2643, 1690
14908, 2525, 2643, 1922, 2632
14909, 2133, 2543, 2110, 2132
14910, 2133, 2110, 2543, 2585
14911, 2110, 2543, 2109, 2132
14912, 2110, 2109, 2543, 2585
14913, 2109, 2543, 2590, 2132
14914, 2109, 2590, 2543, 2585
14915, 2590, 2543, 2538, 2132
14916, 2590, 2538, 2543, 2585
14917, 2538, 2543, 2155, 2132
14918, 2014, 1782, 2036, 2037
14919, 2621, 407, 411, 406
14920, 2621, 411, 407, 2626
14921, 2625, 2559, 2646, 1984
14922, 2646, 2559, 2625, 2599
14923, 2646, 1961, 2625, 1984
14924, 2625, 1961, 2646, 2599
14925, 2146, 2624, 2169, 2574
14926, 2169, 2624, 2146, 2631
14927, 2579, 2112, 2605, 2135
14928, 2579, 2605, 2112, 2589
14929, 2134, 2589, 2112, 2111
14930, 2112, 2589, 2134, 2579
14931, 2579, 1996, 2612, 1973
14932, 2579, 2612, 1996, 2589
14933, 1974, 2589, 1996, 1997
14934, 1996, 2589, 1974, 2579
14935, 2631, 2596, 2575, 2624
14936, 2631, 2575, 2596, 2625
14937, 1984, 2575, 2596, 2624
14938, 1984, 2596, 2575, 2625
14939, 1961, 2169, 2575, 1962
14940, 1961, 2575, 2169, 2631
14941, 2624, 2575, 2169, 1962
14942, 2624, 2169, 2575, 2631
14943, 1746, 2634, 1747, 1769
14944, 1747, 2634, 1746, 2618
14945, 336, 2623, 2185, 2180
14946, 2185, 2623, 336, 1986
14947, 2627, 341, 2551, 2101
14948, 2627, 2551, 341, 2172
14949, 2626, 46, 1987, 2010
14950, 2626, 1987, 46, 408
14951, 1783, 2529, 286, 1782
14952, 1783, 286, 2529, 2038
14953, 2037, 286, 2529, 1782
14954, 2037, 2529, 286, 2038
14955, 2069, 2560, 356, 2068
14956, 2069, 356, 2560, 1839
14957, 1838, 356, 2560, 2068
14958, 1838, 2560, 356, 1839
14959, 1839, 2560, 1861, 1838
14960, 2091, 1861, 2560, 1838
14961, 2015, 1760, 2529, 1783
14962, 1782, 2529, 1760, 1783
14963, 2538, 2543, 1948, 2155
14964, 2538, 1948, 2543, 2585
14965, 2156, 1948, 2543, 2155
14966, 2156, 2543, 1948, 2585
14967, 2135, 2563, 2158, 2136
14968, 2135, 2158, 2563, 2605
14969, 2158, 2563, 2159, 2136
14970, 2158, 2159, 2563, 2605
14971, 2159, 2616, 2563, 2605
14972, 2616, 2113, 2563, 2605
14973, 2568, 1720, 1697, 1719
14974, 2568, 1697, 1720, 2606
14975, 1696, 2568, 1697, 1719
14976, 1696, 1697, 2568, 2606
14977, 2633, 2568, 1696, 1719
14978, 2633, 1696, 2568, 2606
14979, 2561, 2137, 2159, 2136
14980, 2561, 2159, 2137, 2616
14981, 2563, 2561, 2159, 2136
14982, 2563, 2159, 2561, 2616
14983, 2113, 2561, 2563, 2136
14984, 2113, 2563, 2561, 2616
14985, 1746, 2618, 1745, 1723
14986, 1746, 1745, 2618, 2569
14987, 1722, 1745, 2618, 1723
14988, 1722, 2618, 1745, 2569
14989, 2577, 1942, 2127, 1943
14990, 2577, 2127, 1942, 2628
14991, 1712, 2530, 1690, 1713
14992, 1712, 1690, 2530, 2629
14993, 2643, 1690, 2530, 1713
14994, 2643, 2530, 1690, 2629
14995, 1739, 2542, 2641, 1716
14996, 1739, 2641, 2542, 2630
14997, 2542, 1717, 1694, 1716
14998, 2542, 1694, 1717, 2630
14999, 1715, 2541, 2610, 1692
15000, 1715, 2610, 2541, 2641
15001, 2541, 1693, 1925, 1692
15002, 1924, 2541, 1925, 1692
15003, 2610, 2541, 1924, 1692
15004, 2620, 2634, 1768, 2023
15005, 1768, 2634, 2620, 2617
15006, 1746, 2569, 1768, 1745
15007, 1746, 1768, 2569, 2634
15008, 2617, 1768, 2569, 1745
15009, 2617, 2569, 1768, 2634
15010, 1726, 2556, 2614, 1703
15011, 1726, 2614, 2556, 2601
15012, 1912, 2556, 2614, 2601
15013, 2059, 1828, 2081, 1851
15014, 2059, 2081, 1828, 2058
15015, 2080, 2081, 1828, 1851
15016, 2080, 1828, 2081, 2058
15017, 2646, 2559, 2144, 1983
15018, 2646, 2144, 2559, 2599
15019, 2597, 2144, 2559, 1983
15020, 2597, 2559, 2144, 2599
15021, 2639, 405, 401, 2621
15022, 2639, 401, 405, 400
15023, 2013, 2014, 1782, 2036
15024, 1782, 2014, 2013, 2584
15025, 1782, 1781, 2013, 2036
15026, 2013, 1781, 1782, 2584
15027, 2556, 1935, 2557, 1703
15028, 2557, 1935, 2556, 1912
15029, 2557, 2614, 2556, 1703
15030, 2556, 2614, 2557, 1912
15031, 2616, 2137, 2114, 2602
15032, 2114, 2137, 2616, 2561
15033, 2114, 2091, 2616, 2602
15034, 2616, 2091, 2114, 2561
15035, 1977, 1999, 2547, 2619
15036, 1977, 2547, 1999, 2000
15037, 2620, 2586, 2547, 2619
15038, 2620, 2547, 2586, 2000
15039, 2586, 1977, 2547, 2619
15040, 2586, 2547, 1977, 2000
15041, 1919, 1710, 1709, 2621
15042, 1709, 1710, 1919, 1687
15043, 1709, 1686, 1919, 2621
15044, 1919, 1686, 1709, 1687
15045, 2536, 1919, 1710, 1687
15046, 2536, 1688, 1710, 2615
15047, 1710, 1688, 2536, 1687
15048, 1896, 1710, 2536, 1919
15049, 1896, 2536, 1710, 2615
15050, 1920, 1897, 2536, 1919
15051, 1920, 2536, 1897, 2615
15052, 1897, 1896, 2536, 1919
15053, 1897, 2536, 1896, 2615
15054, 2043, 2044, 1766, 1789
15055, 2043, 1766, 2044, 2021
15056, 1767, 1766, 2044, 1789
15057, 1767, 2044, 1766, 2021
15058, 2092, 2093, 1839, 2620
15059, 2092, 1839, 2093, 2070
15060, 1840, 1839, 2093, 2620
15061, 1840, 2093, 1839, 2070
15062, 1778, 1756, 2033, 2626
15063, 1778, 2033, 1756, 1779
15064, 2034, 2033, 1756, 2626
15065, 2034, 1756, 2033, 1779
15066, 1870, 2077, 1848, 2627
15067, 1848, 2077, 1870, 1847
15068, 2582, 1745, 2569, 1722
15069, 2569, 1745, 2582, 2617
15070, 2569, 2618, 2582, 1722
15071, 2582, 2618, 2569, 2617
15072, 2143, 2165, 1958, 2645
15073, 1958, 2165, 2143, 2166
15074, 1958, 1959, 2143, 2645
15075, 2143, 1959, 1958, 2166
15076, 1830, 2061, 1853, 2591
15077, 1830, 1853, 2061, 1831
15078, 1854, 1853, 2061, 2591
15079, 1854, 2061, 1853, 1831
15080, 1835, 1858, 2066, 1836
15081, 1859, 1858, 2066, 2642
15082, 1859, 2066, 1858, 1836
15083, 1858, 2088, 2066, 2642
15084, 2066, 1835, 2088, 1858
15085, 2066, 2088, 1835, 2065
15086, 2087, 2088, 1835, 1858
15087, 2087, 1835, 2088, 2065
15088, 2646, 2167, 1983, 2144
15089, 2646, 1983, 2167, 1960
15090, 1982, 1983, 2167, 2144
15091, 1982, 2167, 1983, 1960
15092, 2030, 2029, 1798, 2637
15093, 2030, 1798, 2029, 2052
15094, 1797, 1798, 2029, 2637
15095, 1797, 2029, 1798, 2052
15096, 1724, 1933, 1934, 1911
15097, 1724, 1934, 1933, 1701
15098, 1725, 1934, 2557, 2614
15099, 2557, 1934, 1725, 1702
15100, 2557, 1703, 1725, 2614
15101, 1725, 1703, 2557, 1702
15102, 2617, 2634, 2586, 2598
15103, 2586, 2634, 2617, 2620
15104, 2586, 2116, 2617, 2598
15105, 2617, 2116, 2586, 2620
15106, 2621, 1732, 1755, 1733
15107, 1755, 1732, 2621, 2626
15108, 1755, 1756, 2621, 1733
15109, 2621, 1756, 1755, 2626
15110, 2560, 2091, 2620, 1861
15111, 2620, 2091, 2560, 2092
15112, 2620, 1839, 2560, 1861
15113, 2560, 1839, 2620, 2092
15114, 2529, 2015, 2643, 1760
15115, 2643, 2015, 2529, 2014
15116, 2529, 2643, 1759, 1760
15117, 1759, 2643, 2529, 2014
15118, 2529, 1759, 1782, 1760
15119, 1782, 1759, 2529, 2014
15120, 2577, 1943, 2628, 1966
15121, 2577, 2628, 1943, 2127
15122, 2588, 2628, 1943, 1966
15123, 2588, 1943, 2628, 2127
15124, 2542, 2630, 1716, 1694
15125, 2542, 1716, 2630, 2641
15126, 1693, 1716, 2630, 1694
15127, 1693, 2630, 1716, 2641
15128, 1924, 2541, 1902, 1925
15129, 2541, 2630, 1902, 1925
15130, 1902, 2630, 2541, 2641
15131, 2541, 1693, 2630, 1925
15132, 2630, 1693, 2541, 2641
15133, 2541, 1902, 1901, 1924
15134, 1901, 1902, 2541, 2641
15135, 1901, 2610, 2541, 1924
15136, 2541, 2610, 1901, 2641
