*Heading
 C:\GmshForms\Gmsh variant 2\ModelExamples\examples\baffles.inp
*NODE
1, 0.4, 0.7, 0.2
2, 0.7, 0.7, 0.2
3, 0.7, 1, 0.2
4, 0.4, 1, 0.2
5, 0.3, 0.3, 0.5
6, 0.6, 0.3, 0.5
7, 0.6, 0.6, 0.5
8, 0.3, 0.6, 0.5
9, -0.2, 0.6, 0.5
10, -0.2, 0.3, 0.5
11, 0, 0.6, 0.5
12, 0, 0.3, 0.5
13, 0.1, 0.6, 0.5
14, 0.1, 0.3, 0.5
15, 0.8, 0, 0.5
16, 0.8, -0.2, 0.5
17, 1, 0, 0.5
18, 1.1, 0, 0.5
19, 1.1, -0.2, 0.5
20, 0.8, 0.1, 0.5
21, 1, 0.1, 0.5
22, 1.1, 0.1, 0.5
23, 0, 0, 1
24, 0, 0, 0
25, 0, 1, 1
26, 0, 1, 0
27, 1, 0, 0
28, 1, 0, 1
29, 1, 1, 1
30, 1, 1, 0
31, 2, 0, 0
32, 2, 0, 1
33, 2, 1, 0
34, 2, 1, 1
35, 0.4375, 0.7, 0.2
36, 0.475, 0.7, 0.2
37, 0.5125, 0.7, 0.2
38, 0.55, 0.7, 0.2
39, 0.5875, 0.7, 0.2
40, 0.625, 0.7, 0.2
41, 0.6625, 0.7, 0.2
42, 0.7, 0.7375, 0.2
43, 0.7, 0.775, 0.2
44, 0.7, 0.8125, 0.2
45, 0.7, 0.85, 0.2
46, 0.7, 0.8875, 0.2
47, 0.7, 0.925, 0.2
48, 0.7, 0.9625, 0.2
49, 0.6625, 1, 0.2
50, 0.625, 1, 0.2
51, 0.5875, 1, 0.2
52, 0.55, 1, 0.2
53, 0.5125, 1, 0.2
54, 0.475, 1, 0.2
55, 0.4375, 1, 0.2
56, 0.4, 0.9625, 0.2
57, 0.4, 0.925, 0.2
58, 0.4, 0.8875, 0.2
59, 0.4, 0.85, 0.2
60, 0.4, 0.8125, 0.2
61, 0.4, 0.775, 0.2
62, 0.4, 0.7375, 0.2
63, 0.3375, 0.3, 0.5
64, 0.375, 0.3, 0.5
65, 0.4125, 0.3, 0.5
66, 0.45, 0.3, 0.5
67, 0.4875, 0.3, 0.5
68, 0.525, 0.3, 0.5
69, 0.5625, 0.3, 0.5
70, 0.6, 0.3375, 0.5
71, 0.6, 0.375, 0.5
72, 0.6, 0.4125, 0.5
73, 0.6, 0.45, 0.5
74, 0.6, 0.4875, 0.5
75, 0.6, 0.525, 0.5
76, 0.6, 0.5625, 0.5
77, 0.5625, 0.6, 0.5
78, 0.525, 0.6, 0.5
79, 0.4875, 0.6, 0.5
80, 0.45, 0.6, 0.5
81, 0.4125, 0.6, 0.5
82, 0.375, 0.6, 0.5
83, 0.3375, 0.6, 0.5
84, 0.3, 0.5625, 0.5
85, 0.3, 0.525, 0.5
86, 0.3, 0.4875, 0.5
87, 0.3, 0.45, 0.5
88, 0.3, 0.4125, 0.5
89, 0.3, 0.375, 0.5
90, 0.3, 0.3375, 0.5
91, -0.2, 0.5625, 0.5
92, -0.2, 0.525, 0.5
93, -0.2, 0.4875, 0.5
94, -0.2, 0.45, 0.5
95, -0.2, 0.4125, 0.5
96, -0.2, 0.375, 0.5
97, -0.2, 0.3375, 0.5
98, -0.04, 0.6, 0.5
99, -0.08, 0.6, 0.5
100, -0.12, 0.6, 0.5
101, -0.16, 0.6, 0.5
102, 0, 0.5625, 0.5
103, 0, 0.525, 0.5
104, 0, 0.4875, 0.5
105, 0, 0.45, 0.5
106, 0, 0.4125, 0.5
107, 0, 0.375, 0.5
108, 0, 0.3375, 0.5
109, -0.16, 0.3, 0.5
110, -0.12, 0.3, 0.5
111, -0.08, 0.3, 0.5
112, -0.04, 0.3, 0.5
113, 0.066666666666667, 0.6, 0.5
114, 0.033333333333333, 0.6, 0.5
115, 0.1, 0.3375, 0.5
116, 0.1, 0.375, 0.5
117, 0.1, 0.4125, 0.5
118, 0.1, 0.45, 0.5
119, 0.1, 0.4875, 0.5
120, 0.1, 0.525, 0.5
121, 0.1, 0.5625, 0.5
122, 0.033333333333333, 0.3, 0.5
123, 0.066666666666667, 0.3, 0.5
124, 0.8, -0.04, 0.5
125, 0.8, -0.08, 0.5
126, 0.8, -0.12, 0.5
127, 0.8, -0.16, 0.5
128, 0.84, 0, 0.5
129, 0.88, 0, 0.5
130, 0.92, 0, 0.5
131, 0.96, 0, 0.5
132, 1.0333333333333, 0, 0.5
133, 1.0666666666667, 0, 0.5
134, 1.1, -0.16, 0.5
135, 1.1, -0.12, 0.5
136, 1.1, -0.08, 0.5
137, 1.1, -0.04, 0.5
138, 0.8375, -0.2, 0.5
139, 0.875, -0.2, 0.5
140, 0.9125, -0.2, 0.5
141, 0.95, -0.2, 0.5
142, 0.9875, -0.2, 0.5
143, 1.025, -0.2, 0.5
144, 1.0625, -0.2, 0.5
145, 0.8, 0.066666666666667, 0.5
146, 0.8, 0.033333333333333, 0.5
147, 0.96, 0.1, 0.5
148, 0.92, 0.1, 0.5
149, 0.88, 0.1, 0.5
150, 0.84, 0.1, 0.5
151, 1, 0.066666666666667, 0.5
152, 1, 0.033333333333333, 0.5
153, 0, 0, 0.2
154, 0, 0, 0.4
155, 0, 0, 0.6
156, 0, 0, 0.8
157, 0, 0.2, 1
158, 0, 0.4, 1
159, 0, 0.6, 1
160, 0, 0.8, 1
161, 0, 0.2, 0
162, 0, 0.4, 0
163, 0, 0.6, 0
164, 0, 0.8, 0
165, 0, 1, 0.2
166, 0, 1, 0.4
167, 0, 1, 0.6
168, 0, 1, 0.8
169, 0.2, 0, 0
170, 0.4, 0, 0
171, 0.6, 0, 0
172, 0.8, 0, 0
173, 1, 0, 0.14704718060571
174, 1, 0, 0.25949777463074
175, 1, 0, 0.3454914977141
176, 1, 0, 0.41125300614898
177, 1, 0, 0.46154243788797
178, 0.2, 0, 1
179, 0.4, 0, 1
180, 0.6, 0, 1
181, 0.8, 0, 1
182, 1, 0, 0.53845756211203
183, 1, 0, 0.58874699385102
184, 1, 0, 0.6545085022859
185, 1, 0, 0.74050222536926
186, 1, 0, 0.85295281939429
187, 0.2, 1, 1
188, 0.4, 1, 1
189, 0.6, 1, 1
190, 0.8, 1, 1
191, 1, 0.2, 1
192, 1, 0.4, 1
193, 1, 0.6, 1
194, 1, 0.8, 1
195, 0.2, 1, 0
196, 0.4, 1, 0
197, 0.6, 1, 0
198, 0.8, 1, 0
199, 1, 0.2, 0
200, 1, 0.4, 0
201, 1, 0.6, 0
202, 1, 0.8, 0
203, 1, 1, 0.2
204, 1, 1, 0.4
205, 1, 1, 0.6
206, 1, 1, 0.8
207, 1.2, 0, 0
208, 1.4, 0, 0
209, 1.6, 0, 0
210, 1.8, 0, 0
211, 2, 0, 0.2
212, 2, 0, 0.4
213, 2, 0, 0.6
214, 2, 0, 0.8
215, 1.2, 0, 1
216, 1.4, 0, 1
217, 1.6, 0, 1
218, 1.8, 0, 1
219, 1.2, 1, 0
220, 1.4, 1, 0
221, 1.6, 1, 0
222, 1.8, 1, 0
223, 2, 0.2, 0
224, 2, 0.4, 0
225, 2, 0.6, 0
226, 2, 0.8, 0
227, 2, 1, 0.2
228, 2, 1, 0.4
229, 2, 1, 0.6
230, 2, 1, 0.8
231, 1.2, 1, 1
232, 1.4, 1, 1
233, 1.6, 1, 1
234, 1.8, 1, 1
235, 2, 0.2, 1
236, 2, 0.4, 1
237, 2, 0.6, 1
238, 2, 0.8, 1
239, 0.66627268569262, 0.87144630965429, 0.2
240, 0.43321748175273, 0.83077154106813, 0.2
241, 0.56875, 0.73247595264192, 0.2
242, 0.53125, 0.96752404735808, 0.2
243, 0.60615674020456, 0.96865204417407, 0.2
244, 0.66638889531417, 0.7904977879485, 0.2
245, 0.43547880553054, 0.9007677921769, 0.2
246, 0.49295679815939, 0.73211072386496, 0.2
247, 0.64359109865197, 0.73175395168959, 0.2
248, 0.45625, 0.96752404735808, 0.2
249, 0.43284555765661, 0.7610026196793, 0.2
250, 0.66376913897089, 0.94392719271294, 0.2
251, 0.60622351644199, 0.73235561914986, 0.2
252, 0.58749558607367, 0.76493184970182, 0.2
253, 0.5499885064359, 0.7649547737689, 0.2
254, 0.56874734875159, 0.79742499340959, 0.2
255, 0.53068608533662, 0.7970902424482, 0.2
256, 0.54990557234804, 0.82984706390205, 0.2
257, 0.58748382018327, 0.8298938753707, 0.2
258, 0.56873156542188, 0.86236864956582, 0.2
259, 0.53123118962832, 0.86236845315802, 0.2
260, 0.55, 0.8948557158515, 0.2
261, 0.58749692757031, 0.89485386357754, 0.2
262, 0.51249686493805, 0.8948538308429, 0.2
263, 0.49374634242773, 0.86237756403289, 0.2
264, 0.56875, 0.92733166849341, 0.2
265, 0.475, 0.8948557158515, 0.2
266, 0.49399742145107, 0.92571051676494, 0.2
267, 0.60598564669917, 0.92569692576214, 0.2
268, 0.6301183940661, 0.89206414346826, 0.2
269, 0.45627579422468, 0.86349777719254, 0.2
270, 0.475, 0.82990381056767, 0.2
271, 0.45336196581164, 0.79696421441566, 0.2
272, 0.49044520429049, 0.79536489459914, 0.2
273, 0.47067870468792, 0.76405794925798, 0.2
274, 0.63082263157268, 0.76803598411753, 0.2
275, 0.60625, 0.79742785792575, 0.2
276, 0.62371990966967, 0.83016158867077, 0.2
277, 0.56875, 0.96752404735808, 0.2
278, 0.6668963528681, 0.90713543402803, 0.2
279, 0.49375, 0.96752404735808, 0.2
280, 0.51183573233853, 0.82949200478466, 0.2
281, 0.51170352938357, 0.76465919779015, 0.2
282, 0.60625, 0.86237976320958, 0.2
283, 0.53118053389121, 0.73244753272202, 0.2
284, 0.6615990115933, 0.83066053168459, 0.2
285, 0.53125, 0.92733166849341, 0.2
286, 0.66880434864649, 0.75591107839885, 0.2
287, 0.43102473491716, 0.94199139794816, 0.2
288, 0.64244388364558, 0.97212230539796, 0.2
289, 0.45734000683855, 0.73084807406783, 0.2
290, 0.63829177211723, 0.92328603935119, 0.2
291, 0.46032668183233, 0.92497799514012, 0.2
292, 0.63759200020434, 0.8573424673375, 0.2
293, 0.42536071037125, 0.86875, 0.2
294, 0.63736218999611, 0.80175838215347, 0.2
295, 0.42320126635774, 0.79375, 0.2
296, 0.67254809471617, 0.97254809471617, 0.2
297, 0.42745190528383, 0.72745190528383, 0.2
298, 0.67254809471617, 0.72745190528383, 0.2
299, 0.42745190528383, 0.97254809471617, 0.2
300, 0.5125, 0.94742785792575, 0.2
301, 0.5875, 0.94742785792575, 0.2
302, 0.55, 0.94742785792575, 0.2
303, 0.4780484040294, 0.94740791007351, 0.2
304, 0.62468932798188, 0.94760650078458, 0.2
305, 0.56678251824727, 0.46922845893187, 0.5
306, 0.43125, 0.56752404735808, 0.5
307, 0.33372731430738, 0.42855369034571, 0.5
308, 0.46875, 0.33247595264192, 0.5
309, 0.33361110468583, 0.5095022120515, 0.5
310, 0.39384325979544, 0.33134795582593, 0.5
311, 0.50704320184061, 0.56788927613504, 0.5
312, 0.56452119446946, 0.3992322078231, 0.5
313, 0.35640890134803, 0.56824604831041, 0.5
314, 0.33623086102911, 0.35607280728706, 0.5
315, 0.54375, 0.33247595264192, 0.5
316, 0.56715444234339, 0.5389973803207, 0.5
317, 0.39377648355801, 0.56764438085014, 0.5
318, 0.41250441392633, 0.53506815029818, 0.5
319, 0.4500114935641, 0.5350452262311, 0.5
320, 0.43125265124841, 0.50257500659041, 0.5
321, 0.46931391466338, 0.5029097575518, 0.5
322, 0.45009442765196, 0.47015293609795, 0.5
323, 0.41251617981673, 0.4701061246293, 0.5
324, 0.43126843457812, 0.43763135043418, 0.5
325, 0.46876881037168, 0.43763154684198, 0.5
326, 0.45, 0.4051442841485, 0.5
327, 0.41250307242969, 0.40514613642246, 0.5
328, 0.48750313506195, 0.4051461691571, 0.5
329, 0.50625365757227, 0.43762243596711, 0.5
330, 0.43125, 0.37266833150658, 0.5
331, 0.525, 0.4051442841485, 0.5
332, 0.50600257854893, 0.37428948323506, 0.5
333, 0.39401435330083, 0.37430307423786, 0.5
334, 0.3698816059339, 0.40793585653174, 0.5
335, 0.54372420577532, 0.43650222280746, 0.5
336, 0.525, 0.47009618943233, 0.5
337, 0.54663803418836, 0.50303578558434, 0.5
338, 0.50955479570951, 0.50463510540086, 0.5
339, 0.52932129531208, 0.53594205074202, 0.5
340, 0.36917736842732, 0.53196401588247, 0.5
341, 0.50625, 0.33247595264192, 0.5
342, 0.39375, 0.50257214207425, 0.5
343, 0.37628009033033, 0.46983841132923, 0.5
344, 0.3331036471319, 0.39286456597197, 0.5
345, 0.43125, 0.33247595264192, 0.5
346, 0.46875, 0.37266833150659, 0.5
347, 0.48816426766147, 0.47050799521534, 0.5
348, 0.48829647061643, 0.53534080220985, 0.5
349, 0.39375, 0.43762023679042, 0.5
350, 0.46881946610879, 0.56755246727798, 0.5
351, 0.3384009884067, 0.46933946831541, 0.5
352, 0.35755611635442, 0.32787769460204, 0.5
353, 0.56897526508284, 0.35800860205184, 0.5
354, 0.33119565135351, 0.54408892160115, 0.5
355, 0.54265999316145, 0.56915192593217, 0.5
356, 0.36170822788277, 0.37671396064881, 0.5
357, 0.53967331816767, 0.37502200485988, 0.5
358, 0.36240799979566, 0.4426575326625, 0.5
359, 0.57463928962875, 0.43125, 0.5
360, 0.36263781000389, 0.49824161784653, 0.5
361, 0.57679873364226, 0.50625, 0.5
362, 0.57254809471617, 0.57254809471617, 0.5
363, 0.32745190528383, 0.32745190528383, 0.5
364, 0.32745190528383, 0.57254809471617, 0.5
365, 0.57254809471617, 0.32745190528383, 0.5
366, 0.4875, 0.35257214207425, 0.5
367, 0.45, 0.35257214207425, 0.5
368, 0.4125, 0.35257214207425, 0.5
369, 0.5219515959706, 0.35259208992649, 0.5
370, 0.37531067201812, 0.35239349921542, 0.5
371, -0.16491513465914, 0.46789889967807, 0.5
372, -0.1, 0.33464101615138, 0.5
373, -0.031434664610416, 0.50689653025316, 0.5
374, -0.031009965245546, 0.43355853499713, 0.5
375, -0.099473851908085, 0.56586701935383, 0.5
376, -0.16525522962698, 0.39634714030787, 0.5
377, -0.17122172042769, 0.54306110697263, 0.5
378, -0.032475952641916, 0.35625, 0.5
379, -0.058956302478619, 0.56248847494417, 0.5
380, -0.082471939170254, 0.52987255743704, 0.5
381, -0.11711819749095, 0.53062632650432, 0.5
382, -0.10006158226543, 0.49764111190912, 0.5
383, -0.13626231495917, 0.49878314310377, 0.5
384, -0.11808088049991, 0.46539398816132, 0.5
385, -0.08389188876311, 0.46139580380559, 0.5
386, -0.10215951918646, 0.43115379487759, 0.5
387, -0.14154581195092, 0.43210179178122, 0.5
388, -0.12329028395222, 0.39825433031759, 0.5
389, -0.083682254483193, 0.39704815897648, 0.5
390, -0.14034460878461, 0.36440203191569, 0.5
391, -0.03047763637025, 0.47095400297369, 0.5
392, -0.040786438676397, 0.39493206805689, 0.5
393, -0.14093026350372, 0.56249388842894, 0.5
394, -0.058779717473386, 0.33052482145879, 0.5
395, -0.028621797029952, 0.54235953819619, 0.5
396, -0.17013902975561, 0.50739662882431, 0.5
397, -0.063178570641462, 0.49313450506427, 0.5
398, -0.065855576976286, 0.42489563602117, 0.5
399, -0.14, 0.32909644586207, 0.5
400, -0.10395969372157, 0.37192353675292, 0.5
401, -0.17050772311776, 0.35524739219424, 0.5
402, -0.069947342832744, 0.36421993356608, 0.5
403, -0.17470550405923, 0.43162111882388, 0.5
404, -0.027255224895823, 0.57281974159432, 0.5
405, -0.17337663633069, 0.57331870588281, 0.5
406, -0.027721030810559, 0.32698576619793, 0.5
407, -0.17251642842563, 0.326732476346, 0.5
408, -0.055156104086692, 0.45284356922681, 0.5
409, -0.14713430522743, 0.52847221876679, 0.5
410, -0.053008306450256, 0.52590940098927, 0.5
411, 0.05, 0.32886751345948, 0.5
412, 0.05, 0.57113248654052, 0.5
413, 0.067524047358084, 0.39375, 0.5
414, 0.032475952641916, 0.50625, 0.5
415, 0.067524047358084, 0.46875, 0.5
416, 0.032475952641916, 0.43125, 0.5
417, 0.026222744406915, 0.39421200443613, 0.5
418, 0.026495190528383, 0.46875, 0.5
419, 0.073504809471617, 0.43125, 0.5
420, 0.073777255593085, 0.50578799556387, 0.5
421, 0.029154868871859, 0.54690647502929, 0.5
422, 0.070845131128141, 0.35309352497071, 0.5
423, 0.068886277965424, 0.54143997781933, 0.5
424, 0.031113722034576, 0.35856002218067, 0.5
425, 0.076433017376187, 0.57511638581587, 0.5
426, 0.023566982623813, 0.57511638581587, 0.5
427, 0.023566982623813, 0.32488361418413, 0.5
428, 0.076433017376187, 0.32488361418413, 0.5
429, 0.98, -0.031754264805429, 0.5
430, 0.90113058531076, -0.034605046225323, 0.5
431, 1.0084226211907, -0.16604345520262, 0.5
432, 0.93146530053434, -0.16567337652054, 0.5
433, 1.0602424041279, -0.097272730145692, 0.5
434, 0.82704912883749, -0.10021661947188, 0.5
435, 1.0486896165493, -0.029883792985927, 0.5
436, 0.85625, -0.16752404735808, 0.5
437, 0.94088640787205, -0.033144041093643, 0.5
438, 0.96174911793184, -0.065112973161004, 0.5
439, 0.99880140008969, -0.063316171589051, 0.5
440, 0.98272809425915, -0.096628106730677, 0.5
441, 0.94474989972917, -0.098893873067405, 0.5
442, 0.96419475003562, -0.13039525288577, 0.5
443, 1.0190090744013, -0.094871863417525, 0.5
444, 0.92203962234731, -0.06730544178709, 0.5
445, 0.90362406757308, -0.10618628069771, 0.5
446, 0.88157428819715, -0.068087941697432, 0.5
447, 0.86089013084979, -0.033801389324517, 0.5
448, 1.0677207704297, -0.1400413772005, 0.5
449, 0.97149216491449, -0.16625843336693, 0.5
450, 0.89215047465437, -0.16804882805246, 0.5
451, 0.87529363774362, -0.1350927970151, 0.5
452, 1.0155010255835, -0.031056190305518, 0.5
453, 0.99869240868995, -0.12922755408434, 0.5
454, 1.0698717194267, -0.055388884071788, 0.5
455, 1.0453626847145, -0.16698154286706, 0.5
456, 0.8348419319896, -0.13710335799609, 0.5
457, 0.92934431305282, -0.12835210505775, 0.5
458, 0.83685063801453, -0.064079923201012, 0.5
459, 1.0332509315962, -0.059938473760587, 0.5
460, 0.86241449249372, -0.101543416572, 0.5
461, 1.0346298913258, -0.12831254683645, 0.5
462, 0.82992208251796, -0.029922082517959, 0.5
463, 1.0724567516601, -0.17175632968136, 0.5
464, 0.82698576619793, -0.17227896918944, 0.5
465, 1.0770456005285, -0.025054535411543, 0.5
466, 0.90364756699825, -0.14062708347286, 0.5
467, 0.97125029519057, 0.049562798554311, 0.5
468, 0.82874970480943, 0.049562798554311, 0.5
469, 0.9, 0.072637432908677, 0.5
470, 0.93753206314411, 0.066783847856713, 0.5
471, 0.86246793685589, 0.066783847856713, 0.5
472, 0.94392400846603, 0.02815312515898, 0.5
473, 0.85607599153397, 0.02815312515898, 0.5
474, 0.9, 0.035249580782036, 0.5
475, 0.97375647166694, 0.076602662615538, 0.5
476, 0.97476169246148, 0.022952635712895, 0.5
477, 0.82523830753852, 0.022952635712895, 0.5
478, 0.82624352833306, 0.076602662615538, 0.5
479, 1.0505155631535, 0.027366965440527, 0.5
480, 1.0266880420961, 0.05, 0.5
481, 1.0609635068815, 0.064386073654035, 0.5
482, 1.0242319754852, 0.024231975485169, 0.5
483, 0, 0.72144775506128, 0.87095604731243
484, 0, 0.71818021149672, 0.1320736038544
485, 0, 0.3, 0.82679491924311
486, 0, 0.3, 0.17320508075689
487, 0, 0.83012011072503, 0.47960369884363
488, 0, 0.51100625080945, 0.84335587831692
489, 0, 0.6042395902676, 0.70184424007155
490, 0, 0.51106546287036, 0.15643668083614
491, 0, 0.60197881170337, 0.29298975648267
492, 0, 0.84102375574981, 0.34345742233206
493, 0, 0.73521486074187, 0.37988121271792
494, 0, 0.72967851236792, 0.51765598655554
495, 0, 0.87715358280263, 0.6878464675108
496, 0, 0.13443642802759, 0.5
497, 0, 0.12949513025018, 0.66199085662758
498, 0, 0.12949513025018, 0.33800914337242
499, 0, 0.21666666666667, 0.42660443242801
500, 0, 0.21666666666667, 0.57339556757199
501, 0, 0.25861843739753, 0.69827500339754
502, 0, 0.31327520709441, 0.58950898849819
503, 0, 0.36717077234829, 0.66882072644601
504, 0, 0.39839648018561, 0.58305240537705
505, 0, 0.45439361649568, 0.65015056383716
506, 0, 0.47268576536091, 0.57545870093221
507, 0, 0.52890385713944, 0.63440841706658
508, 0, 0.53877684758588, 0.57118669727576
509, 0, 0.60728054360977, 0.60324492362727
510, 0, 0.67348094569268, 0.64882369220813
511, 0, 0.25861843739753, 0.30172499660246
512, 0, 0.31155542630985, 0.40660742527979
513, 0, 0.36589848407446, 0.33072915933229
514, 0, 0.39648073245042, 0.41423256231537
515, 0, 0.45124100550416, 0.34746691864616
516, 0, 0.47268576536091, 0.42454129906779
517, 0, 0.52816410344196, 0.36376427842235
518, 0, 0.53734613036223, 0.43286009882779
519, 0, 0.60207223361786, 0.40450919011716
520, 0, 0.4309198351002, 0.2534448482035
521, 0, 0.43148497173914, 0.74547925534828
522, 0, 0.58289088906595, 0.54309225388816
523, 0, 0.57817587936003, 0.46208924431856
524, 0, 0.6233869121801, 0.4648469248627
525, 0, 0.64494038741525, 0.52417192994825
526, 0, 0.23673818138257, 0.50000167505376
527, 0, 0.34931907182015, 0.44496404814834
528, 0, 0.35611194788, 0.53958554985985
529, 0, 0.3166416229214, 0.53288325475658
530, 0, 0.39375, 0.53247595264192
531, 0, 0.39290996085411, 0.46534413156436
532, 0, 0.43222107644424, 0.46194034005093
533, 0, 0.46910764153099, 0.46871832211657
534, 0, 0.50589825620902, 0.46607316201931
535, 0, 0.5060771021578, 0.53480034979103
536, 0, 0.46950257350374, 0.52854700067303
537, 0, 0.43280580317504, 0.53658900993737
538, 0, 0.14801892794128, 0.83117679654471
539, 0, 0.14801892794128, 0.16882320345529
540, 0, 0.84968774025949, 0.16783519754573
541, 0, 0.8577384167186, 0.84791819088917
542, 0, 0.52307667495502, 0.7294943913544
543, 0, 0.52196683031648, 0.26872908151749
544, 0, 0.27666433561301, 0.53915789717611
545, 0, 0.71576667418724, 0.26630866189211
546, 0, 0.31875, 0.46752404735808
547, 0, 0.27674205487182, 0.46014751602393
548, 0, 0.40584991731959, 0.84676783598583
549, 0, 0.40582357805585, 0.15316535136865
550, 0, 0.6590937868992, 0.35253353725944
551, 0, 0.77492753948212, 0.60367918898071
552, 0, 0.68606158571355, 0.57951514426398
553, 0, 0.54178405318626, 0.47220450103313
554, 0, 0.54304896776193, 0.52981586019099
555, 0, 0.73105994190053, 0.73754226006553
556, 0, 0.67936658841707, 0.44336093893281
557, 0, 0.76214949707639, 0.44608292413382
558, 0, 0.35225206692561, 0.24245388725276
559, 0, 0.35262481976091, 0.75722754808416
560, 0, 0.61149299842903, 0.1860896307638
561, 0, 0.61513836883231, 0.81386546952014
562, 0, 0.88141470921268, 0.58268221759957
563, 0.94352506154252, 0, 0.68673860780037
564, 0.93670108311391, 0, 0.30178377448892
565, 0.15252233307179, 0, 0.52734225253914
566, 0.51645454309773, 0, 0.16161428690331
567, 0.49243581178914, 0, 0.84692642059597
568, 0.96356441872232, 0, 0.56398961140998
569, 0.96080616512581, 0, 0.43526627860435
570, 0.68195827355624, 0, 0.16445321536084
571, 0.59210534808858, 0, 0.29235375223767
572, 0.45702388655775, 0, 0.30588073063508
573, 0.53700486931762, 0, 0.40529415802445
574, 0.65198172296214, 0, 0.41068303357153
575, 0.59632202906179, 0, 0.50359593178303
576, 0.48939796605563, 0, 0.51224879877461
577, 0.55874765708089, 0, 0.60124966923506
578, 0.66631108281242, 0, 0.58390100473832
579, 0.44056595463736, 0, 0.62048889271914
580, 0.63032369592368, 0, 0.68288919823041
581, 0.73119075231024, 0, 0.67022013819753
582, 0.69201154618049, 0, 0.77180644511917
583, 0.35896550181674, 0, 0.20301688920375
584, 0.70332712338313, 0, 0.30835718593322
585, 0.75200271777611, 0, 0.39514899522758
586, 0.71141202688185, 0, 0.46920132801742
587, 0.80135484233341, 0, 0.32419340231886
588, 0.84054457105872, 0, 0.39595004476979
589, 0.812452326671, 0, 0.75619861700318
590, 0.75771262205465, 0, 0.59222129629491
591, 0.81635375748984, 0, 0.64810699187412
592, 0.82562071274905, 0, 0.57465611893145
593, 0.31733808133227, 0, 0.33058410171965
594, 0.38803235008024, 0, 0.53056731097927
595, 0.31131215252012, 0, 0.64596269270525
596, 0.30632883090506, 0, 0.82911384815118
597, 0.95653247486794, 0, 0.61462318869376
598, 0.9170561194802, 0, 0.58016637902523
599, 0.95032864428949, 0, 0.37799624020829
600, 0.92538017304683, 0, 0.77709100647162
601, 0.9162875751284, 0, 0.20327247761823
602, 0.90743925641709, 0, 0.41253583582583
603, 0.20671238399237, 0, 0.22244861229613
604, 0.79954723406533, 0, 0.43773773324945
605, 0.15600057720353, 0, 0.70893153973377
606, 0.88410075854556, 0, 0.87643672658681
607, 0.88670583115565, 0, 0.34956999927226
608, 0.90842618834977, 0, 0.6404826973968
609, 0.41082401056007, 0, 0.42272331204096
610, 0.51859105255963, 0, 0.71082952324744
611, 0.92440314463614, 0, 0.45854632922517
612, 0.87434014340028, 0, 0.45090221605174
613, 0.85760345212484, 0, 0.53504728896058
614, 0.81952660403029, 0, 0.5295144945908
615, 0.89910992860084, 0, 0.53564565717556
616, 0.93839833939249, 0, 0.53479091345411
617, 0.90413892643724, 0, 0.10041456599981
618, 0.81483193810885, 0, 0.16097477610982
619, 0.40933370782659, 0, 0.7325619179283
620, 0.77557246402908, 0, 0.53806017394732
621, 0.75205378650326, 0, 0.49647171530492
622, 0.72029318126211, 0, 0.53399820553728
623, 0.74389593881113, 0, 0.87752198269536
624, 0.85722044862759, 0, 0.26314495445387
625, 0.87950121025355, 0, 0.6862309641672
626, 0.13246588162172, 0, 0.86760907757699
627, 0.15878661806889, 0, 0.35535662311127
628, 0.83355141143076, 0, 0.45887711244235
629, 0.77173852520184, 0, 0.24422470683532
630, 0.61990833088317, 0, 0.87303586596756
631, 0.96808585399181, 0, 0.46837922594819
632, 0.8711596647204, 0, 0.61599812232068
633, 0.76300315304531, 0, 0.45971195435987
634, 0.66491787041445, 0, 0.50721108011712
635, 0.97065956955159, 0, 0.52894383311386
636, 0.12653076973531, 0, 0.11325731807685
637, 0.27970159580461, 0, 0.45618774085921
638, 0.2606646139486, 0, 0.11357796572343
639, 0.87410997553507, 0, 0.5683027132827
640, 0.59065408746722, 0, 0.77709749063211
641, 0.89977558714936, 0, 0.47717498705697
642, 0.17320508075689, 0.5, 1
643, 0.86762395692966, 0.50608154841308, 1
644, 0.51133491425873, 0.16370661204826, 1
645, 0.51133491425873, 0.83629338795174, 1
646, 0.16935440901117, 0.69915252614382, 1
647, 0.32943239651748, 0.6035511415539, 1
648, 0.32724454764239, 0.39689946972905, 1
649, 0.51961524227066, 0.5, 1
650, 0.69988642339523, 0.16938214347677, 1
651, 0.16962310651469, 0.30047082289051, 1
652, 0.69988642339523, 0.83061785652323, 1
653, 0.31431387076792, 0.18233770505099, 1
654, 0.3163905351026, 0.81175483790994, 1
655, 0.81347218565257, 0.68421543868224, 1
656, 0.82751535738793, 0.31407731390598, 1
657, 0.61068558124839, 0.33127740899666, 1
658, 0.61261928512519, 0.67853856607609, 1
659, 0.68241570150836, 0.52310799819488, 1
660, 0.85358983848622, 0.14641016151378, 1
661, 0.85358983848622, 0.85358983848622, 1
662, 0.14641016151378, 0.85358983848622, 1
663, 0.14641016151378, 0.14641016151378, 1
664, 0.45820186441707, 0.31030302876612, 1
665, 0.45820186441707, 0.68969697123388, 1
666, 0.17320508075689, 0.5, 0
667, 0.86762395692966, 0.50608154841308, 0
668, 0.51133491425873, 0.16370661204826, 0
669, 0.51133491425873, 0.83629338795174, 0
670, 0.16935440901117, 0.69915252614382, 0
671, 0.32943239651748, 0.6035511415539, 0
672, 0.32724454764239, 0.39689946972905, 0
673, 0.51961524227066, 0.5, 0
674, 0.69988642339523, 0.16938214347677, 0
675, 0.16962310651469, 0.30047082289051, 0
676, 0.69988642339523, 0.83061785652323, 0
677, 0.31431387076792, 0.18233770505099, 0
678, 0.3163905351026, 0.81175483790994, 0
679, 0.81347218565257, 0.68421543868224, 0
680, 0.82751535738793, 0.31407731390598, 0
681, 0.61068558124839, 0.33127740899666, 0
682, 0.61261928512519, 0.67853856607609, 0
683, 0.68241570150836, 0.52310799819488, 0
684, 0.85358983848622, 0.14641016151378, 0
685, 0.85358983848622, 0.85358983848622, 0
686, 0.14641016151378, 0.85358983848622, 0
687, 0.14641016151378, 0.14641016151378, 0
688, 0.45820186441707, 0.31030302876612, 0
689, 0.45820186441707, 0.68969697123388, 0
690, 0.48589293651274, 1, 0.83640399976798
691, 0.17571274765022, 1, 0.48929894138436
692, 0.84371449596168, 1, 0.53129756700423
693, 0.8672942204246, 1, 0.28956273834584
694, 0.72031458335559, 1, 0.40290422685747
695, 0.87078093580864, 1, 0.14886900141801
696, 0.84335375440658, 1, 0.68340855214027
697, 0.68440436752453, 1, 0.6150053061392
698, 0.7069876752179, 1, 0.74426929874366
699, 0.16862157058028, 1, 0.68367166288598
700, 0.31167575825489, 1, 0.6
701, 0.32710623388876, 1, 0.4531168297423
702, 0.4265716150067, 1, 0.53195510199622
703, 0.44126708723685, 1, 0.39901780562314
704, 0.35644649399727, 1, 0.34552560668393
705, 0.52897795146102, 1, 0.47242389986772
706, 0.54405669120267, 1, 0.37176513760525
707, 0.42702862180485, 1, 0.31101995981994
708, 0.16058281399495, 1, 0.30632963021014
709, 0.3697456721112, 1, 0.27404793553694
710, 0.53539187427155, 1, 0.58989748162948
711, 0.29956791305866, 1, 0.28419628677662
712, 0.33021656190168, 1, 0.21198990620666
713, 0.33170743302774, 1, 0.7737369721504
714, 0.23963424776659, 1, 0.2155074604113
715, 0.26435838659454, 1, 0.37108930714227
716, 0.42380311721145, 1, 0.25810890624482
717, 0.46848724994778, 1, 0.27221565147
718, 0.79111083613413, 1, 0.23843633461541
719, 0.6343487971771, 1, 0.42090837910595
720, 0.61992692111583, 1, 0.32820103202196
721, 0.555728125912, 1, 0.28943806250129
722, 0.61220988704496, 1, 0.2656159834448
723, 0.67556996405848, 1, 0.28219698739617
724, 0.83800435624854, 1, 0.84385051039522
725, 0.7705004250853, 1, 0.16282734601443
726, 0.70391586864127, 1, 0.12563952347722
727, 0.75478357101979, 1, 0.31763795415144
728, 0.26551191453212, 1, 0.12844198483988
729, 0.35382202472903, 1, 0.13446458686938
730, 0.42693199866513, 1, 0.13182858232838
731, 0.52209937597887, 1, 0.095944063167475
732, 0.61533212860406, 1, 0.1107500088436
733, 0.59658212860406, 1, 0.16556174047479
734, 0.57382300215949, 1, 0.23607171483605
735, 0.53446723367588, 1, 0.23818982982591
736, 0.49461779293457, 1, 0.23567244715234
737, 0.45302636001563, 1, 0.23164155933021
738, 0.49375, 1, 0.16752404735808
739, 0.14428816271561, 1, 0.14171317924355
740, 0.72894821457132, 1, 0.2512684237705
741, 0.42440675211376, 1, 0.67351130625532
742, 0.68215363572596, 1, 0.23318827276172
743, 0.6439472478049, 1, 0.23498358900516
744, 0.61928438276792, 1, 0.51989987940232
745, 0.19964758070477, 1, 0.84883486399311
746, 0.49292834168132, 1, 0.31910164433264
747, 0.57750188492365, 1, 0.7212488785554
748, 0.60849602740187, 1, 0.2273342574572
749, 0.71621727513597, 1, 0.49205252417141
750, 0.65659682646027, 1, 0.86070795197315
751, 0.68446060495675, 1, 0.34847786376265
752, 0.39005115944549, 1, 0.23658057375733
753, 0.81705402431627, 1, 0.4055758350884
754, 0.50924574883031, 1, 0.27092352705643
755, 0.4202686623818, 1, 0.22486224879436
756, 1, 0.062312299075983, 0.6894310701048
757, 1, 0.065711942825994, 0.30249463617242
758, 1, 0.83588116680506, 0.47989265843769
759, 1, 0.49246041211292, 0.83024096362598
760, 1, 0.50876956384996, 0.14890654311557
761, 1, 0.039580885836103, 0.5639885501167
762, 1, 0.041311725494553, 0.4414330045631
763, 1, 0.04978714630463, 0.61630009929906
764, 1, 0.12019274649112, 0.63515595550095
765, 1, 0.14324909758135, 0.71535466682916
766, 1, 0.20371480943438, 0.64553323565018
767, 1, 0.23713538142069, 0.74072211926379
768, 1, 0.30375021591791, 0.65909143600446
769, 1, 0.26070496615242, 0.56952190631689
770, 1, 0.36678612356294, 0.57121473016737
771, 1, 0.31643786665355, 0.4828803146039
772, 1, 0.4369815645112, 0.4788451812977
773, 1, 0.16428584637881, 0.5716817451925
774, 1, 0.21784967405772, 0.50288437468478
775, 1, 0.24590047764403, 0.41208656400793
776, 1, 0.49120087032596, 0.58818986767885
777, 1, 0.15447760825159, 0.4083583799121
778, 1, 0.57023434304977, 0.48517034134374
779, 1, 0.63344794249325, 0.63109105143142
780, 1, 0.19541629654376, 0.3257614124662
781, 1, 0.29851200118319, 0.30325381550164
782, 1, 0.19525366439848, 0.19610784451297
783, 1, 0.051346412496873, 0.3783460726941
784, 1, 0.079636655897898, 0.7817666903728
785, 1, 0.083712424871597, 0.20327247761823
786, 1, 0.81438554335645, 0.67202829680034
787, 1, 0.83508120410677, 0.30731239472389
788, 1, 0.50823135251233, 0.36978618820976
789, 1, 0.68906890808675, 0.17711527665094
790, 1, 0.67315908527402, 0.37090692235174
791, 1, 0.094077775554762, 0.57776352441167
792, 1, 0.67304779337242, 0.81323279647311
793, 1, 0.34744708296849, 0.77325662468537
794, 1, 0.15150155641242, 0.51502335588741
795, 1, 0.1161276291941, 0.35129457295785
796, 1, 0.074865009398347, 0.53940576380428
797, 1, 0.078011759851787, 0.46627972097428
798, 1, 0.093523424336665, 0.41916624031588
799, 1, 0.11986541073109, 0.46928569079386
800, 1, 0.048570423674797, 0.4744816203955
801, 1, 0.33885899389921, 0.15339226636922
802, 1, 0.11821242473245, 0.88322203519473
803, 1, 0.26465662868617, 0.86912635502304
804, 1, 0.16857803766371, 0.7980383733367
805, 1, 0.11559234504014, 0.53767297645031
806, 1, 0.37278033274466, 0.38648957645102
807, 1, 0.4217443819066, 0.68811477388143
808, 1, 0.096717477003626, 0.098737431031774
809, 1, 0.86483002243871, 0.13688553427497
810, 1, 0.03157016381812, 0.53214648075145
811, 1, 0.84221906909293, 0.85257424232747
812, 1, 0.70064071447032, 0.5132939460478
813, 1, 0.52882158655136, 0.70669502112653
814, 1, 0.13705790077521, 0.26419406429112
815, 1, 0.43061873396365, 0.27208539508517
816, 1, 0.17791894541937, 0.46152767305722
817, 1, 0.024643096500537, 0.47549141256931
818, 1, 0.57465837611816, 0.26888882363605
819, 1, 0.38072960191677, 0.87935557875286
820, 1.0640456303068, 0, 0.69437864352078
821, 1.0673016965907, 0, 0.30503195356991
822, 1.8209874413888, 0, 0.49905986326436
823, 1.5118050106022, 0, 0.8447370288817
824, 1.5005843616233, 0, 0.18344513047094
825, 1.0378722182215, 0, 0.55964969558341
826, 1.0397140616216, 0, 0.4429744732556
827, 1.0489553222435, 0, 0.62162774806846
828, 1.11702787669, 0, 0.6340383960542
829, 1.1416686290413, 0, 0.72280816690148
830, 1.2055802131529, 0, 0.66326742152136
831, 1.1787900535386, 0, 0.58660572123225
832, 1.266355159525, 0, 0.59878460059468
833, 1.2346277169724, 0, 0.51454711887228
834, 1.3372673850634, 0, 0.52795467558879
835, 1.2990867967494, 0, 0.42776096838533
836, 1.4178968926356, 0, 0.4416760456657
837, 1.2338529226217, 0, 0.76087573100897
838, 1.4522384922736, 0, 0.56228051178273
839, 1.2064731713148, 0, 0.42071487675976
840, 1.2349923030726, 0, 0.33860717338488
841, 1.5569384962875, 0, 0.45567959618857
842, 1.5777034848691, 0, 0.59656498992229
843, 1.1530468489321, 0, 0.83150566964464
844, 1.0545244171686, 0, 0.37830701588452
845, 1.0882197539748, 0, 0.41761958850364
846, 1.0793489667006, 0, 0.2020839492338
847, 1.1171359362828, 0, 0.56824143575291
848, 1.3195415872187, 0, 0.1619227401158
849, 1.8487676797552, 0, 0.69538623933064
850, 1.8112031584259, 0, 0.30006799589743
851, 1.7054288516346, 0, 0.81703394842371
852, 1.6966347378841, 0, 0.15289776438862
853, 1.1554551057276, 0, 0.53188779783676
854, 1.6992213814727, 0, 0.4
855, 1.4987423222256, 0, 0.33271251683555
856, 1.1547303876327, 0, 0.26395221701113
857, 1.0786243228352, 0, 0.54058994542425
858, 1.0775258964513, 0, 0.46676902738857
859, 1.1192438207151, 0, 0.46489258075062
860, 1.1770715631378, 0, 0.15630119822969
861, 1.3096352459304, 0, 0.69026553823775
862, 1.3579518180377, 0, 0.80977247669996
863, 1.4407957474172, 0, 0.69945399536966
864, 1.1346924040319, 0, 0.36354467177302
865, 1.0477009463914, 0, 0.47611138466703
866, 1.3596037154928, 0, 0.30233032910212
867, 1.172496393559, 0, 0.47902624654184
868, 1.0872292369502, 0, 0.9143194049167
869, 1.0743317242051, 0, 0.79274448829119
870, 1.0491234489652, 0, 0.52651141792914
871, 1.0905480431175, 0, 0.09321135838213
872, 1.8491787408719, 0, 0.84444587147681
873, 1.861567579262, 0, 0.13059315205721
874, 1.7014059993444, 0, 0.64212917710088
875, 1.2689703179183, 0, 0.88043077547071
876, 1.6258018381624, 0, 0.28644770229085
877, 1.1150996956926, 0, 0.52979631631201
878, 1.5905402481687, 0, 0.72483864102581
879, 1.1420479629334, 0, 0.42670824556049
880, 1.3720251260406, 0, 0.6183378524596
881, 1.1324590031388, 0, 0.50112058828825
882, 1.024065800104, 0, 0.52492373512492
883, 1.0241496682693, 0, 0.47612565916212
884, 1.6643823922266, 0, 0.51333209148027
885, 1.2483861494863, 0, 0.24049844507957
886, 1.0736718133362, 0, 0.58047862294217
887, 1.4881383669505, 0.1580808106227, 0
888, 1.5016346035226, 0.82773865802688, 0
889, 1.1636988949637, 0.4919666980277, 0
890, 1.8372448438201, 0.49033209450514, 0
891, 1.6992518096425, 0.83070291234353, 0
892, 1.6038489982209, 0.67074755263812, 0
893, 1.3997910132368, 0.67553418178636, 0
894, 1.5, 0.48038475772934, 0
895, 1.3000781796054, 0.14826306270852, 0
896, 1.6819202846838, 0.1916013298811, 0
897, 1.1851971115055, 0.6893290653698, 0
898, 1.3055054816298, 0.84103195727821, 0
899, 1.1913944289117, 0.29457650026886, 0
900, 1.8119551020549, 0.68389273833587, 0
901, 1.8380305650564, 0.30619019919971, 0
902, 1.6795663697275, 0.38953001182275, 0
903, 1.3358379461871, 0.40055765458998, 0
904, 1.5304523005897, 0.32679491924311, 0
905, 1.8535898384862, 0.14641016151378, 0
906, 1.8535898384862, 0.85358983848622, 0
907, 1.1464101615138, 0.85358983848622, 0
908, 1.1464101615138, 0.14641016151378, 0
909, 1.6897502242147, 0.54187677037809, 0
910, 1.3119821834783, 0.54335472256534, 0
911, 1.3907775115194, 0.27277426613926, 0
912, 1.1627551561799, 1, 0.49033209450514
913, 1.8363011050363, 1, 0.4919666980277
914, 1.4983653964774, 1, 0.82773865802688
915, 1.5118616330495, 1, 0.1580808106227
916, 1.3007481903575, 1, 0.83070291234353
917, 1.3961510017791, 1, 0.67074755263812
918, 1.6002089867632, 1, 0.67553418178636
919, 1.5, 1, 0.48038475772934
920, 1.6999218203946, 1, 0.14826306270852
921, 1.3180797153162, 1, 0.1916013298811
922, 1.8148028884945, 1, 0.6893290653698
923, 1.1880448979451, 1, 0.68389273833587
924, 1.1619694349436, 1, 0.30619019919971
925, 1.6944945183702, 1, 0.84103195727821
926, 1.8086055710883, 1, 0.29457650026886
927, 1.3204336302725, 1, 0.38953001182275
928, 1.6641620538129, 1, 0.40055765458998
929, 1.4695476994103, 1, 0.32679491924311
930, 1.1464101615138, 1, 0.14641016151378
931, 1.1464101615138, 1, 0.85358983848622
932, 1.8535898384862, 1, 0.14641016151378
933, 1.8535898384862, 1, 0.85358983848622
934, 1.3102497757853, 1, 0.54187677037809
935, 1.6880178165217, 1, 0.54335472256534
936, 1.6092224884806, 1, 0.27277426613927
937, 1.8372448438201, 0.49033209450514, 1
938, 1.1636988949637, 0.4919666980277, 1
939, 1.5016346035226, 0.82773865802688, 1
940, 1.4881383669505, 0.1580808106227, 1
941, 1.6992518096425, 0.83070291234353, 1
942, 1.6038489982209, 0.67074755263812, 1
943, 1.3997910132368, 0.67553418178636, 1
944, 1.5, 0.48038475772934, 1
945, 1.3000781796054, 0.14826306270852, 1
946, 1.6819202846838, 0.1916013298811, 1
947, 1.1851971115055, 0.6893290653698, 1
948, 1.3055054816298, 0.84103195727821, 1
949, 1.1913944289117, 0.29457650026886, 1
950, 1.8119551020549, 0.68389273833587, 1
951, 1.8380305650564, 0.30619019919971, 1
952, 1.3358379461871, 0.40055765458998, 1
953, 1.6795663697275, 0.38953001182275, 1
954, 1.5304523005897, 0.32679491924311, 1
955, 1.8535898384862, 0.14641016151378, 1
956, 1.8535898384862, 0.85358983848622, 1
957, 1.1464101615138, 0.14641016151378, 1
958, 1.1464101615138, 0.85358983848622, 1
959, 1.6897502242147, 0.54187677037809, 1
960, 1.3119821834783, 0.54335472256534, 1
961, 1.3907775115194, 0.27277426613927, 1
962, 2, 0.17320508075689, 0.5
963, 2, 0.86649147038914, 0.50805198434501
964, 2, 0.51133491425873, 0.16370661204826
965, 2, 0.50966790549486, 0.83724484382008
966, 2, 0.16935440901117, 0.69915252614382
967, 2, 0.32941929071829, 0.60356001705071
968, 2, 0.32724236334252, 0.39690094897852
969, 2, 0.51961524227066, 0.5
970, 2, 0.69988642339523, 0.16938214347677
971, 2, 0.16962301174949, 0.30047088706731
972, 2, 0.81190899597774, 0.68476508716872
973, 2, 0.31431363821026, 0.18233786254347
974, 2, 0.31613928519428, 0.81189963567365
975, 2, 0.82547960045714, 0.3158900949322
976, 2, 0.69422769673586, 0.83836923201894
977, 2, 0.61462052092595, 0.33162236330218
978, 2, 0.61112469180965, 0.6800969479687
979, 2, 0.68231630339368, 0.52341151351223
980, 2, 0.85358983848622, 0.14641016151378
981, 2, 0.14641016151378, 0.85358983848622
982, 2, 0.14641016151378, 0.14641016151378
983, 2, 0.85358983848622, 0.85358983848622
984, 2, 0.45820186441707, 0.31030302876612
985, 2, 0.45812322962191, 0.68975022421472
986, 0.45001856561859, 0.44848709225439, 0.24508992882784
987, 0.68125, 0.50625, 0.2984375
988, 0.54980946598608, 0.78671204130986, 0.40758170879554
989, 0.31875, 0.75625, 0.3796875
990, 0.75428266320853, 0.71875, 0.40767755440284
991, 0.34367993045618, 0.58217310685463, 0.32216810446325
992, 0.2, 0.46875, 0.34597435687986
993, 0.2, 0.54375, 0.67831646664076
994, 0.43131877924528, 0.45931196569032, 0.7578698189373
995, 0.30870190528383, 0.31875, 0.31297686499383
996, 0.50625, 0.60695559301282, 0.33617269767094
997, 0.2, 0.31875, 0.67916474963135
998, 0.59129809471617, 0.31875, 0.71604041508157
999, 0.58125, 0.59129809471617, 0.70547047248903
1000, 0.50625, 0.78146698822621, 0.62343742678286
1001, 0.59129809471617, 0.31875, 0.30121719649586
1002, 0.2, 0.6421219220445, 0.3760410513565
1003, 0.20934796284624, 0.75625, 0.2210271766783
1004, 0.2, 0.75628659735318, 0.52430686344569
1005, 0.65816778430304, 0.85171438765967, 0.3411539537222
1006, 0.42104881171101, 0.84805606654962, 0.34117333436478
1007, 0.35625, 0.58965835490392, 0.66223933434735
1008, 0.34183221569696, 0.44828561234033, 0.36195271667377
1009, 0.56327425246223, 0.49004334292864, 0.36780574227664
1010, 0.44368248705215, 0.71782782892445, 0.32628924858457
1011, 0.43125, 0.31082531754731, 0.66636448355213
1012, 0.45, 0.37136723087066, 0.36844904454222
1013, 0.7872764923907, 0.2872764923907, 0.61188027436426
1014, 0.77282464415383, 0.50625, 0.63610767756051
1015, 0.78893977218919, 0.28893977218919, 0.39588049593497
1016, 0.43125, 0.73614923975895, 0.46610029055865
1017, 0.46875, 0.18390366873651, 0.35188293486191
1018, 0.62473693154497, 0.72147329367888, 0.32645433422868
1019, 0.2, 0.35625, 0.41550567259028
1020, 0.32143710753856, 0.41091845013857, 0.64814639518662
1021, 0.53124897688079, 0.88402344456529, 0.31651881780378
1022, 0.2, 0.43125, 0.59030302384403
1023, 0.2, 0.54375, 0.44074129517755
1024, 0.2, 0.54375, 0.55771277336604
1025, 0.57047494793229, 0.44513879107409, 0.65562688868797
1026, 0.43126456535328, 0.54587423252194, 0.39096927742042
1027, 0.45001856561859, 0.44848709225439, 0.62866784479494
1028, 0.56875, 0.55255154614402, 0.21217734875966
1029, 0.2, 0.31875, 0.55791236644213
1030, 0.78018494181096, 0.46875, 0.45285919166023
1031, 0.66933359925302, 0.16933359925302, 0.58248724679363
1032, 0.50625, 0.17603521374699, 0.60744986542789
1033, 0.86, 0.13974311517797, 0.63417771301562
1034, 0.58125, 0.59129809471617, 0.40147473550863
1035, 0.39375, 0.65123697350193, 0.40177283151813
1036, 0.2, 0.24689108513896, 0.46284894513779
1037, 0.2, 0.43125, 0.48572253937994
1038, 0.53076521620039, 0.77527296343141, 0.30383309325234
1039, 0.48802429854443, 0.55717051630148, 0.61399633775555
1040, 0.35625, 0.71347253119979, 0.58759889868493
1041, 0.54375, 0.71960658249727, 0.50852805638633
1042, 0.72688890608445, 0.72440856987628, 0.62062297146946
1043, 0.31521956790992, 0.83125, 0.28455172853318
1044, 0.81393098415655, 0.83125, 0.31077823811073
1045, 0.58125, 0.15188107477938, 0.45500321658437
1046, 0.86, 0.15552304902031, 0.36623724851923
1047, 0.31875, 0.20337920091766, 0.39653179217835
1048, 0.2, 0.63036402932104, 0.4992270342718
1049, 0.46923018326112, 0.4595187581435, 0.40687445152831
1050, 0.20752444082855, 0.5812932608096, 0.21190818250311
1051, 0.30996486696456, 0.54375, 0.40500477279061
1052, 0.35625, 0.1942256166078, 0.60626621803466
1053, 0.35608837325228, 0.35760661659916, 0.40189485546082
1054, 0.14109557233749, 0.64752168705929, 0.6180146200034
1055, 0.69685122195996, 0.39375, 0.59965479428117
1056, 0.71181420573289, 0.58125, 0.42894601837517
1057, 0.54334464857617, 0.35390544869931, 0.60930708998794
1058, 0.50625, 0.67007870436846, 0.42198698108839
1059, 0.10963663689628, 0.50625, 0.39335782602871
1060, 0.31875, 0.30870190528383, 0.60791862771924
1061, 0.58125, 0.59129809471617, 0.59835229283649
1062, 0.54378393013083, 0.39565939750333, 0.40407654999511
1063, 0.68194502918609, 0.39375, 0.38935503757198
1064, 0.41875, 0.6330178861902, 0.27492784915157
1065, 0.41875, 0.55783654309674, 0.13796969914307
1066, 0.31506101074804, 0.68973142632846, 0.28182497792237
1067, 0.86, 0.23769242175638, 0.50404575966361
1068, 0.31875, 0.69115686181064, 0.45822928481902
1069, 0.53125, 0.68340524300112, 0.2895392561488
1070, 0.58125, 0.30870190528383, 0.40753390099651
1071, 0.6082668342914, 0.8851962320657, 0.084197604405297
1072, 0.80869256077368, 0.083333333333333, 0.41526703518798
1073, 0.43125, 0.15915408684336, 0.4872792408067
1074, 0.42001579334996, 0.8880467025457, 0.076577408818403
1075, 0.091280920936734, 0.35625, 0.40159909551049
1076, 0.093386863537367, 0.43125, 0.59814806649228
1077, 0.31173303806587, 0.50625, 0.60341257729981
1078, 0.26306460999489, 0.43125, 0.41366793275301
1079, 0.72772303494185, 0.18745225257927, 0.76344566276205
1080, 0.16113597778583, 0.80161254169422, 0.37131958026465
1081, 0.72539599889865, 0.31875, 0.50148092861985
1082, 0.62586210771911, 0.69008230417891, 0.43569102371368
1083, 0.76308707191782, 0.37837832694161, 0.78004274233662
1084, 0.68125, 0.62431502560261, 0.28914038769402
1085, 0.72683800299058, 0.71875, 0.30023738219069
1086, 0.83989541586338, 0.61305031536301, 0.23427343939989
1087, 0.85029523483105, 0.75625, 0.18320498948916
1088, 0.68125, 0.58194073186229, 0.17448988094717
1089, 0.12176923722978, 0.70674990629785, 0.44436380951985
1090, 0.32671866202226, 0.82696407259745, 0.5045377974953
1091, 0.49375, 0.6288806662271, 0.23901604742033
1092, 0.41253762882213, 0.37133212270165, 0.59155817439268
1093, 0.50866761209974, 0.5452807222765, 0.42036420313856
1094, 0.14199051048764, 0.18793624842751, 0.58210416753449
1095, 0.56874866369745, 0.77577040225152, 0.085680380759137
1096, 0.68234283973381, 0.74321621160652, 0.083274903753483
1097, 0.50625, 0.65870074258542, 0.58156368450187
1098, 0.80869256077368, 0.083333333333333, 0.58339038149374
1099, 0.62113902217003, 0.9110955709332, 0.28635559900949
1100, 0.25558506784998, 0.63616152948369, 0.60119087738542
1101, 0.22947320045099, 0.7959771425559, 0.71738993075375
1102, 0.10344413683374, 0.54375, 0.60647880552283
1103, 0.67626183854444, 0.83224816697978, 0.50501662934828
1104, 0.16379736567601, 0.34195816338316, 0.26660501616197
1105, 0.28622318661421, 0.83125, 0.1686171948812
1106, 0.7009719543155, 0.58125, 0.56893884021085
1107, 0.40402426871282, 0.79375, 0.2807558209487
1108, 0.60568512590243, 0.81875801858097, 0.28256834079407
1109, 0.42276837221312, 0.92024689950778, 0.2791383161131
1110, 0.39431487409757, 0.48124198141903, 0.42321508354538
1111, 0.45078741933824, 0.77459982236306, 0.084367079768672
1112, 0.46875, 0.31082531754731, 0.58046825714517
1113, 0.13855367359514, 0.43125, 0.42500246648483
1114, 0.094877125408773, 0.58125, 0.42105566926492
1115, 0.75741548283846, 0.35325316338847, 0.22360358256031
1116, 0.37980961330158, 0.45090674252781, 0.58207062298556
1117, 0.71085334663727, 0.19200097285056, 0.45532970267874
1118, 0.70688895292851, 0.18305938395047, 0.27549943681821
1119, 0.68826696193413, 0.79375, 0.28315775487158
1120, 0.58125, 0.25332720085425, 0.59592665420877
1121, 0.17632954439562, 0.35625, 0.49259761563143
1122, 0.41254789921415, 0.57837701952957, 0.58190619297783
1123, 0.28428047110604, 0.44106579062342, 0.21298272943206
1124, 0.37526306845503, 0.57852670632112, 0.42832809757618
1125, 0.71423159585192, 0.90625, 0.29028306022444
1126, 0.92019416260999, 0.078867542318541, 0.57615390986693
1127, 0.50625, 0.31082531754731, 0.42586072900055
1128, 0.43125, 0.31082531754731, 0.42815628370281
1129, 0.59597573128718, 0.50625, 0.58387284185775
1130, 0.60625, 0.65400936984663, 0.26723137820289
1131, 0.50625211181919, 0.41597228693373, 0.5764244097039
1132, 0.29887603645847, 0.71875, 0.18302315166951
1133, 0.094877125408773, 0.31875, 0.5930950915696
1134, 0.92019416260999, 0.078867542318541, 0.42233311471307
1135, 0.30870190528383, 0.58125, 0.57688166985754
1136, 0.46095082180197, 0.8746948998739, 0.47477934824334
1137, 0.5942508879628, 0.43125, 0.57319421653434
1138, 0.67551463936455, 0.46875, 0.54995898387799
1139, 0.58067350895909, 0.52518498325862, 0.43044953399718
1140, 0.35438214700512, 0.4227648624153, 0.43195286668994
1141, 0.53125, 0.61422489099735, 0.10347683298713
1142, 0.27910541379443, 0.31875, 0.41706507375728
1143, 0.47467625948619, 0.85173848885818, 0.27441960004282
1144, 0.50625, 0.21581956748102, 0.4522195441404
1145, 0.59711359177765, 0.4599273976535, 0.82688493086487
1146, 0.47473484079695, 0.74314513626941, 0.2677032733854
1147, 0.4207722812545, 0.7083887736745, 0.27508704365666
1148, 0.17237335850692, 0.50625, 0.4992270342718
1149, 0.46875211162669, 0.39432018574943, 0.43312980390103
1150, 0.23321955268184, 0.47818954173857, 0.53626722089605
1151, 0.27597045830396, 0.62456404898309, 0.41826003997552
1152, 0.34192718605647, 0.37508576395823, 0.57093240551336
1153, 0.58745210078585, 0.72162298047043, 0.26676543180225
1154, 0.33058290276814, 0.60430640842187, 0.20157465958162
1155, 0.28457052794268, 0.43125, 0.5767349042042
1156, 0.43125, 0.68011110785513, 0.5365768558959
1157, 0.51248606683791, 0.8512677382041, 0.10614166874296
1158, 0.71198436563757, 0.083333333333333, 0.50212995316952
1159, 0.061628010434752, 0.58366406055886, 0.56223045154863
1160, 0.083333333333333, 0.66947979978183, 0.55305176742773
1161, 0.35625, 0.27877695260304, 0.42336395168766
1162, 0.3422005500297, 0.75625, 0.24988857643561
1163, 0.6664874438113, 0.50625, 0.44401410881879
1164, 0.26131886610691, 0.50625, 0.44237087328284
1165, 0.24280889017059, 0.56107087380631, 0.32851541732274
1166, 0.64546824467188, 0.31875, 0.57916008817475
1167, 0.3233198172078, 0.32920022246636, 0.80285655986888
1168, 0.51253057375014, 0.92866129482657, 0.26680194093201
1169, 0.48988787230467, 0.493194895812, 0.57269466721704
1170, 0.6620058876528, 0.31875, 0.44064762881954
1171, 0.14409171881032, 0.46875, 0.55753395296739
1172, 0.22742668556823, 0.69952714501804, 0.44367440923026
1173, 0.4456182921366, 0.706091042393, 0.79986062394845
1174, 0.46875, 0.60682948682874, 0.4288930206552
1175, 0.43125, 0.65768138929763, 0.46224236091577
1176, 0.82, 0.17161651331094, 0.55604248732435
1177, 0.44410582920047, 0.2875857881183, 0.23028499416786
1178, 0.23878417902778, 0.39375, 0.53448200064732
1179, 0.48521811180103, 0.18297881732928, 0.79617775414365
1180, 0.65632006954382, 0.71782689314537, 0.26581624872644
1181, 0.57895118828899, 0.45194393345038, 0.43140800324841
1182, 0.20442940773784, 0.26040604363292, 0.34409083316715
1183, 0.16014057608117, 0.58125, 0.47858402078982
1184, 0.15466827877365, 0.6010705360693, 0.54922312627944
1185, 0.65816778430304, 0.85171438765967, 0.26178545146282
1186, 0.39375, 0.31006669358855, 0.56573103034942
1187, 0.25094120480043, 0.21617973502868, 0.56075477497945
1188, 0.34257291398746, 0.90625, 0.25838300294369
1189, 0.23985942391883, 0.58125, 0.47858402078982
1190, 0.84975713727134, 0.37365990667767, 0.5244572885179
1191, 0.53097072160172, 0.81893999531201, 0.25879951208038
1192, 0.15034096277861, 0.39375, 0.55061364874914
1193, 0.45019053401392, 0.51328795869014, 0.44114344586448
1194, 0.1207384832666, 0.58629304121508, 0.30185743768301
1195, 0.32370958474427, 0.48795434121623, 0.43938743555666
1196, 0.43125, 0.22545703380324, 0.55307536283304
1197, 0.68363453171592, 0.39375, 0.50841225402654
1198, 0.81685917079203, 0.86875, 0.19855122275013
1199, 0.23521491527186, 0.31875, 0.47434188259988
1200, 0.9, 0.1554528665366, 0.55644827484906
1201, 0.35625, 0.67114471855187, 0.5222836135941
1202, 0.31838851620717, 0.87428863829124, 0.39555991645154
1203, 0.27046950739941, 0.64466307743434, 0.81848804680512
1204, 0.56228429995862, 0.66117398028521, 0.3624139692383
1205, 0.50472344914895, 0.35663875126969, 0.55921086722602
1206, 0.54998132078902, 0.87320123975389, 0.25352214027008
1207, 0.68874636163377, 0.90625, 0.11428414191034
1208, 0.4125004978783, 0.51341054090599, 0.56385486615565
1209, 0.62077383499724, 0.76193717758566, 0.76918435249606
1210, 0.26810469526142, 0.67547494117326, 0.52583287150401
1211, 0.23609934164699, 0.15980492468439, 0.71779062224486
1212, 0.58459390165305, 0.8960908446464, 0.41795874769671
1213, 0.24873936263525, 0.39375, 0.46475543040917
1214, 0.84762863241498, 0.62877447807732, 0.50988092848186
1215, 0.58125, 0.6609237503579, 0.55038584625991
1216, 0.67532122764272, 0.66272231402846, 0.51770326715284
1217, 0.75074269028427, 0.62623474084583, 0.77938036373778
1218, 0.47437299381484, 0.78641661797305, 0.36720868619275
1219, 0.59049695072126, 0.56560374260479, 0.30709655862594
1220, 0.35625, 0.63497617678992, 0.45039893317991
1221, 0.31875, 0.59129809471617, 0.44609989894816
1222, 0.41253762882213, 0.37133212270165, 0.44161671108783
1223, 0.42997213256553, 0.6097672546637, 0.34767373767501
1224, 0.45001856561859, 0.44848709225439, 0.55779962776898
1225, 0.60442428024238, 0.17106902063314, 0.70406410159746
1226, 0.9, 0.1747865996777, 0.44815252219794
1227, 0.35625, 0.21158972500858, 0.4855207289678
1228, 0.512161036059, 0.72179624554355, 0.11817173007857
1229, 0.54375, 0.31082531754731, 0.55623223818867
1230, 0.59010363248072, 0.35625, 0.5615716648027
1231, 0.55, 0.91650635094611, 0.12539816160914
1232, 0.51466320551421, 0.72028997029641, 0.35429140034189
1233, 0.52447233378904, 0.5792188615618, 0.5630617612822
1234, 0.25443157892918, 0.21042257195107, 0.1729520317567
1235, 0.13901916864514, 0.52860289425489, 0.45001397388453
1236, 0.64545373621116, 0.77791554796354, 0.40159507203127
1237, 0.56874866369745, 0.77577040225152, 0.25339540884584
1238, 0.45640303065406, 0.54113675091286, 0.28070693162415
1239, 0.52758489887695, 0.49197498313395, 0.44314201183912
1240, 0.13976219488754, 0.31875, 0.44153088660278
1241, 0.4770613754126, 0.92997189148011, 0.12787168994679
1242, 0.36585666268107, 0.71875, 0.10406677312174
1243, 0.56875, 0.94612675728982, 0.25372595809467
1244, 0.05, 0.30962250448649, 0.54957243619515
1245, 0.41819768148313, 0.47819864024033, 0.34241588095989
1246, 0.17588697737241, 0.43177283498958, 0.81741823572151
1247, 0.43125, 0.2378096321242, 0.45633852300514
1248, 0.60625, 0.62162826970701, 0.19312005218
1249, 0.58125, 0.21534226574733, 0.51629517801781
1250, 0.10634214412213, 0.4265720227052, 0.32543819865559
1251, 0.54375, 0.59025499473192, 0.44586140809634
1252, 0.19890117150673, 0.47236707943698, 0.42538384096322
1253, 0.58125, 0.6444722632796, 0.45430796713668
1254, 0.86889673182776, 0.13110326817224, 0.21559163594459
1255, 0.083333333333333, 0.30781700830347, 0.44541134474508
1256, 0.10255678274363, 0.20267877591293, 0.45488483475942
1257, 0.83704724544425, 0.46793081267669, 0.30277273839181
1258, 0.32061124509365, 0.67281984869354, 0.36471841201683
1259, 0.241365332312, 0.71925806058405, 0.33614091126449
1260, 0.37993239715505, 0.67910740960067, 0.31941931334291
1261, 0.82, 0.15815484723192, 0.44616141301416
1262, 0.46875, 0.58919355885554, 0.55322494169457
1263, 0.25414118102182, 0.58125, 0.5418374758634
1264, 0.60625, 0.71074503146933, 0.12023851053285
1265, 0.50625, 0.2436267643746, 0.54938853711193
1266, 0.39488639330276, 0.79435243677089, 0.4082049700509
1267, 0.77913863187106, 0.75625, 0.23778357360183
1268, 0.4057491120372, 0.86875, 0.25572423446088
1269, 0.24731499942064, 0.36326399462638, 0.61486946753163
1270, 0.64277242687333, 0.82183481064576, 0.12149054114207
1271, 0.8560458907927, 0.24596070285534, 0.73204569211285
1272, 0.079995495067766, 0.52480253494475, 0.44401815061963
1273, 0.77067487881273, 0.79375, 0.12017800543747
1274, 0.64656967333529, 0.63876952654499, 0.36804566000501
1275, 0.50625, 0.66520477567642, 0.49034416914891
1276, 0.07914397204382, 0.41112370006418, 0.43918238314187
1277, 0.62438009263211, 0.23719368823123, 0.44060208084339
1278, 0.67199521420429, 0.24516307323449, 0.52649463987794
1279, 0.56148319268355, 0.83317664995578, 0.51213009607915
1280, 0.35342075344136, 0.5175243051579, 0.55581412551873
1281, 0.05, 0.59037749551351, 0.45099366398883
1282, 0.84888669249595, 0.69914150939959, 0.32628643924804
1283, 0.14386235931351, 0.54375, 0.53605885195785
1284, 0.7584278366507, 0.18528254892899, 0.64894531015603
1285, 0.54610202622555, 0.479811074603, 0.55560241361414
1286, 0.22232923889338, 0.43297813194559, 0.70400035114549
1287, 0.3683330357329, 0.66759321519018, 0.24870358614912
1288, 0.23953686128472, 0.52329500533952, 0.4962917533066
1289, 0.41251242310051, 0.42680332802958, 0.44847301551157
1290, 0.75640959714081, 0.88586256430424, 0.40047149476198
1291, 0.35625, 0.24848262682559, 0.5495489980641
1292, 0.39727900139563, 0.2990578829811, 0.34206455700167
1293, 0.30419089464184, 0.39375, 0.44399242159211
1294, 0.58571392201589, 0.43611312288871, 0.25647043339546
1295, 0.53125, 0.71080644114446, 0.24634705903391
1296, 0.59010363248072, 0.35625, 0.44354857019709
1297, 0.37530800210491, 0.33370852984852, 0.44980532708315
1298, 0.47140815068729, 0.65841788710231, 0.30917736456326
1299, 0.47909063020254, 0.68518341086963, 0.25705782589618
1300, 0.079328622314103, 0.48580387641442, 0.56305075731995
1301, 0.2, 0.61214907822728, 0.43533432124788
1302, 0.16109229796937, 0.57323852056287, 0.3784426759676
1303, 0.1507322489452, 0.43125, 0.51030177617401
1304, 0.14314392911466, 0.46875, 0.46879169580081
1305, 0.14264446520518, 0.39375, 0.47125136168436
1306, 0.89499969570754, 0.25452609213566, 0.60974850574475
1307, 0.44368248705215, 0.71782782892445, 0.13251188652054
1308, 0.64997581030971, 0.43125, 0.4465793819676
1309, 0.2005633697391, 0.88185366552829, 0.25163497672173
1310, 0.24142791228743, 0.38344802815251, 0.33373462156152
1311, 0.69908861975776, 0.31248606484183, 0.67953929232882
1312, 0.75846275858625, 0.65062537334516, 0.24904794298331
1313, 0.78183085238028, 0.63971943599741, 0.12599764262969
1314, 0.77564972079783, 0.56822062100456, 0.33110029481538
1315, 0.61374473198939, 0.76439988904564, 0.5874809903569
1316, 0.37828452496027, 0.75135906394371, 0.33582530058341
1317, 0.64039572697988, 0.58125, 0.44253742037273
1318, 0.63835477269524, 0.53781297991496, 0.37049127349457
1319, 0.41875, 0.6195972322891, 0.19318096650624
1320, 0.80339511597781, 0.48491659254904, 0.1493281444313
1321, 0.37159005688641, 0.85500090394587, 0.65120836789579
1322, 0.14824085968749, 0.31875, 0.52895847601722
1323, 0.083333333333333, 0.23414660162007, 0.5469081404499
1324, 0.56677394673919, 0.82531506359305, 0.34595857923777
1325, 0.50632611851615, 0.86212453258788, 0.397614333705
1326, 0.56042324958316, 0.18676300008227, 0.22824237229823
1327, 0.28352243946893, 0.35625, 0.55761988487167
1328, 0.26872592285892, 0.49175614449221, 0.36830239172624
1329, 0.05, 0.66210903427047, 0.48435653906939
1330, 0.58749398865556, 0.85155129125871, 0.13864773458018
1331, 0.54876409205751, 0.61584354607208, 0.28085230656039
1332, 0.41141487015427, 0.75625, 0.24593993834352
1333, 0.65807281394353, 0.92491423604177, 0.24990069792287
1334, 0.47200424797085, 0.798498613663, 0.25395091989943
1335, 0.32181091713158, 0.90625, 0.17751520561412
1336, 0.67275194021898, 0.54375, 0.50950680034354
1337, 0.48986688990781, 0.51157908849659, 0.35257726996633
1338, 0.88119089524664, 0.12311181548728, 0.75973771622137
1339, 0.57888976440266, 0.67953130594532, 0.65191138266276
1340, 0.86106961817205, 0.39758456131954, 0.66489925796159
1341, 0.24704500694205, 0.46526675585739, 0.48119717752662
1342, 0.5812991457111, 0.55393236329586, 0.55412302626203
1343, 0.45, 0.38349364905389, 0.55169107694857
1344, 0.089174682452695, 0.46875, 0.44738150239734
1345, 0.12532152934887, 0.70643076337393, 0.3069908691442
1346, 0.30996486696456, 0.54375, 0.45554405650598
1347, 0.33963608918705, 0.61696320615928, 0.3907437651642
1348, 0.68125, 0.65687531969156, 0.12052843683069
1349, 0.50472344914895, 0.35663875126969, 0.450871866137
1350, 0.69996170285288, 0.099971076107756, 0.39147846913745
1351, 0.3426484963967, 0.31744936207728, 0.55062638245512
1352, 0.41416107647414, 0.72269557636702, 0.39468495934567
1353, 0.42417630600495, 0.58509068332049, 0.44967464160303
1354, 0.14038849191032, 0.64607528854412, 0.46972016727536
1355, 0.75440363749041, 0.05, 0.47716106343512
1356, 0.45539215415947, 0.66740289115164, 0.3755832617705
1357, 0.45908415280368, 0.5800685771762, 0.73455643076742
1358, 0.74408695389355, 0.15745356155723, 0.52388330554488
1359, 0.10568737479839, 0.47929976375544, 0.70427213907584
1360, 0.36756785079228, 0.54450268591184, 0.37160810920339
1361, 0.41132035719235, 0.83125, 0.12685739748209
1362, 0.47241510112305, 0.80802501686605, 0.13754361856112
1363, 0.25471417372971, 0.56348583408088, 0.42204757179491
1364, 0.84065650170055, 0.80626148119531, 0.52097793926383
1365, 0.35625, 0.58965835490392, 0.55062195445639
1366, 0.23408867174166, 0.49853174893704, 0.61208897307407
1367, 0.45980038038991, 0.94950259187612, 0.25150956315852
1368, 0.36324893385139, 0.19183286206291, 0.27252644091456
1369, 0.39140925652395, 0.52558292429087, 0.45223339176722
1370, 0.59129809471617, 0.58125, 0.45524807213656
1371, 0.52467635291634, 0.42660673234513, 0.44754461046221
1372, 0.46396083296554, 0.91983200997565, 0.35284330092562
1373, 0.50544643364837, 0.39165273976243, 0.70785950607209
1374, 0.31875, 0.30870190528383, 0.45102441078697
1375, 0.26940239065358, 0.25756784745118, 0.45189659210361
1376, 0.25314023913337, 0.14587009033501, 0.47053340581818
1377, 0.41875, 0.66518902315625, 0.23393796886565
1378, 0.35169745545948, 0.50357277835439, 0.30324768255017
1379, 0.66583994509035, 0.52188794531319, 0.67282875986951
1380, 0.68125, 0.66664432472336, 0.24640777835482
1381, 0.14138187778763, 0.45363455548303, 0.16889134666025
1382, 0.75441474769616, 0.83125, 0.25642567253143
1383, 0.63809089276008, 0.58125, 0.54709990849174
1384, 0.62356754076452, 0.78693820057206, 0.24686955240315
1385, 0.57357830972763, 0.21836241043685, 0.34416276154733
1386, 0.23682761655977, 0.12148957080495, 0.30423469946826
1387, 0.69003513303544, 0.75625, 0.24734211236741
1388, 0.43326384083853, 0.68165689721074, 0.67483507128197
1389, 0.052990381056766, 0.4152948575604, 0.55162699143907
1390, 0.50476529099064, 0.42865396393244, 0.33475889289292
1391, 0.41665559836433, 0.52483149480726, 0.64867255829094
1392, 0.5795496292294, 0.11510603854567, 0.55657936294014
1393, 0.71362240475366, 0.085351111600328, 0.59835704012605
1394, 0.54962226770829, 0.80799652973056, 0.14606671146499
1395, 0.56059582518504, 0.71557992959603, 0.40949834109939
1396, 0.59816856422581, 0.75918650491037, 0.46514623798989
1397, 0.81212520951429, 0.81520439483781, 0.77548865501752
1398, 0.55123671719447, 0.60634531079161, 0.85848827717475
1399, 0.35923626643694, 0.83125, 0.24182776742637
1400, 0.74938478465657, 0.11958709766528, 0.44650329619098
1401, 0.76053806464412, 0.18238034198957, 0.36558961993096
1402, 0.83299842259472, 0.25087598457086, 0.27258136962966
1403, 0.86, 0.089321407963354, 0.55461201635231
1404, 0.67916613571388, 0.77401242042846, 0.14051549265019
1405, 0.62174450128174, 0.37617834349592, 0.64037064985755
1406, 0.69129809471617, 0.71875, 0.14694214694588
1407, 0.77234184896064, 0.71875, 0.16420586168618
1408, 0.31213930304231, 0.50066234856683, 0.71641594381432
1409, 0.56873543464672, 0.75412576747806, 0.14708780746803
1410, 0.49709340648355, 0.29202997448442, 0.32682877514767
1411, 0.28082019799435, 0.62785581178124, 0.31485164997949
1412, 0.86, 0.089321407963354, 0.44492135748823
1413, 0.49374788818081, 0.88402771306627, 0.24350916245369
1414, 0.26670202030041, 0.52456529738171, 0.54795174756224
1415, 0.49386770265966, 0.74132432439071, 0.42030054172671
1416, 0.56875, 0.67669263178316, 0.24124593918936
1417, 0.62258449924766, 0.93046511217205, 0.13365333992066
1418, 0.76643032106048, 0.43300222161802, 0.54299759893778
1419, 0.87885886721905, 0.50245864250589, 0.53449192275603
1420, 0.14822660905467, 0.24667756653245, 0.51491690153045
1421, 0.68898259050047, 0.7444677825557, 0.47625196101998
1422, 0.38100569058098, 0.69306639724711, 0.44742421448511
1423, 0.25443271243164, 0.31875, 0.52728722178459
1424, 0.39375, 0.6328508667065, 0.54349578609441
1425, 0.73366390494259, 0.71875, 0.24294458086275
1426, 0.12032728061972, 0.76681232445121, 0.61493003717664
1427, 0.04677915973922, 0.52788225975504, 0.54418400013192
1428, 0.31875, 0.6328508667065, 0.54349578609441
1429, 0.86, 0.16466866329382, 0.50184678627799
1430, 0.31462749957903, 0.46875, 0.54973219750774
1431, 0.69483403836466, 0.29638729839099, 0.33635601499711
1432, 0.61374345690338, 0.95665024620172, 0.24485757259885
1433, 0.64561785299488, 0.8772351375847, 0.14494287857308
1434, 0.41706850795012, 0.95839201642896, 0.24125506153227
1435, 0.86486800692971, 0.39061925409363, 0.39955198107389
1436, 0.42796654354441, 0.77965031472441, 0.55820648487037
1437, 0.63552620097993, 0.39375, 0.5458559647337
1438, 0.51979987514315, 0.76065089341963, 0.25051029603551
1439, 0.14264604822538, 0.57403930265057, 0.80946897445783
1440, 0.91969257604888, 0.083330119312398, 0.6631201611255
1441, 0.50625, 0.62032515629332, 0.45865447258715
1442, 0.6162998983984, 0.14358872760682, 0.84694597302636
1443, 0.6577917135618, 0.29210446982528, 0.85271671992839
1444, 0.50996790166209, 0.32478199660753, 0.84389405870191
1445, 0.94, 0.16030597001939, 0.49555388623226
1446, 0.75862844570202, 0.083333333333333, 0.54479526251677
1447, 0.25932453422125, 0.63996584877008, 0.47587495329924
1448, 0.31875, 0.64629113195895, 0.48487822199905
1449, 0.11375445287249, 0.27357218018991, 0.3636757334972
1450, 0.12492182905788, 0.20627363702183, 0.23649774058847
1451, 0.60551977971511, 0.84113830091533, 0.24158193243386
1452, 0.77196750902004, 0.24461002029326, 0.52848248304426
1453, 0.35743621624119, 0.46232527661552, 0.4582868762
1454, 0.487838963941, 0.57820375445645, 0.45951871494174
1455, 0.41932649104091, 0.77481501674138, 0.14377217886853
1456, 0.35438214700512, 0.4227648624153, 0.54699596330919
1457, 0.80954720922518, 0.05, 0.54614962865692
1458, 0.66112413721349, 0.31875, 0.51530887557669
1459, 0.51960885825493, 0.61615135944352, 0.39553162513117
1460, 0.53702206227076, 0.56316013074457, 0.36792706126848
1461, 0.42001579334996, 0.8880467025457, 0.14360068426601
1462, 0.47532364708366, 0.87339326765487, 0.14686262460848
1463, 0.40989636751928, 0.94375, 0.14736955338598
1464, 0.05015259886747, 0.34981725250787, 0.45361602435324
1465, 0.52214916603757, 0.37545847612425, 0.12703619870542
1466, 0.63066889913426, 0.46163290602388, 0.12789712073817
1467, 0.55604896075427, 0.31792612584954, 0.45183534133211
1468, 0.95330559310153, 0.080321291864846, 0.54226394714623
1469, 0.54337153096621, 0.6357295065022, 0.1981651392081
1470, 0.65138355366319, 0.64845154785278, 0.60679758564792
1471, 0.25877340303551, 0.7382429200056, 0.60600161071054
1472, 0.22643742230675, 0.88086005842886, 0.59678282699453
1473, 0.21088034891749, 0.87278957952972, 0.4682096003256
1474, 0.72868306423527, 0.79739047331844, 0.36626955594001
1475, 0.57244729674225, 0.75489273009602, 0.35268177124398
1476, 0.54378393013083, 0.39565939750333, 0.54723060461649
1477, 0.30996486696456, 0.54375, 0.54262864175475
1478, 0.27892023170523, 0.7698706296198, 0.45722041882846
1479, 0.45574566418365, 0.78213027716125, 0.30984292704492
1480, 0.95330559310153, 0.080321291864846, 0.45713718514168
1481, 0.43130427241804, 0.47095742704678, 0.4553240782711
1482, 0.80954720922518, 0.05, 0.45324965970015
1483, 0.78326160532173, 0.091194418761422, 0.68298785710626
1484, 0.11804126904794, 0.35625, 0.54281663022773
1485, 0.51479527899205, 0.27918368240644, 0.65170425986186
1486, 0.87612317275758, 0.54730661737264, 0.41186730923533
1487, 0.22868739397385, 0.67537988741056, 0.25761363360996
1488, 0.12657609252602, 0.67104474666223, 0.18922527853988
1489, 0.8438549486623, 0.63742262576492, 0.66078286971924
1490, 0.46935087512884, 0.60118485206063, 0.28776148128441
1491, 0.2, 0.5783950902891, 0.51564209001163
1492, 0.56870812794013, 0.81908809499754, 0.23728872976988
1493, 0.39868361935798, 0.42910382299212, 0.38554409993881
1494, 0.38214245141071, 0.38507813594451, 0.30151379662068
1495, 0.42063890709577, 0.81430896802987, 0.24204640025281
1496, 0.46875, 0.31082531754731, 0.45755356288808
1497, 0.8958035859717, 0.27586670892326, 0.40904607917834
1498, 0.17162383636472, 0.26476239318725, 0.83577859471761
1499, 0.76337676980047, 0.90625, 0.23432593899771
1500, 0.76239756765505, 0.90625, 0.15534295471778
1501, 0.84523642357251, 0.50668069702455, 0.77048655799509
1502, 0.45037773229171, 0.49200347026944, 0.54115143301957
1503, 0.33649454371986, 0.79375, 0.19149479590817
1504, 0.39389098601289, 0.35547015928001, 0.54584873375109
1505, 0.15369787988165, 0.67230612070427, 0.53595024506513
1506, 0.20550276569961, 0.41360326404303, 0.42940844883599
1507, 0.17084472106502, 0.4021569867678, 0.36400526756778
1508, 0.65659505527657, 0.46875, 0.49298712668691
1509, 0.49884301859996, 0.82429351736533, 0.32456556983798
1510, 0.49430739507072, 0.78607891112837, 0.49195658737275
1511, 0.37470052365315, 0.71875, 0.23968586221319
1512, 0.31875890496704, 0.69531331800235, 0.69748845582422
1513, 0.34192718605647, 0.37508576395823, 0.45969036937477
1514, 0.46912590422627, 0.53882984690019, 0.54687515849583
1515, 0.11399101941203, 0.43125, 0.54410566684866
1516, 0.35642005762768, 0.75045243898765, 0.50083141542505
1517, 0.21353706146138, 0.6532490173299, 0.70531731855841
1518, 0.58612818562632, 0.88561972679502, 0.63009172181927
1519, 0.41251242310051, 0.42680332802958, 0.54107863212384
1520, 0.50625, 0.62226880902827, 0.5421386486676
1521, 0.54739001203644, 0.54796844891522, 0.46064474664818
1522, 0.5292391222816, 0.50935910216364, 0.71031981778214
1523, 0.54375, 0.64382016997232, 0.51631052628802
1524, 0.54375, 0.26075758502732, 0.46005565788792
1525, 0.48751393316209, 0.4487322617959, 0.46046596047937
1526, 0.46875, 0.64382016997232, 0.51631052628802
1527, 0.09455418715374, 0.54375, 0.54645623871519
1528, 0.48042884854964, 0.57568031336957, 0.37872388783904
1529, 0.50645748742001, 0.45915256016095, 0.54160344830957
1530, 0.57998420665004, 0.4119532974543, 0.45696109221783
1531, 0.48614149334123, 0.85703895629996, 0.76354675889601
1532, 0.58867964280765, 0.46875, 0.5408895578661
1533, 0.28731956718863, 0.58929876729924, 0.36579940193454
1534, 0.45, 0.33377705327784, 0.5434968394154
1535, 0.3529348258184, 0.54663567036598, 0.46229977962261
1536, 0.21106730821693, 0.62016768548909, 0.55741868367657
1537, 0.38198696299887, 0.56263395364355, 0.25138257126035
1538, 0.06665645178211, 0.65477410443261, 0.40633263576933
1539, 0.31449118057609, 0.75086569560679, 0.31190021915103
1540, 0.25364443933969, 0.80767966819467, 0.34545154904014
1541, 0.6082668342914, 0.8851962320657, 0.23791365209426
1542, 0.61209479581799, 0.40237875292371, 0.39658865817341
1543, 0.18724033158861, 0.46385541615605, 0.52181336385453
1544, 0.25812706853436, 0.43125, 0.51253553792341
1545, 0.4232927838513, 0.12529760149233, 0.69573538618354
1546, 0.094877125408773, 0.31875, 0.53968417192621
1547, 0.7719985339555, 0.55421767555957, 0.50402348142517
1548, 0.31875, 0.2596591094136, 0.47116058982015
1549, 0.39375, 0.64687669013886, 0.4947077695475
1550, 0.91350823149733, 0.088267983149167, 0.32963420773167
1551, 0.63377290325248, 0.50625, 0.54155760172996
1552, 0.59707486477348, 0.76562993434208, 0.30211500854671
1553, 0.48903276436491, 0.51313887227105, 0.4619467424282
1554, 0.19283791139871, 0.41485274744412, 0.53303340990006
1555, 0.47617072162159, 0.37133158478514, 0.6220349711544
1556, 0.33709510402131, 0.24981277658669, 0.7122812053662
1557, 0.14979655092067, 0.37631330116801, 0.63639654161066
1558, 0.73348453820012, 0.65014323727967, 0.35576491873908
1559, 0.64449520729585, 0.929722247444, 0.36284111405685
1560, 0.41459534491152, 0.60133700085719, 0.39891057416759
1561, 0.30501377624462, 0.39366096331486, 0.37652949070209
1562, 0.69316396478813, 0.25049564776439, 0.61412928181999
1563, 0.55368580147, 0.10309450312774, 0.35202594988482
1564, 0.34366123023804, 0.14709254027553, 0.81818690585697
1565, 0.10671225249523, 0.59120369667131, 0.70289461718665
1566, 0.35625, 0.58965835490392, 0.46423339250284
1567, 0.79192610361238, 0.099855023035774, 0.31754252115361
1568, 0.45004291545364, 0.55672160574325, 0.46486203535054
1569, 0.39375, 0.61466726171351, 0.46257865976387
1570, 0.27888777701199, 0.43125, 0.46084406551674
1571, 0.36560997326946, 0.90901841732764, 0.33753319800344
1572, 0.57031063535659, 0.94100055641683, 0.32289332991373
1573, 0.27888777701199, 0.35625, 0.46084406551674
1574, 0.21766532994679, 0.29129387422751, 0.41543908297065
1575, 0.51704961343203, 0.73038822993946, 0.28905755707866
1576, 0.29350577289896, 0.55033818781563, 0.25873533163974
1577, 0.63748263115606, 0.29366545306672, 0.16466762596057
1578, 0.53124788837331, 0.90567981425057, 0.23551442426166
1579, 0.87593609849747, 0.044711193144936, 0.54129985229644
1580, 0.45625, 0.70974500526808, 0.23447409810992
1581, 0.55, 0.96622294672216, 0.14850047271133
1582, 0.39431487409757, 0.48124198141903, 0.53905483268131
1583, 0.27069407375167, 0.54375, 0.47404029566315
1584, 0.21981536339721, 0.34166538336503, 0.13817484504922
1585, 0.27575280124953, 0.90535842592216, 0.32083855280301
1586, 0.25533481796263, 0.37363585717033, 0.41052501164631
1587, 0.48058884026075, 0.63817486412698, 0.17345025314496
1588, 0.73515990095807, 0.56174557957729, 0.24887304976026
1589, 0.35426207743935, 0.52229876361661, 0.41769668188588
1590, 0.51115400228971, 0.3642323020427, 0.25387755448015
1591, 0.21814381894535, 0.53047918794249, 0.37999972520796
1592, 0.64375, 0.71034164509608, 0.15582043824912
1593, 1.4834366794042, 0.47861410239986, 0.48820541907646
1594, 1.2536565406424, 0.25556419942011, 0.6387977451593
1595, 1.2673746671349, 0.26854520472, 0.36743207666656
1596, 1.6541798625323, 0.30902175520685, 0.69448441874996
1597, 1.6926570794032, 0.30717452748644, 0.32373268580126
1598, 1.3030775744581, 0.64813908670589, 0.29650293346737
1599, 1.2979391060748, 0.60292552837211, 0.69904870434759
1600, 1.6804980869247, 0.68384592696129, 0.31783195927066
1601, 1.6803789580303, 0.6282252800972, 0.6917126668916
1602, 1.1473702568494, 0.14747467442427, 0.31276224610153
1603, 1.1953020682796, 0.43320537233325, 0.54883248066449
1604, 1.1304531075558, 0.16461079355209, 0.61895947152546
1605, 1.405083571216, 0.19524691098593, 0.51051612744764
1606, 1.1386169981183, 0.27170259681068, 0.51535010662584
1607, 1.2461303578515, 0.15688634642685, 0.51261821043281
1608, 1.1867077438444, 0.18073040344857, 0.79668082258524
1609, 1.4256063050803, 0.39378699174076, 0.76324188417538
1610, 1.4806644074817, 0.22528222367963, 0.29657662370783
1611, 1.2106099268881, 0.39732102232289, 0.79860546395856
1612, 1.4781395156234, 0.74076374785177, 0.5526512863117
1613, 1.0912647046038, 0.091862237416495, 0.38091306982351
1614, 1.2261889514483, 0.44272999726946, 0.21869848393837
1615, 1.236593996098, 0.7670086636493, 0.5158425198516
1616, 1.7539994712828, 0.45997424137489, 0.51671467419533
1617, 1.4696294799043, 0.46486141719405, 0.24330021180547
1618, 1.0852524578658, 0.084275047865429, 0.6154322363725
1619, 1.37592428209, 0.15250299562227, 0.68474221939519
1620, 1.6207411137432, 0.21173453618253, 0.50412173114678
1621, 1.3989957520439, 0.79182482064416, 0.79181797931654
1622, 1.763810836327, 0.77452374126928, 0.52242585546474
1623, 1.1759610320119, 0.088757637762566, 0.44199056390196
1624, 1.4856353799291, 0.77810445346217, 0.22834986394121
1625, 1.1058649955807, 0.19978479964831, 0.42013536290711
1626, 1.7772626326192, 0.496904111389, 0.22289564162364
1627, 1.1149870602787, 0.11565097036437, 0.72601590398083
1628, 1.247932901621, 0.1609678398563, 0.16858219669739
1629, 1.1011872702299, 0.059410603292202, 0.54980967038422
1630, 1.7900779669619, 0.45934481163375, 0.78524800607805
1631, 1.0359182022272, 0.035393771156462, 0.46439591752274
1632, 1.778207189937, 0.79935119884921, 0.79454452525173
1633, 1.8085342670838, 0.19017920073366, 0.60512862316416
1634, 1.1765463913526, 0.56591390228436, 0.41314089586634
1635, 1.1307221761759, 0.27658225307658, 0.7049168880842
1636, 1.5416768633183, 0.17789359285069, 0.77855212644639
1637, 1.4985114150968, 0.59607699204374, 0.81224741668815
1638, 1.2527525455266, 0.12252114790999, 0.64684571159731
1639, 1.1869533000346, 0.80410302013582, 0.21409517648336
1640, 1.8039619496754, 0.22222502549792, 0.81163432829847
1641, 1.0974645056129, 0.059072686999719, 0.44536914279194
1642, 1.7857310207853, 0.18120877376295, 0.19077038617781
1643, 1.7772709891792, 0.81351823459793, 0.19006073376767
1644, 1.7848620353614, 0.16925021167558, 0.41729693623145
1645, 1.086595066753, 0.18965785828642, 0.53618534728532
1646, 1.1594204699959, 0.38226383110833, 0.40106651559795
1647, 1.2900116879086, 0.12812544782657, 0.36666892922882
1648, 1.0876571871606, 0.086295067317959, 0.25523510615273
******* E L E M E N T S *************
*ELEMENT, type=T3D2, ELSET=Line25
35, 1, 35
36, 35, 36
37, 36, 37
38, 37, 38
39, 38, 39
40, 39, 40
41, 40, 41
42, 41, 2
*ELEMENT, type=T3D2, ELSET=Line26
43, 2, 42
44, 42, 43
45, 43, 44
46, 44, 45
47, 45, 46
48, 46, 47
49, 47, 48
50, 48, 3
*ELEMENT, type=T3D2, ELSET=Line27
51, 3, 49
52, 49, 50
53, 50, 51
54, 51, 52
55, 52, 53
56, 53, 54
57, 54, 55
58, 55, 4
*ELEMENT, type=T3D2, ELSET=Line28
59, 4, 56
60, 56, 57
61, 57, 58
62, 58, 59
63, 59, 60
64, 60, 61
65, 61, 62
66, 62, 1
*ELEMENT, type=T3D2, ELSET=Line37
67, 5, 63
68, 63, 64
69, 64, 65
70, 65, 66
71, 66, 67
72, 67, 68
73, 68, 69
74, 69, 6
*ELEMENT, type=T3D2, ELSET=Line38
75, 6, 70
76, 70, 71
77, 71, 72
78, 72, 73
79, 73, 74
80, 74, 75
81, 75, 76
82, 76, 7
*ELEMENT, type=T3D2, ELSET=Line39
83, 7, 77
84, 77, 78
85, 78, 79
86, 79, 80
87, 80, 81
88, 81, 82
89, 82, 83
90, 83, 8
*ELEMENT, type=T3D2, ELSET=Line40
91, 8, 84
92, 84, 85
93, 85, 86
94, 86, 87
95, 87, 88
96, 88, 89
97, 89, 90
98, 90, 5
*ELEMENT, type=T3D2, ELSET=Line41
99, 9, 91
100, 91, 92
101, 92, 93
102, 93, 94
103, 94, 95
104, 95, 96
105, 96, 97
106, 97, 10
*ELEMENT, type=T3D2, ELSET=Line42
107, 11, 98
108, 98, 99
109, 99, 100
110, 100, 101
111, 101, 9
*ELEMENT, type=T3D2, ELSET=Line43
112, 11, 102
113, 102, 103
114, 103, 104
115, 104, 105
116, 105, 106
117, 106, 107
118, 107, 108
119, 108, 12
*ELEMENT, type=T3D2, ELSET=Line44
120, 10, 109
121, 109, 110
122, 110, 111
123, 111, 112
124, 112, 12
*ELEMENT, type=T3D2, ELSET=Line45
125, 13, 113
126, 113, 114
127, 114, 11
*ELEMENT, type=T3D2, ELSET=Line46
128, 14, 115
129, 115, 116
130, 116, 117
131, 117, 118
132, 118, 119
133, 119, 120
134, 120, 121
135, 121, 13
*ELEMENT, type=T3D2, ELSET=Line47
136, 12, 122
137, 122, 123
138, 123, 14
*ELEMENT, type=T3D2, ELSET=Line48
139, 15, 124
140, 124, 125
141, 125, 126
142, 126, 127
143, 127, 16
*ELEMENT, type=T3D2, ELSET=Line49
144, 15, 128
145, 128, 129
146, 129, 130
147, 130, 131
148, 131, 17
*ELEMENT, type=T3D2, ELSET=Line50
149, 17, 132
150, 132, 133
151, 133, 18
*ELEMENT, type=T3D2, ELSET=Line51
152, 19, 134
153, 134, 135
154, 135, 136
155, 136, 137
156, 137, 18
*ELEMENT, type=T3D2, ELSET=Line52
157, 16, 138
158, 138, 139
159, 139, 140
160, 140, 141
161, 141, 142
162, 142, 143
163, 143, 144
164, 144, 19
*ELEMENT, type=T3D2, ELSET=Line53
165, 20, 145
166, 145, 146
167, 146, 15
*ELEMENT, type=T3D2, ELSET=Line54
168, 21, 147
169, 147, 148
170, 148, 149
171, 149, 150
172, 150, 20
*ELEMENT, type=T3D2, ELSET=Line55
173, 21, 151
174, 151, 152
175, 152, 17
*ELEMENT, type=T3D2, ELSET=Line56
176, 22, 21
*ELEMENT, type=T3D2, ELSET=Line57
177, 18, 22
*ELEMENT, type=T3D2, ELSET=Line58
178, 24, 153
179, 153, 154
180, 154, 155
181, 155, 156
182, 156, 23
*ELEMENT, type=T3D2, ELSET=Line59
183, 23, 157
184, 157, 158
185, 158, 159
186, 159, 160
187, 160, 25
*ELEMENT, type=T3D2, ELSET=Line60
188, 24, 161
189, 161, 162
190, 162, 163
191, 163, 164
192, 164, 26
*ELEMENT, type=T3D2, ELSET=Line61
193, 26, 165
194, 165, 166
195, 166, 167
196, 167, 168
197, 168, 25
*ELEMENT, type=T3D2, ELSET=Line62
198, 24, 169
199, 169, 170
200, 170, 171
201, 171, 172
202, 172, 27
*ELEMENT, type=T3D2, ELSET=Line63
203, 27, 173
204, 173, 174
205, 174, 175
206, 175, 176
207, 176, 177
208, 177, 17
*ELEMENT, type=T3D2, ELSET=Line64
209, 23, 178
210, 178, 179
211, 179, 180
212, 180, 181
213, 181, 28
*ELEMENT, type=T3D2, ELSET=Line65
214, 17, 182
215, 182, 183
216, 183, 184
217, 184, 185
218, 185, 186
219, 186, 28
*ELEMENT, type=T3D2, ELSET=Line66
220, 25, 187
221, 187, 188
222, 188, 189
223, 189, 190
224, 190, 29
*ELEMENT, type=T3D2, ELSET=Line67
225, 28, 191
226, 191, 192
227, 192, 193
228, 193, 194
229, 194, 29
*ELEMENT, type=T3D2, ELSET=Line68
230, 26, 195
231, 195, 196
232, 196, 197
233, 197, 198
234, 198, 30
*ELEMENT, type=T3D2, ELSET=Line69
235, 27, 199
236, 199, 200
237, 200, 201
238, 201, 202
239, 202, 30
*ELEMENT, type=T3D2, ELSET=Line70
240, 30, 203
241, 203, 204
242, 204, 205
243, 205, 206
244, 206, 29
*ELEMENT, type=T3D2, ELSET=Line71
245, 27, 207
246, 207, 208
247, 208, 209
248, 209, 210
249, 210, 31
*ELEMENT, type=T3D2, ELSET=Line72
250, 31, 211
251, 211, 212
252, 212, 213
253, 213, 214
254, 214, 32
*ELEMENT, type=T3D2, ELSET=Line73
255, 28, 215
256, 215, 216
257, 216, 217
258, 217, 218
259, 218, 32
*ELEMENT, type=T3D2, ELSET=Line74
260, 30, 219
261, 219, 220
262, 220, 221
263, 221, 222
264, 222, 33
*ELEMENT, type=T3D2, ELSET=Line75
265, 31, 223
266, 223, 224
267, 224, 225
268, 225, 226
269, 226, 33
*ELEMENT, type=T3D2, ELSET=Line76
270, 33, 227
271, 227, 228
272, 228, 229
273, 229, 230
274, 230, 34
*ELEMENT, type=T3D2, ELSET=Line77
275, 29, 231
276, 231, 232
277, 232, 233
278, 233, 234
279, 234, 34
*ELEMENT, type=T3D2, ELSET=Line78
280, 32, 235
281, 235, 236
282, 236, 237
283, 237, 238
284, 238, 34
*ELEMENT, type=CPS3, ELSET=Surface17
285, 35, 297, 1
286, 1, 297, 62
287, 2, 298, 41
288, 42, 298, 2
289, 3, 296, 48
290, 49, 296, 3
291, 4, 299, 55
292, 56, 299, 4
293, 36, 289, 35
294, 289, 297, 35
295, 37, 246, 36
296, 246, 289, 36
297, 38, 283, 37
298, 37, 283, 246
299, 39, 241, 38
300, 241, 283, 38
301, 40, 251, 39
302, 39, 251, 241
303, 41, 247, 40
304, 247, 251, 40
305, 41, 298, 247
306, 43, 286, 42
307, 286, 298, 42
308, 44, 244, 43
309, 244, 286, 43
310, 45, 284, 44
311, 44, 284, 244
312, 46, 239, 45
313, 239, 284, 45
314, 47, 278, 46
315, 46, 278, 239
316, 48, 250, 47
317, 250, 278, 47
318, 48, 296, 250
319, 50, 288, 49
320, 288, 296, 49
321, 51, 243, 50
322, 243, 288, 50
323, 52, 277, 51
324, 51, 277, 243
325, 53, 242, 52
326, 242, 277, 52
327, 54, 279, 53
328, 53, 279, 242
329, 55, 248, 54
330, 248, 279, 54
331, 55, 299, 248
332, 57, 287, 56
333, 287, 299, 56
334, 58, 245, 57
335, 245, 287, 57
336, 59, 293, 58
337, 58, 293, 245
338, 60, 240, 59
339, 240, 293, 59
340, 61, 295, 60
341, 60, 295, 240
342, 62, 249, 61
343, 249, 295, 61
344, 62, 297, 249
345, 239, 278, 268
346, 268, 292, 239
347, 239, 292, 284
348, 240, 270, 269
349, 269, 293, 240
350, 240, 271, 270
351, 240, 295, 271
352, 251, 252, 241
353, 252, 253, 241
354, 253, 283, 241
355, 242, 302, 277
356, 279, 300, 242
357, 300, 302, 242
358, 277, 301, 243
359, 243, 304, 288
360, 301, 304, 243
361, 274, 286, 244
362, 244, 294, 274
363, 284, 294, 244
364, 245, 269, 265
365, 265, 291, 245
366, 245, 293, 269
367, 245, 291, 287
368, 246, 281, 273
369, 273, 289, 246
370, 246, 283, 281
371, 247, 274, 251
372, 247, 286, 274
373, 247, 298, 286
374, 248, 303, 279
375, 287, 291, 248
376, 248, 299, 287
377, 291, 303, 248
378, 249, 273, 271
379, 271, 295, 249
380, 249, 289, 273
381, 249, 297, 289
382, 250, 290, 278
383, 250, 296, 288
384, 288, 304, 250
385, 250, 304, 290
386, 251, 274, 252
387, 252, 254, 253
388, 252, 275, 254
389, 274, 275, 252
390, 254, 255, 253
391, 255, 281, 253
392, 281, 283, 253
393, 254, 256, 255
394, 254, 257, 256
395, 254, 275, 257
396, 256, 280, 255
397, 255, 280, 272
398, 272, 281, 255
399, 257, 258, 256
400, 258, 259, 256
401, 259, 280, 256
402, 257, 282, 258
403, 275, 276, 257
404, 276, 282, 257
405, 258, 260, 259
406, 258, 261, 260
407, 258, 282, 261
408, 260, 262, 259
409, 262, 263, 259
410, 263, 280, 259
411, 261, 264, 260
412, 260, 285, 262
413, 264, 285, 260
414, 261, 267, 264
415, 261, 268, 267
416, 261, 282, 268
417, 262, 265, 263
418, 262, 266, 265
419, 262, 285, 266
420, 265, 269, 263
421, 269, 270, 263
422, 270, 280, 263
423, 267, 301, 264
424, 264, 302, 285
425, 301, 302, 264
426, 266, 291, 265
427, 285, 300, 266
428, 266, 303, 291
429, 300, 303, 266
430, 268, 290, 267
431, 290, 304, 267
432, 267, 304, 301
433, 278, 290, 268
434, 282, 292, 268
435, 271, 272, 270
436, 272, 280, 270
437, 271, 273, 272
438, 273, 281, 272
439, 274, 294, 275
440, 275, 294, 276
441, 276, 292, 282
442, 284, 292, 276
443, 276, 294, 284
444, 277, 302, 301
445, 279, 303, 300
446, 285, 302, 300
*ELEMENT, type=CPS3, ELSET=Surface20
447, 63, 363, 5
448, 5, 363, 90
449, 6, 365, 69
450, 70, 365, 6
451, 7, 362, 76
452, 77, 362, 7
453, 8, 364, 83
454, 84, 364, 8
455, 64, 352, 63
456, 352, 363, 63
457, 65, 310, 64
458, 310, 352, 64
459, 66, 345, 65
460, 65, 345, 310
461, 67, 308, 66
462, 308, 345, 66
463, 68, 341, 67
464, 67, 341, 308
465, 69, 315, 68
466, 315, 341, 68
467, 69, 365, 315
468, 71, 353, 70
469, 353, 365, 70
470, 72, 312, 71
471, 312, 353, 71
472, 73, 359, 72
473, 72, 359, 312
474, 74, 305, 73
475, 305, 359, 73
476, 75, 361, 74
477, 74, 361, 305
478, 76, 316, 75
479, 316, 361, 75
480, 76, 362, 316
481, 78, 355, 77
482, 355, 362, 77
483, 79, 311, 78
484, 311, 355, 78
485, 80, 350, 79
486, 79, 350, 311
487, 81, 306, 80
488, 306, 350, 80
489, 82, 317, 81
490, 81, 317, 306
491, 83, 313, 82
492, 313, 317, 82
493, 83, 364, 313
494, 85, 354, 84
495, 354, 364, 84
496, 86, 309, 85
497, 309, 354, 85
498, 87, 351, 86
499, 86, 351, 309
500, 88, 307, 87
501, 307, 351, 87
502, 89, 344, 88
503, 88, 344, 307
504, 90, 314, 89
505, 314, 344, 89
506, 90, 363, 314
507, 305, 336, 335
508, 335, 359, 305
509, 305, 337, 336
510, 305, 361, 337
511, 317, 318, 306
512, 318, 319, 306
513, 319, 350, 306
514, 307, 344, 334
515, 334, 358, 307
516, 307, 358, 351
517, 341, 366, 308
518, 308, 367, 345
519, 366, 367, 308
520, 340, 354, 309
521, 309, 360, 340
522, 351, 360, 309
523, 345, 368, 310
524, 310, 370, 352
525, 368, 370, 310
526, 311, 348, 339
527, 339, 355, 311
528, 311, 350, 348
529, 312, 335, 331
530, 331, 357, 312
531, 312, 359, 335
532, 312, 357, 353
533, 313, 340, 317
534, 313, 354, 340
535, 313, 364, 354
536, 314, 356, 344
537, 314, 363, 352
538, 352, 370, 314
539, 314, 370, 356
540, 315, 369, 341
541, 353, 357, 315
542, 315, 365, 353
543, 357, 369, 315
544, 316, 339, 337
545, 337, 361, 316
546, 316, 355, 339
547, 316, 362, 355
548, 317, 340, 318
549, 318, 320, 319
550, 318, 342, 320
551, 340, 342, 318
552, 320, 321, 319
553, 321, 348, 319
554, 348, 350, 319
555, 320, 322, 321
556, 320, 323, 322
557, 320, 342, 323
558, 322, 347, 321
559, 321, 347, 338
560, 338, 348, 321
561, 323, 324, 322
562, 324, 325, 322
563, 325, 347, 322
564, 323, 349, 324
565, 342, 343, 323
566, 343, 349, 323
567, 324, 326, 325
568, 324, 327, 326
569, 324, 349, 327
570, 326, 328, 325
571, 328, 329, 325
572, 329, 347, 325
573, 327, 330, 326
574, 326, 346, 328
575, 330, 346, 326
576, 327, 333, 330
577, 327, 334, 333
578, 327, 349, 334
579, 328, 331, 329
580, 328, 332, 331
581, 328, 346, 332
582, 331, 335, 329
583, 335, 336, 329
584, 336, 347, 329
585, 333, 368, 330
586, 330, 367, 346
587, 330, 368, 367
588, 332, 357, 331
589, 346, 366, 332
590, 332, 369, 357
591, 366, 369, 332
592, 334, 356, 333
593, 356, 370, 333
594, 333, 370, 368
595, 344, 356, 334
596, 349, 358, 334
597, 337, 338, 336
598, 338, 347, 336
599, 337, 339, 338
600, 339, 348, 338
601, 340, 360, 342
602, 341, 369, 366
603, 342, 360, 343
604, 343, 358, 349
605, 351, 358, 343
606, 343, 360, 351
607, 367, 368, 345
608, 346, 367, 366
*ELEMENT, type=CPS3, ELSET=Surface21
609, 389, 402, 392
610, 392, 398, 389
611, 371, 387, 384
612, 371, 384, 383
613, 376, 388, 387
614, 392, 402, 378
615, 390, 399, 372
616, 372, 400, 390
617, 387, 388, 386
618, 384, 387, 386
619, 376, 390, 388
620, 397, 408, 391
621, 387, 403, 376
622, 374, 398, 392
623, 385, 408, 397
624, 373, 397, 391
625, 388, 389, 386
626, 386, 398, 385
627, 383, 396, 371
628, 375, 380, 379
629, 375, 381, 380
630, 381, 382, 380
631, 375, 379, 99
632, 100, 375, 99
633, 381, 383, 382
634, 99, 379, 98
635, 111, 372, 110
636, 375, 393, 381
637, 383, 384, 382
638, 384, 385, 382
639, 103, 373, 104
640, 105, 374, 106
641, 104, 391, 105
642, 105, 391, 374
643, 94, 371, 93
644, 373, 391, 104
645, 393, 409, 381
646, 384, 386, 385
647, 106, 392, 107
648, 374, 392, 106
649, 398, 408, 385
650, 92, 377, 91
651, 96, 376, 95
652, 107, 378, 108
653, 101, 393, 100
654, 107, 392, 378
655, 371, 403, 387
656, 112, 394, 111
657, 102, 395, 103
658, 377, 409, 393
659, 378, 402, 394
660, 100, 393, 375
661, 372, 399, 110
662, 371, 396, 93
663, 382, 397, 380
664, 103, 395, 373
665, 390, 401, 399
666, 111, 394, 372
667, 376, 401, 390
668, 92, 396, 377
669, 394, 402, 372
670, 380, 410, 379
671, 390, 400, 388
672, 96, 401, 376
673, 98, 404, 11
674, 94, 403, 371
675, 11, 404, 102
676, 388, 400, 389
677, 372, 402, 400
678, 376, 403, 95
679, 9, 405, 101
680, 12, 406, 112
681, 401, 407, 399
682, 379, 410, 395
683, 93, 396, 92
684, 109, 407, 10
685, 91, 405, 9
686, 108, 406, 12
687, 385, 397, 382
688, 10, 407, 97
689, 389, 398, 386
690, 110, 399, 109
691, 97, 401, 96
692, 101, 405, 393
693, 112, 406, 394
694, 393, 405, 377
695, 379, 404, 98
696, 394, 406, 378
697, 95, 403, 94
698, 397, 410, 380
699, 400, 402, 389
700, 391, 408, 374
701, 396, 409, 377
702, 381, 409, 383
703, 102, 404, 395
704, 377, 405, 91
705, 378, 406, 108
706, 395, 404, 379
707, 395, 410, 373
708, 383, 409, 396
709, 399, 407, 109
710, 373, 410, 397
711, 374, 408, 398
712, 97, 407, 401
*ELEMENT, type=CPS3, ELSET=Surface22
713, 102, 426, 11
714, 11, 426, 114
715, 12, 427, 108
716, 122, 427, 12
717, 113, 425, 13
718, 13, 425, 121
719, 115, 428, 14
720, 14, 428, 123
721, 103, 421, 102
722, 421, 426, 102
723, 104, 414, 103
724, 414, 421, 103
725, 105, 418, 104
726, 104, 418, 414
727, 106, 416, 105
728, 416, 418, 105
729, 107, 417, 106
730, 106, 417, 416
731, 108, 424, 107
732, 107, 424, 417
733, 108, 427, 424
734, 114, 412, 113
735, 412, 425, 113
736, 114, 426, 412
737, 116, 422, 115
738, 422, 428, 115
739, 117, 413, 116
740, 413, 422, 116
741, 118, 419, 117
742, 117, 419, 413
743, 119, 415, 118
744, 415, 419, 118
745, 120, 420, 119
746, 119, 420, 415
747, 121, 423, 120
748, 120, 423, 420
749, 121, 425, 423
750, 123, 411, 122
751, 411, 427, 122
752, 123, 428, 411
753, 422, 424, 411
754, 411, 428, 422
755, 424, 427, 411
756, 421, 423, 412
757, 412, 426, 421
758, 423, 425, 412
759, 416, 417, 413
760, 413, 419, 416
761, 417, 424, 413
762, 413, 424, 422
763, 414, 418, 415
764, 415, 420, 414
765, 420, 423, 414
766, 414, 423, 421
767, 415, 418, 416
768, 416, 419, 415
*ELEMENT, type=CPS3, ELSET=Surface23
769, 455, 461, 431
770, 431, 453, 449
771, 431, 461, 453
772, 449, 453, 442
773, 433, 459, 443
774, 458, 460, 446
775, 432, 449, 442
776, 454, 459, 433
777, 442, 457, 432
778, 434, 460, 458
779, 451, 460, 456
780, 456, 460, 434
781, 447, 458, 446
782, 131, 429, 17
783, 443, 461, 433
784, 445, 460, 451
785, 128, 447, 129
786, 430, 437, 130
787, 438, 444, 441
788, 430, 444, 437
789, 437, 444, 438
790, 451, 466, 445
791, 444, 446, 445
792, 17, 452, 132
793, 448, 461, 455
794, 451, 456, 436
795, 129, 447, 430
796, 444, 445, 441
797, 429, 452, 17
798, 437, 438, 429
799, 433, 448, 135
800, 136, 433, 135
801, 438, 439, 429
802, 135, 448, 134
803, 129, 430, 130
804, 126, 434, 125
805, 130, 437, 131
806, 137, 454, 136
807, 143, 431, 142
808, 438, 440, 439
809, 132, 452, 435
810, 431, 449, 142
811, 430, 446, 444
812, 142, 449, 141
813, 441, 442, 440
814, 141, 432, 140
815, 438, 441, 440
816, 442, 453, 440
817, 141, 449, 432
818, 140, 450, 139
819, 430, 447, 446
820, 139, 436, 138
821, 440, 443, 439
822, 432, 450, 140
823, 131, 437, 429
824, 127, 456, 126
825, 440, 453, 443
826, 450, 451, 436
827, 139, 450, 436
828, 136, 454, 433
829, 144, 455, 143
830, 446, 460, 445
831, 125, 458, 124
832, 132, 435, 133
833, 143, 455, 431
834, 445, 457, 441
835, 439, 452, 429
836, 441, 457, 442
837, 126, 456, 434
838, 15, 462, 128
839, 124, 462, 15
840, 435, 459, 454
841, 434, 458, 125
842, 443, 459, 439
843, 454, 465, 435
844, 433, 461, 448
845, 134, 463, 19
846, 18, 465, 137
847, 19, 463, 144
848, 137, 465, 454
849, 452, 459, 435
850, 16, 464, 127
851, 138, 464, 16
852, 432, 466, 450
853, 457, 466, 432
854, 128, 462, 447
855, 133, 465, 18
856, 439, 459, 452
857, 453, 461, 443
858, 445, 466, 457
859, 127, 464, 456
860, 448, 463, 134
861, 456, 464, 436
862, 458, 462, 124
863, 144, 463, 455
864, 436, 464, 138
865, 450, 466, 451
866, 455, 463, 448
867, 447, 462, 458
868, 435, 465, 133
*ELEMENT, type=CPS3, ELSET=Surface24
869, 128, 477, 15
870, 15, 477, 146
871, 17, 476, 131
872, 152, 476, 17
873, 145, 478, 20
874, 20, 478, 150
875, 147, 475, 21
876, 21, 475, 151
877, 129, 473, 128
878, 473, 477, 128
879, 130, 474, 129
880, 129, 474, 473
881, 131, 472, 130
882, 472, 474, 130
883, 131, 476, 472
884, 146, 468, 145
885, 468, 478, 145
886, 146, 477, 468
887, 148, 470, 147
888, 470, 475, 147
889, 149, 469, 148
890, 469, 470, 148
891, 150, 471, 149
892, 149, 471, 469
893, 150, 478, 471
894, 151, 467, 152
895, 151, 475, 467
896, 467, 476, 152
897, 470, 472, 467
898, 467, 475, 470
899, 472, 476, 467
900, 468, 473, 471
901, 471, 478, 468
902, 468, 477, 473
903, 469, 474, 470
904, 471, 474, 469
905, 470, 474, 472
906, 473, 474, 471
*ELEMENT, type=CPS3, ELSET=Surface25
907, 132, 482, 17
908, 17, 482, 152
909, 22, 481, 18
910, 18, 479, 133
911, 18, 481, 479
912, 21, 481, 22
913, 151, 480, 21
914, 480, 481, 21
915, 133, 479, 132
916, 479, 482, 132
917, 152, 480, 151
918, 152, 482, 480
919, 479, 481, 480
920, 480, 482, 479
*ELEMENT, type=CPS3, ELSET=Surface26
921, 11, 102, 522
922, 102, 11, 523
923, 11, 522, 525
924, 523, 11, 524
925, 524, 11, 525
926, 108, 12, 529
927, 12, 108, 546
928, 12, 526, 544
929, 526, 12, 547
930, 529, 12, 544
931, 12, 546, 547
932, 156, 23, 538
933, 23, 157, 538
934, 24, 153, 539
935, 161, 24, 539
936, 160, 25, 541
937, 25, 168, 541
938, 26, 164, 540
939, 165, 26, 540
940, 103, 102, 553
941, 102, 103, 554
942, 522, 102, 554
943, 102, 523, 553
944, 104, 103, 534
945, 103, 104, 535
946, 534, 103, 553
947, 103, 535, 554
948, 105, 104, 533
949, 104, 105, 536
950, 533, 104, 534
951, 535, 104, 536
952, 106, 105, 532
953, 105, 106, 537
954, 532, 105, 533
955, 536, 105, 537
956, 106, 107, 530
957, 107, 106, 531
958, 106, 530, 537
959, 531, 106, 532
960, 108, 107, 527
961, 107, 108, 528
962, 527, 107, 531
963, 107, 528, 530
964, 108, 527, 546
965, 528, 108, 529
966, 153, 154, 498
967, 153, 498, 539
968, 154, 155, 496
969, 154, 496, 498
970, 155, 156, 497
971, 496, 155, 497
972, 497, 156, 538
973, 157, 158, 485
974, 157, 485, 538
975, 158, 159, 488
976, 485, 158, 548
977, 158, 488, 548
978, 159, 160, 483
979, 159, 483, 561
980, 488, 159, 561
981, 483, 160, 541
982, 162, 161, 486
983, 486, 161, 539
984, 163, 162, 490
985, 162, 486, 549
986, 490, 162, 549
987, 164, 163, 484
988, 484, 163, 560
989, 163, 490, 560
990, 164, 484, 540
991, 166, 165, 492
992, 492, 165, 540
993, 167, 166, 562
994, 487, 166, 492
995, 166, 487, 562
996, 168, 167, 495
997, 495, 167, 562
998, 168, 495, 541
999, 483, 541, 555
1000, 483, 555, 561
1001, 540, 484, 545
1002, 545, 484, 560
1003, 485, 501, 538
1004, 501, 485, 559
1005, 485, 548, 559
1006, 511, 486, 539
1007, 486, 511, 558
1008, 549, 486, 558
1009, 487, 492, 557
1010, 487, 494, 551
1011, 494, 487, 557
1012, 487, 551, 562
1013, 521, 488, 542
1014, 488, 521, 548
1015, 542, 488, 561
1016, 507, 489, 509
1017, 489, 507, 542
1018, 509, 489, 510
1019, 510, 489, 555
1020, 489, 542, 561
1021, 555, 489, 561
1022, 490, 520, 543
1023, 520, 490, 549
1024, 490, 543, 560
1025, 491, 517, 519
1026, 517, 491, 543
1027, 491, 519, 550
1028, 543, 491, 560
1029, 545, 491, 550
1030, 491, 545, 560
1031, 493, 492, 545
1032, 492, 493, 557
1033, 492, 540, 545
1034, 493, 545, 550
1035, 493, 550, 556
1036, 493, 556, 557
1037, 494, 525, 552
1038, 525, 494, 556
1039, 551, 494, 552
1040, 556, 494, 557
1041, 541, 495, 555
1042, 495, 551, 555
1043, 551, 495, 562
1044, 496, 497, 500
1045, 498, 496, 499
1046, 499, 496, 526
1047, 496, 500, 526
1048, 500, 497, 501
1049, 501, 497, 538
1050, 498, 499, 511
1051, 498, 511, 539
1052, 511, 499, 512
1053, 512, 499, 547
1054, 499, 526, 547
1055, 500, 501, 502
1056, 500, 502, 544
1057, 526, 500, 544
1058, 502, 501, 503
1059, 503, 501, 559
1060, 502, 503, 504
1061, 502, 504, 528
1062, 502, 528, 529
1063, 502, 529, 544
1064, 504, 503, 505
1065, 505, 503, 521
1066, 521, 503, 559
1067, 504, 505, 506
1068, 504, 506, 537
1069, 528, 504, 530
1070, 530, 504, 537
1071, 506, 505, 507
1072, 507, 505, 542
1073, 505, 521, 542
1074, 506, 507, 508
1075, 506, 508, 535
1076, 506, 535, 536
1077, 506, 536, 537
1078, 508, 507, 509
1079, 508, 509, 522
1080, 508, 522, 554
1081, 535, 508, 554
1082, 509, 510, 552
1083, 522, 509, 525
1084, 525, 509, 552
1085, 510, 551, 552
1086, 551, 510, 555
1087, 511, 512, 513
1088, 511, 513, 558
1089, 513, 512, 514
1090, 514, 512, 527
1091, 527, 512, 546
1092, 546, 512, 547
1093, 513, 514, 515
1094, 513, 515, 520
1095, 513, 520, 558
1096, 515, 514, 516
1097, 516, 514, 532
1098, 514, 527, 531
1099, 514, 531, 532
1100, 515, 516, 517
1101, 515, 517, 543
1102, 520, 515, 543
1103, 517, 516, 518
1104, 518, 516, 534
1105, 516, 532, 533
1106, 516, 533, 534
1107, 517, 518, 519
1108, 519, 518, 523
1109, 523, 518, 553
1110, 518, 534, 553
1111, 519, 523, 524
1112, 519, 524, 556
1113, 550, 519, 556
1114, 520, 549, 558
1115, 548, 521, 559
1116, 524, 525, 556
*ELEMENT, type=CPS3, ELSET=Surface27
1117, 15, 128, 614
1118, 128, 15, 628
1119, 15, 604, 628
1120, 604, 15, 633
1121, 15, 614, 620
1122, 15, 620, 621
1123, 15, 621, 633
1124, 17, 131, 631
1125, 131, 17, 635
1126, 177, 17, 631
1127, 17, 182, 635
1128, 23, 156, 626
1129, 178, 23, 626
1130, 153, 24, 636
1131, 24, 169, 636
1132, 172, 27, 617
1133, 27, 173, 617
1134, 28, 181, 606
1135, 186, 28, 606
1136, 129, 128, 612
1137, 128, 129, 613
1138, 612, 128, 628
1139, 128, 613, 614
1140, 129, 130, 615
1141, 130, 129, 641
1142, 129, 612, 641
1143, 613, 129, 615
1144, 131, 130, 611
1145, 130, 131, 616
1146, 611, 130, 641
1147, 615, 130, 616
1148, 131, 611, 631
1149, 616, 131, 635
1150, 154, 153, 627
1151, 153, 603, 627
1152, 603, 153, 636
1153, 155, 154, 565
1154, 565, 154, 627
1155, 156, 155, 605
1156, 155, 565, 605
1157, 156, 605, 626
1158, 169, 170, 638
1159, 636, 169, 638
1160, 170, 171, 566
1161, 170, 566, 583
1162, 170, 583, 638
1163, 171, 172, 570
1164, 566, 171, 570
1165, 570, 172, 618
1166, 172, 617, 618
1167, 173, 174, 601
1168, 173, 601, 617
1169, 174, 175, 564
1170, 174, 564, 601
1171, 175, 176, 599
1172, 564, 175, 599
1173, 176, 177, 569
1174, 176, 569, 599
1175, 569, 177, 631
1176, 179, 178, 596
1177, 596, 178, 626
1178, 180, 179, 567
1179, 567, 179, 596
1180, 181, 180, 623
1181, 180, 567, 630
1182, 623, 180, 630
1183, 606, 181, 623
1184, 182, 183, 568
1185, 182, 568, 635
1186, 183, 184, 597
1187, 568, 183, 597
1188, 184, 185, 563
1189, 184, 563, 597
1190, 185, 186, 600
1191, 563, 185, 600
1192, 600, 186, 606
1193, 597, 563, 608
1194, 563, 600, 625
1195, 608, 563, 625
1196, 564, 599, 607
1197, 601, 564, 624
1198, 564, 607, 624
1199, 565, 595, 605
1200, 595, 565, 637
1201, 565, 627, 637
1202, 566, 570, 571
1203, 566, 571, 572
1204, 566, 572, 583
1205, 567, 596, 619
1206, 610, 567, 619
1207, 567, 610, 640
1208, 630, 567, 640
1209, 568, 597, 598
1210, 568, 598, 616
1211, 568, 616, 635
1212, 599, 569, 602
1213, 602, 569, 611
1214, 611, 569, 631
1215, 571, 570, 584
1216, 584, 570, 629
1217, 570, 618, 629
1218, 572, 571, 573
1219, 573, 571, 574
1220, 574, 571, 584
1221, 572, 573, 609
1222, 583, 572, 593
1223, 593, 572, 609
1224, 573, 574, 575
1225, 573, 575, 576
1226, 573, 576, 609
1227, 575, 574, 634
1228, 574, 584, 585
1229, 574, 585, 586
1230, 574, 586, 634
1231, 576, 575, 577
1232, 577, 575, 578
1233, 578, 575, 634
1234, 576, 577, 579
1235, 576, 579, 594
1236, 576, 594, 609
1237, 577, 578, 580
1238, 579, 577, 610
1239, 577, 580, 610
1240, 580, 578, 581
1241, 581, 578, 590
1242, 590, 578, 622
1243, 622, 578, 634
1244, 594, 579, 595
1245, 595, 579, 619
1246, 579, 610, 619
1247, 580, 581, 582
1248, 580, 582, 640
1249, 610, 580, 640
1250, 582, 581, 589
1251, 589, 581, 591
1252, 581, 590, 591
1253, 582, 589, 623
1254, 582, 623, 630
1255, 582, 630, 640
1256, 583, 593, 603
1257, 583, 603, 638
1258, 585, 584, 587
1259, 587, 584, 629
1260, 586, 585, 633
1261, 585, 587, 588
1262, 585, 588, 604
1263, 585, 604, 633
1264, 586, 621, 622
1265, 621, 586, 633
1266, 586, 622, 634
1267, 588, 587, 607
1268, 607, 587, 624
1269, 624, 587, 629
1270, 602, 588, 607
1271, 588, 602, 612
1272, 604, 588, 628
1273, 588, 612, 628
1274, 589, 591, 625
1275, 589, 600, 606
1276, 600, 589, 625
1277, 589, 606, 623
1278, 591, 590, 592
1279, 592, 590, 620
1280, 620, 590, 622
1281, 591, 592, 632
1282, 625, 591, 632
1283, 613, 592, 614
1284, 592, 613, 639
1285, 614, 592, 620
1286, 632, 592, 639
1287, 603, 593, 627
1288, 593, 609, 637
1289, 627, 593, 637
1290, 594, 595, 637
1291, 609, 594, 637
1292, 595, 596, 605
1293, 596, 595, 619
1294, 605, 596, 626
1295, 598, 597, 608
1296, 598, 608, 632
1297, 598, 615, 616
1298, 615, 598, 639
1299, 598, 632, 639
1300, 599, 602, 607
1301, 617, 601, 618
1302, 618, 601, 624
1303, 602, 611, 612
1304, 603, 636, 638
1305, 608, 625, 632
1306, 612, 611, 641
1307, 613, 615, 639
1308, 618, 624, 629
1309, 621, 620, 622
*ELEMENT, type=CPS3, ELSET=Surface28
1310, 23, 663, 157
1311, 178, 663, 23
1312, 160, 662, 25
1313, 25, 662, 187
1314, 28, 660, 181
1315, 191, 660, 28
1316, 190, 661, 29
1317, 29, 661, 194
1318, 157, 651, 158
1319, 157, 663, 651
1320, 158, 642, 159
1321, 158, 651, 642
1322, 159, 646, 160
1323, 642, 646, 159
1324, 646, 662, 160
1325, 179, 653, 178
1326, 653, 663, 178
1327, 180, 644, 179
1328, 644, 653, 179
1329, 181, 650, 180
1330, 180, 650, 644
1331, 181, 660, 650
1332, 187, 654, 188
1333, 187, 662, 654
1334, 188, 645, 189
1335, 188, 654, 645
1336, 189, 652, 190
1337, 645, 652, 189
1338, 652, 661, 190
1339, 192, 656, 191
1340, 656, 660, 191
1341, 193, 643, 192
1342, 643, 656, 192
1343, 194, 655, 193
1344, 193, 655, 643
1345, 194, 661, 655
1346, 642, 647, 646
1347, 642, 648, 647
1348, 642, 651, 648
1349, 655, 659, 643
1350, 643, 659, 656
1351, 650, 657, 644
1352, 644, 664, 653
1353, 657, 664, 644
1354, 645, 658, 652
1355, 654, 665, 645
1356, 645, 665, 658
1357, 647, 654, 646
1358, 654, 662, 646
1359, 648, 649, 647
1360, 649, 665, 647
1361, 647, 665, 654
1362, 648, 664, 649
1363, 651, 653, 648
1364, 653, 664, 648
1365, 657, 659, 649
1366, 649, 664, 657
1367, 649, 659, 658
1368, 658, 665, 649
1369, 656, 657, 650
1370, 650, 660, 656
1371, 651, 663, 653
1372, 652, 658, 655
1373, 655, 661, 652
1374, 658, 659, 655
1375, 656, 659, 657
*ELEMENT, type=CPS3, ELSET=Surface29
1376, 24, 161, 687
1377, 169, 24, 687
1378, 164, 26, 686
1379, 26, 195, 686
1380, 27, 172, 684
1381, 199, 27, 684
1382, 198, 30, 685
1383, 30, 202, 685
1384, 161, 162, 675
1385, 161, 675, 687
1386, 162, 163, 666
1387, 162, 666, 675
1388, 163, 164, 670
1389, 666, 163, 670
1390, 670, 164, 686
1391, 170, 169, 677
1392, 677, 169, 687
1393, 171, 170, 668
1394, 668, 170, 677
1395, 172, 171, 674
1396, 171, 668, 674
1397, 172, 674, 684
1398, 195, 196, 678
1399, 195, 678, 686
1400, 196, 197, 669
1401, 196, 669, 678
1402, 197, 198, 676
1403, 669, 197, 676
1404, 676, 198, 685
1405, 200, 199, 680
1406, 680, 199, 684
1407, 201, 200, 667
1408, 667, 200, 680
1409, 202, 201, 679
1410, 201, 667, 679
1411, 202, 679, 685
1412, 666, 670, 671
1413, 666, 671, 672
1414, 666, 672, 675
1415, 679, 667, 683
1416, 667, 680, 683
1417, 674, 668, 681
1418, 668, 677, 688
1419, 681, 668, 688
1420, 669, 676, 682
1421, 678, 669, 689
1422, 669, 682, 689
1423, 671, 670, 678
1424, 678, 670, 686
1425, 672, 671, 673
1426, 673, 671, 689
1427, 671, 678, 689
1428, 672, 673, 688
1429, 675, 672, 677
1430, 677, 672, 688
1431, 681, 673, 683
1432, 673, 681, 688
1433, 673, 682, 683
1434, 682, 673, 689
1435, 680, 674, 681
1436, 674, 680, 684
1437, 675, 677, 687
1438, 676, 679, 682
1439, 679, 676, 685
1440, 682, 679, 683
1441, 680, 681, 683
*ELEMENT, type=CPS3, ELSET=Surface30
1442, 3, 726, 49
1443, 49, 742, 3
1444, 725, 726, 3
1445, 3, 740, 725
1446, 3, 742, 740
1447, 55, 730, 4
1448, 4, 755, 55
1449, 4, 729, 712
1450, 712, 752, 4
1451, 4, 730, 729
1452, 752, 755, 4
1453, 25, 745, 168
1454, 187, 745, 25
1455, 165, 739, 26
1456, 26, 739, 195
1457, 29, 724, 190
1458, 206, 724, 29
1459, 198, 695, 30
1460, 30, 695, 203
1461, 49, 733, 50
1462, 50, 743, 49
1463, 726, 732, 49
1464, 732, 733, 49
1465, 49, 743, 742
1466, 50, 733, 51
1467, 51, 748, 50
1468, 50, 748, 743
1469, 51, 733, 52
1470, 52, 734, 51
1471, 734, 748, 51
1472, 53, 735, 52
1473, 52, 738, 53
1474, 733, 738, 52
1475, 52, 735, 734
1476, 54, 736, 53
1477, 53, 738, 54
1478, 53, 736, 735
1479, 55, 737, 54
1480, 54, 738, 55
1481, 54, 737, 736
1482, 55, 738, 730
1483, 55, 755, 737
1484, 166, 708, 165
1485, 708, 739, 165
1486, 167, 691, 166
1487, 691, 708, 166
1488, 168, 699, 167
1489, 167, 699, 691
1490, 168, 745, 699
1491, 188, 745, 187
1492, 189, 690, 188
1493, 690, 713, 188
1494, 713, 745, 188
1495, 190, 750, 189
1496, 189, 750, 690
1497, 724, 750, 190
1498, 195, 728, 196
1499, 195, 739, 728
1500, 196, 731, 197
1501, 728, 729, 196
1502, 729, 730, 196
1503, 730, 731, 196
1504, 197, 726, 198
1505, 197, 732, 726
1506, 731, 732, 197
1507, 198, 725, 695
1508, 198, 726, 725
1509, 203, 693, 204
1510, 203, 695, 693
1511, 204, 692, 205
1512, 204, 753, 692
1513, 693, 753, 204
1514, 205, 696, 206
1515, 692, 696, 205
1516, 696, 724, 206
1517, 690, 741, 713
1518, 690, 747, 741
1519, 690, 750, 747
1520, 699, 700, 691
1521, 700, 701, 691
1522, 701, 715, 691
1523, 691, 715, 708
1524, 692, 697, 696
1525, 692, 749, 697
1526, 692, 753, 749
1527, 695, 718, 693
1528, 718, 727, 693
1529, 727, 753, 693
1530, 719, 749, 694
1531, 694, 751, 719
1532, 727, 751, 694
1533, 694, 753, 727
1534, 749, 753, 694
1535, 695, 725, 718
1536, 697, 698, 696
1537, 698, 724, 696
1538, 697, 747, 698
1539, 697, 744, 710
1540, 710, 747, 697
1541, 697, 749, 744
1542, 698, 750, 724
1543, 747, 750, 698
1544, 699, 713, 700
1545, 699, 745, 713
1546, 700, 702, 701
1547, 700, 741, 702
1548, 713, 741, 700
1549, 702, 703, 701
1550, 703, 704, 701
1551, 704, 715, 701
1552, 702, 705, 703
1553, 702, 710, 705
1554, 702, 741, 710
1555, 703, 707, 704
1556, 705, 706, 703
1557, 706, 746, 703
1558, 703, 746, 707
1559, 707, 709, 704
1560, 709, 711, 704
1561, 711, 715, 704
1562, 705, 719, 706
1563, 710, 744, 705
1564, 705, 744, 719
1565, 719, 720, 706
1566, 720, 721, 706
1567, 721, 746, 706
1568, 707, 716, 709
1569, 707, 717, 716
1570, 707, 746, 717
1571, 711, 714, 708
1572, 708, 715, 711
1573, 714, 739, 708
1574, 709, 712, 711
1575, 709, 752, 712
1576, 716, 752, 709
1577, 741, 747, 710
1578, 712, 714, 711
1579, 712, 728, 714
1580, 712, 729, 728
1581, 728, 739, 714
1582, 717, 737, 716
1583, 737, 755, 716
1584, 716, 755, 752
1585, 736, 737, 717
1586, 717, 754, 736
1587, 746, 754, 717
1588, 725, 740, 718
1589, 718, 740, 727
1590, 719, 751, 720
1591, 744, 749, 719
1592, 720, 722, 721
1593, 720, 723, 722
1594, 720, 751, 723
1595, 722, 734, 721
1596, 734, 735, 721
1597, 735, 754, 721
1598, 721, 754, 746
1599, 723, 743, 722
1600, 722, 748, 734
1601, 743, 748, 722
1602, 727, 740, 723
1603, 723, 751, 727
1604, 740, 742, 723
1605, 742, 743, 723
1606, 730, 738, 731
1607, 731, 733, 732
1608, 731, 738, 733
1609, 736, 754, 735
*ELEMENT, type=CPS3, ELSET=Surface31
1610, 152, 810, 17
1611, 17, 817, 152
1612, 177, 817, 17
1613, 17, 810, 182
1614, 21, 796, 151
1615, 151, 797, 21
1616, 21, 799, 794
1617, 794, 805, 21
1618, 21, 805, 796
1619, 797, 799, 21
1620, 27, 808, 173
1621, 199, 808, 27
1622, 186, 802, 28
1623, 28, 802, 191
1624, 194, 811, 29
1625, 29, 811, 206
1626, 30, 809, 202
1627, 203, 809, 30
1628, 152, 800, 151
1629, 151, 810, 152
1630, 796, 810, 151
1631, 151, 800, 797
1632, 152, 817, 800
1633, 173, 785, 174
1634, 173, 808, 785
1635, 174, 757, 175
1636, 174, 785, 757
1637, 175, 783, 176
1638, 757, 783, 175
1639, 176, 762, 177
1640, 176, 783, 762
1641, 762, 817, 177
1642, 182, 761, 183
1643, 182, 810, 761
1644, 183, 763, 184
1645, 761, 763, 183
1646, 184, 756, 185
1647, 184, 763, 756
1648, 185, 784, 186
1649, 756, 784, 185
1650, 784, 802, 186
1651, 191, 803, 192
1652, 802, 803, 191
1653, 192, 759, 193
1654, 192, 819, 759
1655, 803, 819, 192
1656, 193, 792, 194
1657, 759, 792, 193
1658, 792, 811, 194
1659, 200, 801, 199
1660, 199, 801, 782
1661, 782, 808, 199
1662, 201, 760, 200
1663, 760, 801, 200
1664, 202, 789, 201
1665, 201, 789, 760
1666, 202, 809, 789
1667, 204, 787, 203
1668, 787, 809, 203
1669, 205, 758, 204
1670, 758, 787, 204
1671, 206, 786, 205
1672, 205, 786, 758
1673, 206, 811, 786
1674, 763, 764, 756
1675, 764, 765, 756
1676, 765, 784, 756
1677, 757, 795, 783
1678, 785, 814, 757
1679, 757, 814, 795
1680, 786, 812, 758
1681, 758, 790, 787
1682, 758, 812, 790
1683, 759, 813, 792
1684, 793, 807, 759
1685, 759, 819, 793
1686, 807, 813, 759
1687, 789, 818, 760
1688, 760, 815, 801
1689, 760, 818, 815
1690, 761, 791, 763
1691, 761, 796, 791
1692, 761, 810, 796
1693, 783, 798, 762
1694, 762, 798, 797
1695, 797, 800, 762
1696, 800, 817, 762
1697, 763, 791, 764
1698, 764, 766, 765
1699, 764, 773, 766
1700, 764, 791, 773
1701, 766, 767, 765
1702, 767, 804, 765
1703, 765, 804, 784
1704, 766, 768, 767
1705, 766, 769, 768
1706, 766, 773, 769
1707, 768, 793, 767
1708, 793, 803, 767
1709, 803, 804, 767
1710, 769, 770, 768
1711, 770, 807, 768
1712, 768, 807, 793
1713, 769, 771, 770
1714, 769, 774, 771
1715, 773, 774, 769
1716, 771, 772, 770
1717, 772, 776, 770
1718, 776, 807, 770
1719, 771, 806, 772
1720, 774, 775, 771
1721, 775, 806, 771
1722, 772, 778, 776
1723, 772, 788, 778
1724, 772, 806, 788
1725, 773, 794, 774
1726, 791, 805, 773
1727, 773, 805, 794
1728, 774, 816, 775
1729, 794, 816, 774
1730, 777, 780, 775
1731, 775, 816, 777
1732, 780, 781, 775
1733, 781, 806, 775
1734, 778, 779, 776
1735, 779, 813, 776
1736, 776, 813, 807
1737, 777, 795, 780
1738, 777, 798, 795
1739, 777, 799, 798
1740, 777, 816, 799
1741, 778, 812, 779
1742, 788, 790, 778
1743, 790, 812, 778
1744, 786, 792, 779
1745, 779, 812, 786
1746, 792, 813, 779
1747, 780, 782, 781
1748, 780, 814, 782
1749, 795, 814, 780
1750, 782, 801, 781
1751, 801, 815, 781
1752, 781, 815, 806
1753, 785, 808, 782
1754, 782, 814, 785
1755, 795, 798, 783
1756, 784, 804, 802
1757, 786, 811, 792
1758, 787, 790, 789
1759, 789, 809, 787
1760, 788, 818, 790
1761, 806, 815, 788
1762, 815, 818, 788
1763, 790, 818, 789
1764, 796, 805, 791
1765, 793, 819, 803
1766, 799, 816, 794
1767, 798, 799, 797
1768, 802, 804, 803
*ELEMENT, type=CPS3, ELSET=Surface32
1769, 17, 132, 882
1770, 132, 17, 883
1771, 17, 177, 883
1772, 182, 17, 882
1773, 133, 18, 857
1774, 18, 133, 858
1775, 857, 18, 877
1776, 18, 858, 859
1777, 18, 859, 881
1778, 877, 18, 881
1779, 173, 27, 871
1780, 27, 207, 871
1781, 28, 186, 868
1782, 215, 28, 868
1783, 210, 31, 873
1784, 31, 211, 873
1785, 214, 32, 872
1786, 32, 218, 872
1787, 133, 132, 865
1788, 132, 133, 870
1789, 865, 132, 883
1790, 132, 870, 882
1791, 133, 857, 870
1792, 858, 133, 865
1793, 174, 173, 846
1794, 846, 173, 871
1795, 175, 174, 821
1796, 821, 174, 846
1797, 176, 175, 844
1798, 175, 821, 844
1799, 177, 176, 826
1800, 826, 176, 844
1801, 177, 826, 883
1802, 183, 182, 825
1803, 825, 182, 882
1804, 184, 183, 827
1805, 183, 825, 827
1806, 185, 184, 820
1807, 820, 184, 827
1808, 186, 185, 869
1809, 185, 820, 869
1810, 868, 186, 869
1811, 207, 208, 848
1812, 207, 848, 860
1813, 207, 860, 871
1814, 208, 209, 824
1815, 208, 824, 848
1816, 209, 210, 852
1817, 824, 209, 852
1818, 852, 210, 873
1819, 211, 212, 850
1820, 211, 850, 873
1821, 212, 213, 822
1822, 212, 822, 850
1823, 213, 214, 849
1824, 822, 213, 849
1825, 849, 214, 872
1826, 216, 215, 875
1827, 843, 215, 868
1828, 215, 843, 875
1829, 217, 216, 823
1830, 823, 216, 862
1831, 862, 216, 875
1832, 218, 217, 851
1833, 217, 823, 851
1834, 218, 851, 872
1835, 820, 827, 828
1836, 820, 828, 829
1837, 820, 829, 869
1838, 844, 821, 864
1839, 821, 846, 856
1840, 821, 856, 864
1841, 822, 849, 874
1842, 850, 822, 854
1843, 854, 822, 884
1844, 822, 874, 884
1845, 851, 823, 878
1846, 823, 862, 863
1847, 823, 863, 878
1848, 848, 824, 866
1849, 824, 852, 876
1850, 824, 855, 866
1851, 855, 824, 876
1852, 827, 825, 886
1853, 857, 825, 870
1854, 825, 857, 886
1855, 870, 825, 882
1856, 826, 844, 845
1857, 826, 845, 858
1858, 826, 858, 865
1859, 826, 865, 883
1860, 828, 827, 886
1861, 829, 828, 830
1862, 830, 828, 831
1863, 831, 828, 847
1864, 847, 828, 886
1865, 829, 830, 837
1866, 829, 837, 843
1867, 829, 843, 869
1868, 830, 831, 832
1869, 830, 832, 861
1870, 837, 830, 861
1871, 832, 831, 833
1872, 833, 831, 853
1873, 831, 847, 853
1874, 832, 833, 834
1875, 832, 834, 880
1876, 861, 832, 880
1877, 834, 833, 835
1878, 835, 833, 839
1879, 839, 833, 867
1880, 833, 853, 867
1881, 834, 835, 836
1882, 834, 836, 838
1883, 834, 838, 880
1884, 836, 835, 866
1885, 835, 839, 840
1886, 835, 840, 866
1887, 838, 836, 841
1888, 841, 836, 855
1889, 855, 836, 866
1890, 843, 837, 875
1891, 837, 861, 862
1892, 837, 862, 875
1893, 838, 841, 842
1894, 838, 842, 863
1895, 838, 863, 880
1896, 840, 839, 864
1897, 864, 839, 879
1898, 839, 867, 879
1899, 856, 840, 864
1900, 840, 856, 885
1901, 866, 840, 885
1902, 842, 841, 884
1903, 854, 841, 876
1904, 841, 854, 884
1905, 841, 855, 876
1906, 863, 842, 878
1907, 842, 874, 878
1908, 874, 842, 884
1909, 843, 868, 869
1910, 845, 844, 864
1911, 858, 845, 859
1912, 859, 845, 879
1913, 845, 864, 879
1914, 856, 846, 860
1915, 860, 846, 871
1916, 853, 847, 877
1917, 847, 857, 877
1918, 857, 847, 886
1919, 860, 848, 885
1920, 848, 866, 885
1921, 851, 849, 872
1922, 849, 851, 874
1923, 850, 852, 873
1924, 852, 850, 876
1925, 850, 854, 876
1926, 874, 851, 878
1927, 867, 853, 881
1928, 853, 877, 881
1929, 856, 860, 885
1930, 867, 859, 879
1931, 859, 867, 881
1932, 862, 861, 863
1933, 863, 861, 880
*ELEMENT, type=CPS3, ELSET=Surface33
1934, 27, 199, 908
1935, 207, 27, 908
1936, 202, 30, 907
1937, 30, 219, 907
1938, 31, 210, 905
1939, 223, 31, 905
1940, 222, 33, 906
1941, 33, 226, 906
1942, 199, 200, 899
1943, 199, 899, 908
1944, 200, 201, 889
1945, 200, 889, 899
1946, 201, 202, 897
1947, 889, 201, 897
1948, 897, 202, 907
1949, 208, 207, 895
1950, 895, 207, 908
1951, 209, 208, 887
1952, 887, 208, 895
1953, 210, 209, 896
1954, 209, 887, 896
1955, 210, 896, 905
1956, 219, 220, 898
1957, 219, 898, 907
1958, 220, 221, 888
1959, 220, 888, 898
1960, 221, 222, 891
1961, 888, 221, 891
1962, 891, 222, 906
1963, 224, 223, 901
1964, 901, 223, 905
1965, 225, 224, 890
1966, 890, 224, 901
1967, 226, 225, 900
1968, 225, 890, 900
1969, 226, 900, 906
1970, 887, 895, 911
1971, 896, 887, 904
1972, 904, 887, 911
1973, 888, 891, 892
1974, 888, 892, 893
1975, 888, 893, 898
1976, 889, 897, 910
1977, 899, 889, 903
1978, 903, 889, 910
1979, 900, 890, 909
1980, 890, 901, 902
1981, 890, 902, 909
1982, 892, 891, 900
1983, 900, 891, 906
1984, 893, 892, 894
1985, 894, 892, 909
1986, 892, 900, 909
1987, 893, 894, 910
1988, 893, 897, 898
1989, 897, 893, 910
1990, 894, 902, 904
1991, 902, 894, 909
1992, 903, 894, 904
1993, 894, 903, 910
1994, 899, 895, 908
1995, 895, 899, 911
1996, 901, 896, 902
1997, 896, 901, 905
1998, 902, 896, 904
1999, 898, 897, 907
2000, 899, 903, 911
2001, 903, 904, 911
*ELEMENT, type=CPS3, ELSET=Surface34
2002, 29, 931, 206
2003, 231, 931, 29
2004, 203, 930, 30
2005, 30, 930, 219
2006, 222, 932, 33
2007, 33, 932, 227
2008, 230, 933, 34
2009, 34, 933, 234
2010, 204, 924, 203
2011, 924, 930, 203
2012, 205, 912, 204
2013, 912, 924, 204
2014, 206, 923, 205
2015, 205, 923, 912
2016, 206, 931, 923
2017, 219, 921, 220
2018, 219, 930, 921
2019, 220, 915, 221
2020, 220, 921, 915
2021, 221, 920, 222
2022, 915, 920, 221
2023, 920, 932, 222
2024, 227, 926, 228
2025, 227, 932, 926
2026, 228, 913, 229
2027, 228, 926, 913
2028, 229, 922, 230
2029, 913, 922, 229
2030, 922, 933, 230
2031, 232, 916, 231
2032, 916, 931, 231
2033, 233, 914, 232
2034, 914, 916, 232
2035, 234, 925, 233
2036, 233, 925, 914
2037, 234, 933, 925
2038, 923, 934, 912
2039, 912, 927, 924
2040, 912, 934, 927
2041, 913, 935, 922
2042, 926, 928, 913
2043, 928, 935, 913
2044, 914, 917, 916
2045, 914, 918, 917
2046, 914, 925, 918
2047, 915, 936, 920
2048, 921, 929, 915
2049, 929, 936, 915
2050, 917, 923, 916
2051, 923, 931, 916
2052, 918, 919, 917
2053, 919, 934, 917
2054, 917, 934, 923
2055, 918, 935, 919
2056, 918, 925, 922
2057, 922, 935, 918
2058, 919, 929, 927
2059, 927, 934, 919
2060, 928, 929, 919
2061, 919, 935, 928
2062, 926, 932, 920
2063, 920, 936, 926
2064, 924, 927, 921
2065, 921, 930, 924
2066, 927, 929, 921
2067, 925, 933, 922
2068, 926, 936, 928
2069, 928, 936, 929
*ELEMENT, type=CPS3, ELSET=Surface35
2070, 28, 957, 191
2071, 215, 957, 28
2072, 194, 958, 29
2073, 29, 958, 231
2074, 32, 955, 218
2075, 235, 955, 32
2076, 234, 956, 34
2077, 34, 956, 238
2078, 191, 949, 192
2079, 191, 957, 949
2080, 192, 938, 193
2081, 192, 949, 938
2082, 193, 947, 194
2083, 938, 947, 193
2084, 947, 958, 194
2085, 216, 945, 215
2086, 945, 957, 215
2087, 217, 940, 216
2088, 940, 945, 216
2089, 218, 946, 217
2090, 217, 946, 940
2091, 218, 955, 946
2092, 231, 948, 232
2093, 231, 958, 948
2094, 232, 939, 233
2095, 232, 948, 939
2096, 233, 941, 234
2097, 939, 941, 233
2098, 941, 956, 234
2099, 236, 951, 235
2100, 951, 955, 235
2101, 237, 937, 236
2102, 937, 951, 236
2103, 238, 950, 237
2104, 237, 950, 937
2105, 238, 956, 950
2106, 950, 959, 937
2107, 937, 953, 951
2108, 937, 959, 953
2109, 938, 960, 947
2110, 949, 952, 938
2111, 952, 960, 938
2112, 939, 942, 941
2113, 939, 943, 942
2114, 939, 948, 943
2115, 940, 961, 945
2116, 946, 954, 940
2117, 954, 961, 940
2118, 942, 950, 941
2119, 950, 956, 941
2120, 943, 944, 942
2121, 944, 959, 942
2122, 942, 959, 950
2123, 943, 960, 944
2124, 943, 948, 947
2125, 947, 960, 943
2126, 952, 954, 944
2127, 944, 960, 952
2128, 944, 954, 953
2129, 953, 959, 944
2130, 949, 957, 945
2131, 945, 961, 949
2132, 951, 953, 946
2133, 946, 955, 951
2134, 953, 954, 946
2135, 948, 958, 947
2136, 949, 961, 952
2137, 952, 961, 954
*ELEMENT, type=CPS3, ELSET=Surface36
2138, 31, 982, 211
2139, 223, 982, 31
2140, 214, 981, 32
2141, 32, 981, 235
2142, 33, 980, 226
2143, 227, 980, 33
2144, 34, 983, 230
2145, 238, 983, 34
2146, 211, 971, 212
2147, 211, 982, 971
2148, 212, 962, 213
2149, 212, 971, 962
2150, 213, 966, 214
2151, 962, 966, 213
2152, 966, 981, 214
2153, 224, 973, 223
2154, 973, 982, 223
2155, 225, 964, 224
2156, 964, 973, 224
2157, 226, 970, 225
2158, 225, 970, 964
2159, 226, 980, 970
2160, 228, 975, 227
2161, 975, 980, 227
2162, 229, 963, 228
2163, 963, 975, 228
2164, 230, 972, 229
2165, 229, 972, 963
2166, 230, 983, 972
2167, 235, 974, 236
2168, 235, 981, 974
2169, 236, 965, 237
2170, 236, 974, 965
2171, 237, 976, 238
2172, 965, 976, 237
2173, 976, 983, 238
2174, 962, 967, 966
2175, 962, 968, 967
2176, 962, 971, 968
2177, 972, 979, 963
2178, 963, 979, 975
2179, 970, 977, 964
2180, 964, 984, 973
2181, 977, 984, 964
2182, 974, 985, 965
2183, 965, 978, 976
2184, 965, 985, 978
2185, 967, 974, 966
2186, 974, 981, 966
2187, 968, 969, 967
2188, 969, 985, 967
2189, 967, 985, 974
2190, 968, 984, 969
2191, 971, 973, 968
2192, 973, 984, 968
2193, 977, 979, 969
2194, 969, 984, 977
2195, 969, 979, 978
2196, 978, 985, 969
2197, 975, 977, 970
2198, 970, 980, 975
2199, 971, 982, 973
2200, 976, 978, 972
2201, 972, 983, 976
2202, 978, 979, 972
2203, 975, 979, 977
*ELEMENT, type=C3D4, ELSET=Volume1
2204, 609, 1017, 1047, 1073
2205, 69, 1120, 6, 1229
2206, 7, 1061, 77, 1342
2207, 1051, 991, 1328, 1533
2208, 1052, 1227, 1073, 1376
2209, 668, 1326, 1177, 1368
2210, 647, 1203, 994, 1408
2211, 1035, 1260, 1223, 1347
2212, 991, 1260, 1064, 1287
2213, 1171, 1359, 1022, 1366
2214, 1006, 1043, 1107, 1316
2215, 339, 337, 316, 1342
2216, 991, 1223, 1260, 1347
2217, 47, 1125, 48, 1333
2218, 74, 305, 361, 1181
2219, 45, 1125, 46, 1185
2220, 660, 1079, 1271, 1338
2221, 344, 88, 89, 1152
2222, 13, 1281, 113, 1329
2223, 986, 1177, 1123, 1465
2224, 995, 1177, 1123, 1494
2225, 245, 265, 291, 1413
2226, 1036, 1199, 1121, 1322
2227, 1031, 1117, 1249, 1278
2228, 1036, 1256, 1182, 1376
2229, 991, 1223, 1064, 1260
2230, 1108, 1451, 1206, 1541
2231, 300, 302, 242, 1168
2232, 1000, 1321, 1136, 1436
2233, 342, 323, 343, 1481
2234, 1223, 1238, 1026, 1360
2235, 1118, 1402, 1254, 1577
2236, 1006, 1136, 1372, 1571
2237, 991, 1238, 1223, 1360
2238, 120, 1235, 121, 1283
2239, 247, 251, 40, 1180
2240, 1069, 1475, 1153, 1575
2241, 1004, 1160, 1089, 1505
2242, 5, 1060, 1351, 1423
2243, 65, 1186, 66, 1534
2244, 286, 274, 247, 1384
2245, 1018, 1130, 1069, 1153
2246, 1025, 1137, 1129, 1138
2247, 247, 251, 1180, 1384
2248, 68, 341, 67, 1229
2249, 994, 1203, 1357, 1408
2250, 269, 240, 270, 1495
2251, 1238, 1294, 1219, 1337
2252, 648, 994, 1167, 1408
2253, 365, 6, 70, 1230
2254, 1042, 1103, 697, 1364
2255, 996, 1204, 1298, 1356
2256, 1025, 1055, 1137, 1138
2257, 300, 242, 279, 736
2258, 284, 276, 294, 1384
2259, 992, 1050, 1165, 1576
2260, 312, 71, 72, 1476
2261, 416, 533, 418, 1344
2262, 278, 239, 46, 1333
2263, 38, 1264, 39, 1469
2264, 989, 1068, 1172, 1258
2265, 120, 119, 1148, 1283
2266, 1045, 1117, 1031, 1158
2267, 697, 1103, 1042, 1518
2268, 418, 533, 414, 1344
2269, 1133, 1322, 1029, 1420
2270, 361, 316, 337, 1342
2271, 577, 1032, 1225, 1392
2272, 40, 1248, 41, 1380
2273, 308, 67, 341, 1534
2274, 247, 274, 251, 1384
2275, 357, 369, 315, 1476
2276, 37, 1295, 1091, 1416
2277, 1002, 1114, 1302, 1354
2278, 80, 81, 306, 1262
2279, 70, 1170, 71, 1458
2280, 269, 245, 1268, 1413
2281, 115, 422, 116, 1464
2282, 300, 279, 303, 1367
2283, 1089, 1172, 1002, 1259
2284, 1018, 1236, 1119, 1552
2285, 671, 1050, 1123, 1154
2286, 250, 288, 296, 1417
2287, 346, 367, 330, 1149
2288, 284, 294, 244, 1384
2289, 64, 65, 1161, 1297
2290, 819, 1083, 793, 1271
2291, 240, 269, 293, 1495
2292, 670, 1105, 1003, 1132
2293, 1002, 1302, 1301, 1354
2294, 647, 994, 1357, 1398
2295, 90, 1423, 89, 1573
2296, 1052, 1073, 1032, 1545
2297, 1020, 1027, 1011, 1092
2298, 35, 1377, 36, 1580
2299, 991, 1066, 1260, 1287
2300, 120, 119, 1283, 1527
2301, 609, 1073, 1047, 1376
2302, 41, 1088, 2, 1380
2303, 283, 241, 253, 1438
2304, 1202, 1266, 989, 1316
2305, 1316, 1332, 1147, 1511
2306, 20, 478, 150, 1403
2307, 993, 1024, 1102, 1184
2308, 609, 1017, 593, 1047
2309, 1036, 1029, 1199, 1322
2310, 300, 736, 279, 1168
2311, 580, 1393, 1225, 1483
2312, 245, 291, 1367, 1413
2313, 326, 328, 325, 1343
2314, 57, 56, 1188, 1434
2315, 1006, 1266, 1202, 1316
2316, 1069, 1130, 1018, 1204
2317, 1122, 1097, 1262, 1424
2318, 992, 1250, 1194, 1381
2319, 67, 66, 1247, 1265
2320, 1007, 1424, 1365, 1428
2321, 1050, 992, 1165, 1194
2322, 1025, 1379, 1145, 1405
2323, 996, 1331, 1238, 1490
2324, 1055, 1083, 1379, 1405
2325, 1005, 1212, 1103, 1559
2326, 69, 6, 365, 1229
2327, 1016, 1041, 1156, 1275
2328, 1029, 1036, 1199, 1423
2329, 149, 469, 148, 1403
2330, 559, 1359, 1246, 1557
2331, 89, 1178, 1213, 1573
2332, 1136, 1321, 1000, 1518
2333, 338, 339, 348, 1514
2334, 1148, 1037, 1341, 1543
2335, 1127, 1247, 1128, 1410
2336, 328, 346, 332, 1343
2337, 61, 1455, 62, 1503
2338, 74, 361, 75, 1139
2339, 60, 1399, 61, 1495
2340, 647, 994, 1203, 1357
2341, 1023, 1252, 1235, 1591
2342, 1091, 1299, 36, 1377
2343, 1102, 1171, 1024, 1366
2344, 293, 269, 245, 1268
2345, 1009, 1219, 1294, 1337
2346, 89, 1423, 1178, 1573
2347, 993, 1135, 1077, 1366
2348, 992, 1165, 1302, 1591
2349, 39, 40, 1153, 1416
2350, 36, 1377, 1299, 1580
2351, 37, 246, 36, 1580
2352, 20, 150, 478, 1412
2353, 671, 1132, 1050, 1154
2354, 1225, 1392, 1031, 1393
2355, 7, 1253, 1216, 1317
2356, 1031, 1158, 1117, 1358
2357, 1117, 1350, 1277, 1401
2358, 611, 612, 641, 474
2359, 334, 333, 356, 1513
2360, 593, 1047, 1017, 1368
2361, 7, 77, 362, 1342
2362, 1129, 1285, 1233, 1342
2363, 37, 1091, 1295, 1299
2364, 1039, 1122, 1097, 1262
2365, 1043, 1268, 1107, 1399
2366, 41, 2, 298, 1180
2367, 1232, 1298, 1204, 1356
2368, 467, 800, 631, 1480
2369, 1165, 1328, 992, 1576
2370, 338, 1169, 339, 1514
2371, 559, 1246, 997, 1557
2372, 280, 259, 263, 1413
2373, 996, 1204, 1356, 1459
2374, 719, 1103, 1212, 1559
2375, 1043, 1202, 989, 1316
2376, 1175, 1352, 1058, 1356
2377, 1108, 1206, 1191, 1324
2378, 469, 149, 148, 1412
2379, 245, 57, 58, 1268
2380, 1018, 1153, 1069, 1475
2381, 1100, 1024, 1263, 1366
2382, 996, 1238, 1219, 1460
2383, 284, 244, 1185, 1384
2384, 61, 1399, 1332, 1495
2385, 654, 1173, 1101, 1531
2386, 1148, 1037, 1252, 1341
2387, 1022, 1171, 1076, 1359
2388, 1055, 1311, 1083, 1405
2389, 996, 1204, 1069, 1298
2390, 1006, 1202, 1043, 1316
2391, 686, 1003, 1105, 1309
2392, 1001, 1294, 1063, 1431
2393, 317, 318, 306, 1122
2394, 469, 470, 474, 1480
2395, 339, 1169, 338, 1285
2396, 42, 298, 2, 1387
2397, 286, 1384, 247, 1387
2398, 38, 1295, 37, 1416
2399, 635, 467, 472, 1468
2400, 40, 41, 1248, 1592
2401, 648, 1167, 1246, 1408
2402, 1015, 1030, 1063, 1081
2403, 269, 265, 245, 1413
2404, 345, 310, 368, 1297
2405, 328, 331, 332, 1371
2406, 259, 260, 258, 1330
2407, 1148, 1252, 1288, 1341
2408, 1119, 1236, 1005, 1552
2409, 1039, 1129, 1061, 1522
2410, 121, 1114, 13, 1183
2411, 113, 114, 1159, 1160
2412, 1006, 1136, 1202, 1266
2413, 45, 46, 239, 1185
2414, 1022, 1178, 1029, 1554
2415, 341, 1205, 67, 1229
2416, 1123, 1177, 986, 1494
2417, 337, 339, 338, 1285
2418, 1066, 1162, 1003, 1539
2419, 340, 318, 317, 1208
2420, 1084, 1219, 1130, 1248
2421, 361, 305, 337, 1239
2422, 800, 467, 631, 817
2423, 348, 339, 311, 1514
2424, 1094, 1187, 565, 1376
2425, 355, 362, 77, 1233
2426, 343, 1453, 342, 1481
2427, 13, 121, 1183, 1184
2428, 989, 1043, 1316, 1539
2429, 1204, 1232, 1069, 1298
2430, 328, 325, 1224, 1529
2431, 1151, 1172, 1068, 1258
2432, 1121, 1240, 1036, 1322
2433, 326, 325, 328, 1525
2434, 1051, 991, 1360, 1378
2435, 74, 1139, 75, 1163
2436, 1069, 1204, 1018, 1475
2437, 37, 1295, 246, 1580
2438, 579, 1032, 1073, 1545
2439, 647, 994, 648, 1408
2440, 1219, 1238, 996, 1331
2441, 73, 1181, 74, 1308
2442, 43, 1382, 44, 1387
2443, 67, 1205, 341, 1534
2444, 803, 1083, 819, 1271
2445, 576, 1073, 1032, 1392
2446, 1129, 1233, 1061, 1342
2447, 1294, 1337, 1238, 1390
2448, 1073, 1227, 1047, 1376
2449, 339, 1233, 1285, 1342
2450, 1030, 1063, 1081, 1197
2451, 1043, 1003, 1162, 1539
2452, 367, 346, 366, 1349
2453, 8, 1189, 1221, 1583
2454, 1123, 1177, 995, 1584
2455, 632, 1126, 1403, 1440
2456, 1016, 1436, 1266, 1516
2457, 5, 1375, 1187, 1423
2458, 1015, 1190, 1081, 1452
2459, 1018, 1085, 1084, 1180
2460, 1054, 1517, 1426, 1565
2461, 566, 1326, 668, 1368
2462, 121, 1235, 1183, 1283
2463, 7, 77, 1061, 1215
2464, 119, 120, 1148, 1235
2465, 1260, 1316, 1147, 1511
2466, 1060, 1291, 5, 1351
2467, 40, 41, 1180, 1380
2468, 8, 1221, 84, 1583
2469, 1006, 1107, 1043, 1268
2470, 345, 66, 65, 1496
2471, 67, 341, 68, 1496
2472, 242, 300, 735, 736
2473, 1069, 1232, 1204, 1475
2474, 5, 1199, 1375, 1423
2475, 1123, 1328, 1008, 1378
2476, 1103, 1212, 1005, 1236
2477, 150, 1176, 20, 1403
2478, 37, 1228, 38, 1469
2479, 336, 305, 335, 1371
2480, 1051, 1008, 1360, 1589
2481, 1058, 1352, 1175, 1415
2482, 66, 1186, 1112, 1534
2483, 1006, 1202, 1136, 1571
2484, 39, 40, 251, 1153
2485, 1082, 1215, 1041, 1253
2486, 280, 1191, 259, 1413
2487, 1002, 1258, 1151, 1411
2488, 312, 72, 359, 1476
2489, 988, 1236, 1212, 1396
2490, 752, 1188, 56, 1434
2491, 580, 1392, 1225, 1393
2492, 339, 1233, 1169, 1285
2493, 1, 62, 1132, 1511
2494, 1000, 1279, 1136, 1518
2495, 328, 329, 325, 1529
2496, 988, 1325, 1218, 1415
2497, 70, 71, 1170, 1296
2498, 1055, 1081, 1013, 1166
2499, 670, 1050, 1132, 1488
2500, 1146, 1332, 1147, 1479
2501, 239, 1185, 46, 1333
2502, 1223, 1347, 991, 1560
2503, 1030, 987, 1163, 1314
2504, 357, 315, 353, 1476
2505, 305, 361, 1181, 1239
2506, 1005, 1108, 1119, 1552
2507, 1178, 1199, 1121, 1213
2508, 314, 370, 356, 1504
2509, 1123, 1310, 1008, 1328
2510, 251, 1153, 40, 1180
2511, 1037, 1178, 1121, 1213
2512, 992, 1059, 1194, 1250
2513, 1022, 1029, 1192, 1554
2514, 283, 1295, 241, 1438
2515, 273, 249, 1332, 1334
2516, 1064, 1147, 1260, 1298
2517, 339, 1285, 337, 1342
2518, 74, 361, 1139, 1181
2519, 989, 1258, 1352, 1422
2520, 635, 810, 467, 1468
2521, 1169, 1233, 339, 1514
2522, 147, 805, 1445, 1468
2523, 1007, 1077, 993, 1135
2524, 1114, 1354, 1002, 1538
2525, 1156, 1262, 1097, 1424
2526, 1109, 1168, 1143, 1413
2527, 1073, 1249, 1144, 1265
2528, 1030, 987, 1063, 1163
2529, 1018, 1082, 990, 1236
2530, 75, 76, 1317, 1370
2531, 116, 117, 1303, 1305
2532, 1052, 1073, 594, 1376
2533, 332, 331, 328, 1476
2534, 425, 121, 13, 1527
2535, 1117, 1261, 1015, 1452
2536, 771, 1190, 1067, 1306
2537, 1027, 1011, 1092, 1555
2538, 414, 533, 534, 1344
2539, 483, 555, 1101, 1517
2540, 1266, 1415, 1218, 1510
2541, 1121, 1199, 1029, 1322
2542, 83, 8, 364, 1365
2543, 1002, 1411, 1165, 1487
2544, 1058, 1275, 1253, 1395
2545, 1008, 1310, 1494, 1561
2546, 1165, 1328, 991, 1533
2547, 1225, 1393, 1284, 1483
2548, 115, 116, 1075, 1464
2549, 317, 306, 81, 1122
2550, 1106, 1379, 1217, 1470
2551, 295, 249, 271, 1495
2552, 992, 1194, 1050, 1381
2553, 117, 118, 1303, 1305
2554, 149, 1226, 148, 1412
2555, 1015, 1067, 1190, 1452
2556, 422, 1484, 1389, 1546
2557, 1099, 1108, 1206, 1541
2558, 119, 1303, 118, 1304
2559, 1043, 1162, 1003, 1503
2560, 1106, 1129, 1383, 1551
2561, 576, 579, 1032, 1073
2562, 1142, 1047, 1375, 1574
2563, 427, 411, 122, 1464
2564, 306, 318, 319, 1514
2565, 1005, 1099, 1324, 1559
2566, 1006, 1218, 1316, 1479
2567, 35, 1, 1307, 1319
2568, 275, 294, 274, 1270
2569, 45, 44, 1198, 1382
2570, 5, 1187, 1060, 1423
2571, 39, 38, 241, 1409
2572, 494, 1160, 1089, 1426
2573, 580, 1225, 582, 1483
2574, 1178, 1423, 1213, 1573
2575, 6, 1120, 69, 1249
2576, 68, 1265, 67, 1524
2577, 37, 36, 1091, 1299
2578, 559, 503, 1359, 1557
2579, 1082, 1041, 1215, 1396
2580, 1163, 1308, 1181, 1318
2581, 326, 346, 330, 1149
2582, 1023, 1148, 1252, 1288
2583, 1051, 1328, 991, 1378
2584, 1013, 1081, 1055, 1418
2585, 1024, 1150, 1171, 1543
2586, 359, 72, 73, 1532
2587, 44, 45, 284, 1185
2588, 467, 476, 631, 817
2589, 1, 1132, 1287, 1511
2590, 260, 261, 264, 1578
2591, 1153, 1180, 251, 1384
2592, 677, 668, 1177, 1368
2593, 1016, 1041, 1275, 1415
2594, 1030, 1163, 1056, 1314
2595, 300, 242, 735, 1168
2596, 331, 329, 328, 1131
2597, 1031, 1284, 1225, 1393
2598, 87, 1453, 307, 1570
2599, 1005, 1324, 1108, 1552
2600, 1069, 1232, 1475, 1575
2601, 580, 581, 1393, 1483
2602, 1036, 1375, 1199, 1423
2603, 367, 345, 1222, 1496
2604, 476, 472, 635, 467
2605, 340, 317, 313, 1365
2606, 280, 1143, 270, 1334
2607, 1031, 1117, 1045, 1249
2608, 358, 349, 334, 1140
2609, 13, 1114, 1281, 1354
2610, 1213, 1423, 1199, 1573
2611, 991, 1066, 1287, 1411
2612, 989, 1068, 1258, 1422
2613, 1103, 1315, 1042, 1518
2614, 1301, 1002, 1363, 1591
2615, 369, 357, 315, 1467
2616, 13, 1281, 1329, 1354
2617, 422, 424, 1244, 1389
2618, 1013, 1055, 1311, 1340
2619, 515, 1276, 1059, 1344
2620, 244, 43, 44, 1387
2621, 1169, 1233, 1039, 1285
2622, 1121, 1199, 1036, 1240
2623, 1260, 1316, 1258, 1352
2624, 991, 1260, 1258, 1347
2625, 803, 819, 793, 1271
2626, 1005, 1099, 1108, 1324
2627, 1204, 1219, 1130, 1274
2628, 1035, 1260, 1258, 1352
2629, 263, 269, 270, 1413
2630, 1073, 1032, 1249, 1265
2631, 1064, 1260, 1223, 1298
2632, 1061, 1097, 1039, 1339
2633, 677, 1177, 1234, 1368
2634, 1059, 992, 1194, 1302
2635, 1129, 1039, 1233, 1285
2636, 472, 611, 474, 470
2637, 1135, 1366, 1263, 1414
2638, 1274, 1318, 1084, 1558
2639, 1002, 1165, 1194, 1487
2640, 241, 1237, 253, 1438
2641, 1018, 1084, 1130, 1180
2642, 1035, 1258, 1220, 1422
2643, 80, 79, 1441, 1526
2644, 367, 1149, 346, 1349
2645, 992, 1104, 1123, 1310
2646, 774, 1200, 1067, 1445
2647, 1015, 1030, 1081, 1435
2648, 1182, 1386, 1256, 1449
2649, 1035, 1352, 1258, 1422
2650, 1101, 1321, 1173, 1512
2651, 425, 13, 121, 1114
2652, 81, 82, 317, 1365
2653, 280, 263, 259, 1462
2654, 1024, 1171, 1102, 1283
2655, 40, 1153, 1130, 1180
2656, 1130, 1219, 1204, 1331
2657, 1181, 1318, 1308, 1542
2658, 988, 1212, 1236, 1324
2659, 1223, 991, 1360, 1560
2660, 359, 335, 1476, 1532
2661, 78, 77, 1441, 1523
2662, 71, 1170, 1296, 1308
2663, 1018, 1204, 1130, 1274
2664, 632, 1403, 1098, 1440
2665, 71, 72, 1308, 1530
2666, 1002, 1194, 1302, 1538
2667, 1121, 1199, 1178, 1423
2668, 115, 14, 1240, 1322
2669, 327, 333, 334, 1289
2670, 1173, 1321, 1101, 1531
2671, 64, 1227, 65, 1291
2672, 1199, 1213, 1178, 1423
2673, 1139, 1163, 74, 1181
2674, 1118, 1254, 674, 1577
2675, 989, 1068, 1422, 1516
2676, 1223, 1298, 1260, 1356
2677, 1024, 1263, 1366, 1414
2678, 1035, 1347, 1223, 1560
2679, 1350, 1385, 1277, 1401
2680, 116, 117, 1192, 1303
2681, 48, 742, 296, 1333
2682, 37, 36, 1299, 1580
2683, 1097, 1039, 1339, 1388
2684, 1056, 1274, 1082, 1558
2685, 1045, 1158, 1031, 1392
2686, 120, 1148, 1235, 1283
2687, 1162, 1332, 1316, 1511
2688, 298, 1180, 2, 1387
2689, 769, 771, 1067, 1306
2690, 1136, 1266, 1016, 1436
2691, 1067, 1015, 1261, 1452
2692, 69, 1249, 68, 1524
2693, 1014, 1106, 1379, 1489
2694, 474, 471, 469, 1412
2695, 269, 270, 1143, 1495
2696, 1060, 1187, 1029, 1423
2697, 1162, 1332, 61, 1399
2698, 418, 414, 415, 1344
2699, 416, 418, 415, 1344
2700, 44, 45, 1185, 1382
2701, 289, 1146, 1332, 1580
2702, 48, 296, 250, 1333
2703, 1042, 1364, 697, 1397
2704, 483, 1439, 555, 1517
2705, 577, 1032, 610, 1225
2706, 1063, 1115, 1015, 1431
2707, 1023, 1183, 1148, 1491
2708, 1165, 1194, 992, 1302
2709, 1002, 1151, 1258, 1259
2710, 1042, 1397, 697, 1518
2711, 1041, 1156, 1097, 1436
2712, 1100, 1263, 1135, 1366
2713, 765, 766, 1033, 1271
2714, 643, 819, 1083, 1501
2715, 671, 1123, 1065, 1154
2716, 579, 1073, 1052, 1545
2717, 7, 1317, 1216, 1383
2718, 1113, 1059, 1276, 1344
2719, 116, 1121, 115, 1305
2720, 292, 239, 268, 1541
2721, 1017, 1326, 572, 1368
2722, 1117, 1277, 1249, 1278
2723, 413, 116, 117, 1389
2724, 1253, 1275, 1041, 1395
2725, 1028, 1331, 1091, 1490
2726, 573, 576, 1045, 1073
2727, 997, 1020, 1060, 1269
2728, 348, 311, 339, 1553
2729, 781, 1257, 1402, 1435
2730, 1011, 1020, 994, 1027
2731, 8, 1221, 1189, 1447
2732, 576, 1032, 579, 1392
2733, 252, 1153, 251, 1384
2734, 2, 1088, 1312, 1380
2735, 1175, 1352, 1016, 1415
2736, 710, 1321, 1136, 1518
2737, 75, 316, 76, 1370
2738, 1068, 1220, 1151, 1347
2739, 991, 1260, 1066, 1411
2740, 365, 1229, 6, 1230
2741, 1258, 1316, 989, 1352
2742, 1026, 1238, 1223, 1528
2743, 1347, 1360, 991, 1560
2744, 483, 1101, 646, 1203
2745, 1099, 1324, 1559, 1572
2746, 1049, 1009, 1239, 1371
2747, 998, 1083, 1311, 1405
2748, 1219, 1238, 1028, 1294
2749, 1015, 1117, 1081, 1170
2750, 40, 1180, 1130, 1380
2751, 1009, 1337, 1294, 1390
2752, 281, 272, 255, 1394
2753, 1277, 1401, 1385, 1431
2754, 246, 1295, 1146, 1580
2755, 1130, 1204, 1069, 1331
2756, 1099, 1021, 1324, 1572
2757, 347, 322, 321, 1525
2758, 1002, 1302, 1114, 1538
2759, 251, 252, 241, 1153
2760, 344, 88, 1152, 1456
2761, 245, 1109, 1268, 1413
2762, 1015, 1081, 1190, 1435
2763, 1023, 1235, 1302, 1591
2764, 20, 478, 1403, 1457
2765, 472, 467, 631, 1480
2766, 1010, 1260, 1147, 1298
2767, 321, 347, 338, 1529
2768, 1034, 1204, 1253, 1274
2769, 245, 1367, 1109, 1413
2770, 1164, 1288, 1252, 1341
2771, 1007, 993, 1100, 1135
2772, 1055, 1083, 1014, 1379
2773, 576, 1045, 1073, 1392
2774, 7, 1215, 1216, 1253
2775, 1236, 1475, 1324, 1552
2776, 595, 1187, 1052, 1376
2777, 998, 1025, 1145, 1405
2778, 122, 411, 123, 1255
2779, 1006, 1266, 1218, 1325
2780, 992, 1310, 1123, 1328
2781, 1164, 86, 1341, 1570
2782, 1058, 1356, 1204, 1459
2783, 1130, 1153, 40, 1416
2784, 1013, 1055, 1340, 1418
2785, 1147, 1299, 1064, 1377
2786, 278, 46, 47, 1333
2787, 58, 59, 1335, 1461
2788, 1220, 1258, 1068, 1422
2789, 363, 314, 352, 1513
2790, 145, 1355, 20, 1482
2791, 1025, 1131, 1169, 1285
2792, 1056, 1486, 1314, 1558
2793, 281, 246, 273, 1228
2794, 1091, 1069, 1295, 1299
2795, 332, 346, 328, 1349
2796, 356, 333, 370, 1513
2797, 85, 1288, 84, 1583
2798, 364, 8, 84, 1477
2799, 1005, 1236, 1324, 1552
2800, 1036, 1047, 1375, 1376
2801, 1035, 1220, 1258, 1347
2802, 360, 1195, 309, 1535
2803, 1097, 1122, 1388, 1424
2804, 343, 360, 342, 1453
2805, 553, 421, 414, 1272
2806, 37, 1299, 1295, 1580
2807, 1172, 1258, 1151, 1259
2808, 273, 1332, 1146, 1334
2809, 992, 1123, 1050, 1576
2810, 6, 365, 70, 1467
2811, 1023, 1148, 1288, 1491
2812, 360, 1369, 1195, 1535
2813, 1191, 1206, 1021, 1324
2814, 688, 1234, 1177, 1584
2815, 6, 1166, 1120, 1278
2816, 1018, 1204, 1082, 1395
2817, 121, 1184, 13, 1527
2818, 1101, 1173, 654, 1203
2819, 1238, 1245, 1026, 1360
2820, 1069, 1091, 1295, 1416
2821, 1007, 1365, 1135, 1428
2822, 1037, 1213, 1121, 1506
2823, 582, 1225, 1079, 1483
2824, 1349, 1371, 357, 1530
2825, 1107, 1268, 1143, 1495
2826, 577, 1225, 580, 1392
2827, 1076, 1171, 1102, 1359
2828, 8, 84, 1189, 1583
2829, 41, 247, 40, 1180
2830, 635, 472, 616, 1468
2831, 635, 476, 467, 810
2832, 356, 333, 334, 1504
2833, 1030, 1190, 1081, 1435
2834, 273, 271, 249, 1334
2835, 991, 1258, 1260, 1411
2836, 262, 260, 259, 1231
2837, 1058, 1356, 1352, 1415
2838, 987, 1318, 1009, 1542
2839, 1000, 1136, 1279, 1436
2840, 736, 300, 735, 1168
2841, 416, 532, 533, 1344
2842, 710, 702, 1136, 1321
2843, 421, 412, 423, 1281
2844, 1068, 1258, 1220, 1347
2845, 1147, 1298, 1064, 1299
2846, 300, 1168, 279, 1367
2847, 422, 1389, 1244, 1546
2848, 1123, 1177, 672, 1465
2849, 67, 1112, 66, 1265
2850, 306, 1208, 318, 1514
2851, 1029, 1187, 1036, 1423
2852, 1238, 1337, 1219, 1460
2853, 989, 1352, 1266, 1422
2854, 78, 77, 1251, 1441
2855, 1121, 1178, 1037, 1554
2856, 331, 312, 357, 1371
2857, 543, 1194, 1059, 1250
2858, 59, 1361, 60, 1503
2859, 1002, 1301, 1172, 1354
2860, 660, 1271, 803, 1338
2861, 302, 242, 1168, 1243
2862, 1173, 1203, 1101, 1512
2863, 328, 1224, 325, 1343
2864, 632, 1403, 1126, 1579
2865, 579, 594, 1052, 1073
2866, 67, 1247, 66, 1496
2867, 425, 113, 13, 1281
2868, 73, 305, 74, 1181
2869, 993, 1100, 1135, 1366
2870, 1119, 1384, 1180, 1552
2871, 331, 335, 329, 1529
2872, 573, 1073, 1045, 1563
2873, 1004, 1089, 1160, 1426
2874, 1235, 1252, 1059, 1591
2875, 1475, 1552, 1153, 1575
2876, 1026, 1110, 1049, 1193
2877, 81, 80, 1353, 1569
2878, 595, 1187, 1094, 1211
2879, 39, 241, 38, 1416
2880, 275, 274, 252, 1409
2881, 1056, 1082, 1274, 1317
2882, 987, 1115, 1063, 1294
2883, 355, 339, 316, 1342
2884, 295, 1332, 249, 1495
2885, 1081, 1030, 1197, 1418
2886, 39, 1248, 40, 1416
2887, 1010, 1299, 1146, 1575
2888, 63, 352, 64, 1297
2889, 1045, 1249, 1144, 1392
2890, 57, 245, 287, 1434
2891, 999, 1339, 1217, 1470
2892, 361, 337, 1285, 1342
2893, 1181, 1009, 1318, 1542
2894, 58, 1335, 59, 1399
2895, 328, 1205, 332, 1476
2896, 1039, 1388, 1122, 1391
2897, 271, 1332, 249, 1334
2898, 1032, 1073, 1052, 1196
2899, 269, 1268, 293, 1495
2900, 327, 326, 330, 1222
2901, 989, 1258, 1172, 1259
2902, 255, 1191, 272, 1438
2903, 88, 307, 87, 1430
2904, 67, 66, 1112, 1534
2905, 1081, 1170, 1117, 1278
2906, 1035, 1223, 1260, 1356
2907, 267, 264, 261, 1541
2908, 1164, 1195, 86, 1570
2909, 1030, 1063, 987, 1257
2910, 80, 1174, 1175, 1441
2911, 74, 73, 1308, 1508
2912, 279, 1168, 736, 1367
2913, 988, 1218, 1038, 1475
2914, 360, 351, 343, 1582
2915, 1024, 993, 1100, 1536
2916, 1007, 1122, 1365, 1424
2917, 65, 66, 1186, 1196
2918, 1005, 1236, 1212, 1324
2919, 6, 1278, 1277, 1458
2920, 44, 45, 1273, 1404
2921, 1038, 1324, 988, 1475
2922, 1010, 1298, 1299, 1575
2923, 1144, 1249, 1073, 1392
2924, 1070, 1127, 1062, 1410
2925, 1023, 1235, 1183, 1302
2926, 1107, 1316, 1162, 1332
2927, 635, 568, 810, 1468
2928, 1181, 1239, 1009, 1371
2929, 543, 1194, 1250, 1381
2930, 62, 1332, 61, 1511
2931, 58, 59, 1268, 1399
2932, 670, 1132, 1003, 1488
2933, 1117, 1401, 1277, 1431
2934, 1148, 1252, 1037, 1304
2935, 1013, 1166, 1081, 1562
2936, 1061, 1233, 77, 1342
2937, 358, 349, 1140, 1453
2938, 703, 1372, 1136, 1571
2939, 1017, 1161, 1047, 1247
2940, 1061, 1129, 999, 1522
2941, 272, 255, 280, 1191
2942, 367, 1149, 1349, 1496
2943, 575, 1158, 1045, 1392
2944, 1030, 1138, 1336, 1508
2945, 1123, 992, 1328, 1576
2946, 1002, 1151, 1363, 1533
2947, 246, 273, 289, 1146
2948, 1017, 1161, 1247, 1292
2949, 1020, 1027, 1116, 1391
2950, 1117, 1277, 1170, 1431
2951, 80, 81, 1262, 1424
2952, 280, 1143, 1191, 1413
2953, 578, 1392, 580, 1393
2954, 1084, 1248, 1130, 1380
2955, 1093, 1454, 1174, 1568
2956, 774, 1067, 1200, 1306
2957, 672, 1177, 1123, 1584
2958, 666, 1381, 1050, 1488
2959, 119, 1171, 118, 1303
2960, 1148, 1341, 1288, 1543
2961, 89, 88, 1213, 1544
2962, 474, 469, 1134, 1412
2963, 1146, 1147, 1010, 1479
2964, 340, 1208, 317, 1280
2965, 639, 592, 632, 1579
2966, 472, 611, 470, 1480
2967, 247, 274, 286, 1592
2968, 719, 1103, 744, 1212
2969, 75, 1317, 1139, 1370
2970, 1010, 1316, 1218, 1479
2971, 119, 1171, 1148, 1283
2972, 88, 89, 1152, 1327
2973, 280, 1191, 1143, 1334
2974, 1218, 1266, 1136, 1325
2975, 1145, 1379, 1083, 1405
2976, 992, 1104, 1250, 1381
2977, 989, 1422, 1266, 1516
2978, 1296, 1349, 357, 1530
2979, 315, 1229, 353, 1476
2980, 1084, 1180, 1085, 1380
2981, 45, 239, 46, 1433
2982, 1023, 1252, 1164, 1288
2983, 1081, 1278, 1166, 1458
2984, 147, 148, 1445, 1480
2985, 20, 1412, 478, 1482
2986, 468, 471, 473, 1482
2987, 1097, 1388, 1156, 1424
2988, 280, 256, 259, 1191
2989, 1102, 1184, 1024, 1283
2990, 269, 1268, 1143, 1413
2991, 1029, 1178, 1121, 1554
2992, 1008, 1328, 1310, 1561
2993, 64, 310, 352, 1351
2994, 116, 117, 1389, 1515
2995, 1088, 1219, 1084, 1248
2996, 367, 1222, 1149, 1496
2997, 71, 1197, 1170, 1308
2998, 1027, 1025, 1131, 1169
2999, 501, 1094, 997, 1211
3000, 1020, 1116, 1077, 1391
3001, 469, 470, 1468, 1579
3002, 1061, 1379, 1129, 1383
3003, 247, 1384, 1180, 1387
3004, 1061, 1129, 1039, 1233
3005, 474, 470, 611, 1480
3006, 339, 1233, 311, 1514
3007, 996, 1219, 1204, 1460
3008, 631, 472, 476, 467
3009, 40, 1130, 1248, 1380
3010, 1058, 1232, 1204, 1356
3011, 1163, 1181, 1139, 1318
3012, 1140, 1195, 1078, 1570
3013, 1011, 1032, 1485, 1545
3014, 766, 1033, 1271, 1306
3015, 991, 1238, 1360, 1378
3016, 766, 765, 1033, 1440
3017, 328, 332, 1349, 1371
3018, 1006, 1316, 1107, 1479
3019, 1002, 1151, 1301, 1363
3020, 1081, 1117, 1015, 1452
3021, 469, 474, 470, 1579
3022, 1183, 1235, 1148, 1283
3023, 1195, 1369, 360, 1453
3024, 247, 298, 286, 1387
3025, 583, 566, 668, 1368
3026, 1038, 1232, 1479, 1575
3027, 1130, 1180, 1084, 1380
3028, 1024, 1100, 1263, 1536
3029, 764, 1200, 1126, 1440
3030, 1048, 1172, 1354, 1505
3031, 69, 1229, 68, 1265
3032, 63, 5, 1291, 1351
3033, 1005, 1103, 1290, 1559
3034, 90, 363, 314, 1351
3035, 1055, 1138, 1025, 1379
3036, 781, 815, 1257, 1435
3037, 123, 1255, 14, 1256
3038, 367, 345, 368, 1222
3039, 80, 1441, 1175, 1526
3040, 77, 78, 355, 1233
3041, 1097, 1156, 1041, 1275
3042, 241, 1295, 38, 1416
3043, 1034, 1219, 1204, 1274
3044, 13, 1184, 1183, 1354
3045, 365, 353, 315, 1229
3046, 766, 764, 1033, 1200
3047, 412, 114, 426, 1159
3048, 1162, 1511, 1316, 1539
3049, 1055, 1025, 1137, 1405
3050, 666, 1123, 1050, 1381
3051, 1018, 1082, 1204, 1274
3052, 1063, 1308, 1163, 1318
3053, 6, 1120, 1249, 1278
3054, 272, 273, 281, 1438
3055, 249, 1332, 271, 1495
3056, 1260, 1298, 1010, 1356
3057, 1032, 1052, 1011, 1196
3058, 284, 1185, 276, 1384
3059, 258, 256, 259, 1330
3060, 1177, 1234, 995, 1584
3061, 616, 568, 635, 1468
3062, 1028, 1091, 1065, 1238
3063, 1114, 1183, 121, 1235
3064, 357, 312, 353, 1530
3065, 239, 1333, 268, 1541
3066, 334, 1222, 333, 1513
3067, 1050, 1487, 1132, 1488
3068, 1093, 1174, 1026, 1568
3069, 80, 1174, 79, 1454
3070, 1063, 1294, 1115, 1431
3071, 345, 310, 65, 1186
3072, 46, 1125, 47, 1333
3073, 992, 1104, 1310, 1507
3074, 1013, 1055, 1166, 1562
3075, 275, 257, 276, 1330
3076, 680, 1402, 1115, 1577
3077, 239, 278, 268, 1333
3078, 6, 70, 1170, 1296
3079, 336, 1239, 305, 1371
3080, 1017, 1073, 609, 1563
3081, 987, 1009, 1294, 1542
3082, 1004, 1426, 1160, 1505
3083, 1082, 1215, 1216, 1396
3084, 1065, 1238, 1091, 1319
3085, 1042, 1214, 1216, 1421
3086, 1256, 1449, 1386, 1450
3087, 1136, 1266, 1218, 1510
3088, 287, 245, 291, 1367
3089, 311, 1521, 339, 1553
3090, 1108, 1191, 1038, 1324
3091, 322, 1481, 321, 1553
3092, 1018, 1395, 1236, 1475
3093, 997, 1060, 1029, 1269
3094, 71, 72, 1197, 1308
3095, 1209, 1397, 1042, 1518
3096, 287, 245, 1367, 1434
3097, 1064, 1223, 991, 1537
3098, 1119, 1185, 244, 1384
3099, 553, 421, 1272, 1281
3100, 72, 73, 1437, 1508
3101, 1050, 1123, 1154, 1576
3102, 1008, 1110, 1360, 1589
3103, 1025, 1138, 1129, 1379
3104, 1002, 1172, 1151, 1259
3105, 1018, 1130, 1084, 1274
3106, 265, 266, 291, 1413
3107, 1258, 1260, 1035, 1347
3108, 1121, 1178, 1029, 1423
3109, 81, 1175, 80, 1569
3110, 703, 1136, 1202, 1571
3111, 1016, 1415, 1266, 1510
3112, 781, 1257, 815, 1402
3113, 1108, 1038, 1191, 1237
3114, 315, 357, 353, 1467
3115, 13, 1183, 1114, 1354
3116, 244, 44, 1119, 1387
3117, 1018, 1119, 1085, 1180
3118, 71, 1230, 72, 1476
3119, 415, 419, 118, 1515
3120, 35, 36, 1377, 1587
3121, 87, 86, 1195, 1570
3122, 579, 1032, 577, 1392
3123, 1013, 1067, 1176, 1452
3124, 252, 1237, 1153, 1384
3125, 421, 412, 426, 1427
3126, 90, 5, 1327, 1423
3127, 13, 113, 425, 1159
3128, 1097, 1122, 1039, 1388
3129, 1221, 1189, 1363, 1583
3130, 1070, 1127, 1385, 1524
3131, 719, 749, 1103, 1559
3132, 744, 1212, 1103, 1279
3133, 1073, 1249, 1032, 1392
3134, 631, 611, 472, 1480
3135, 1145, 1379, 1217, 1501
3136, 1068, 1151, 1258, 1347
3137, 1063, 1015, 1081, 1170
3138, 6, 1166, 70, 1230
3139, 990, 1216, 1214, 1421
3140, 610, 1225, 1032, 1545
3141, 1191, 1206, 1108, 1492
3142, 1073, 1144, 1045, 1563
3143, 1140, 307, 1453, 1570
3144, 115, 1121, 116, 1484
3145, 1010, 1218, 1316, 1352
3146, 121, 1183, 1184, 1283
3147, 1279, 1436, 1136, 1510
3148, 517, 1114, 1059, 1194
3149, 996, 1204, 1219, 1331
3150, 501, 503, 559, 1557
3151, 262, 266, 285, 1241
3152, 813, 1340, 1014, 1419
3153, 360, 1369, 342, 1453
3154, 662, 646, 483, 1101
3155, 1047, 1161, 1017, 1292
3156, 1066, 1132, 1003, 1162
3157, 580, 582, 581, 1483
3158, 987, 1030, 1257, 1314
3159, 241, 1153, 252, 1237
3160, 1218, 1415, 1325, 1510
3161, 361, 1139, 337, 1521
3162, 14, 1240, 1322, 1420
3163, 1, 1132, 1154, 1287
3164, 81, 1122, 306, 1262
3165, 1010, 1232, 1218, 1415
3166, 1069, 1298, 1232, 1575
3167, 334, 1140, 1289, 1513
3168, 416, 415, 419, 1344
3169, 57, 1188, 56, 1335
3170, 999, 1217, 1145, 1379
3171, 87, 1195, 1453, 1570
3172, 1006, 1136, 1266, 1325
3173, 1134, 1226, 148, 1480
3174, 997, 1094, 501, 1133
3175, 1277, 1350, 1045, 1385
3176, 995, 1123, 1104, 1310
3177, 1044, 1125, 727, 1499
3178, 289, 249, 297, 1332
3179, 1007, 1135, 1100, 1428
3180, 1136, 1321, 1090, 1436
3181, 145, 478, 20, 1457
3182, 5, 1187, 1375, 1548
3183, 1016, 1156, 1041, 1510
3184, 1013, 1284, 1176, 1306
3185, 119, 1171, 1303, 1304
3186, 677, 583, 668, 1368
3187, 1145, 1083, 1379, 1501
3188, 75, 1317, 76, 1336
3189, 420, 415, 414, 1344
3190, 996, 1069, 1204, 1331
3191, 64, 1161, 65, 1247
3192, 1000, 1339, 1173, 1388
3193, 309, 85, 86, 1477
3194, 1034, 1274, 1253, 1317
3195, 340, 1280, 317, 1365
3196, 997, 1029, 1060, 1187
3197, 652, 1217, 1209, 1397
3198, 993, 1024, 1100, 1366
3199, 41, 2, 1180, 1380
3200, 555, 1517, 1439, 1565
3201, 334, 1289, 1222, 1513
3202, 698, 697, 1397, 1518
3203, 259, 1191, 1206, 1413
3204, 348, 1454, 311, 1553
3205, 1027, 1373, 1011, 1555
3206, 1001, 1390, 1062, 1542
3207, 623, 1079, 660, 1338
3208, 516, 1276, 515, 1344
3209, 1093, 1026, 1193, 1568
3210, 1085, 1119, 1018, 1474
3211, 1081, 1190, 1013, 1452
3212, 1109, 1367, 1168, 1413
3213, 306, 1122, 318, 1208
3214, 1064, 991, 1287, 1537
3215, 1029, 1121, 1192, 1554
3216, 1204, 1219, 1034, 1460
3217, 1078, 1140, 1008, 1195
3218, 47, 48, 250, 1333
3219, 501, 559, 997, 1557
3220, 992, 1250, 1104, 1507
3221, 1175, 1275, 1156, 1526
3222, 1023, 1183, 1301, 1302
3223, 1067, 1013, 1190, 1452
3224, 987, 1063, 1163, 1318
3225, 996, 1204, 1459, 1460
3226, 1069, 1299, 1298, 1575
3227, 69, 68, 1249, 1265
3228, 1031, 1225, 1120, 1392
3229, 1, 1287, 1319, 1377
3230, 1025, 1027, 1131, 1555
3231, 39, 251, 241, 1153
3232, 1015, 1117, 1170, 1431
3233, 266, 1367, 291, 1413
3234, 345, 368, 1222, 1297
3235, 505, 1102, 1076, 1300
3236, 991, 1328, 1165, 1378
3237, 63, 1291, 5, 1548
3238, 1086, 1313, 760, 1320
3239, 1029, 1269, 1060, 1423
3240, 572, 1326, 1017, 1563
3241, 1013, 1190, 1081, 1418
3242, 369, 1349, 357, 1467
3243, 994, 1167, 1011, 1373
3244, 1065, 1091, 1028, 1587
3245, 1002, 1194, 1165, 1302
3246, 702, 1090, 1136, 1321
3247, 1032, 1196, 1011, 1485
3248, 367, 330, 1149, 1222
3249, 674, 1326, 1118, 1577
3250, 639, 632, 1126, 1579
3251, 1093, 1193, 1049, 1553
3252, 89, 314, 344, 1152
3253, 322, 321, 1525, 1553
3254, 1139, 1181, 361, 1239
3255, 1041, 1097, 1215, 1315
3256, 1082, 1253, 1041, 1395
3257, 1007, 1357, 1203, 1408
3258, 119, 1148, 1171, 1304
3259, 315, 369, 341, 1229
3260, 6, 1296, 1070, 1467
3261, 250, 278, 290, 1417
3262, 998, 1145, 1083, 1405
3263, 1260, 1352, 1035, 1356
3264, 1035, 1175, 1174, 1356
3265, 517, 543, 1059, 1250
3266, 289, 246, 1146, 1580
3267, 272, 1191, 280, 1334
3268, 1136, 1016, 1266, 1510
3269, 6, 1166, 1278, 1458
3270, 1146, 1295, 246, 1438
3271, 1182, 1376, 1256, 1386
3272, 272, 280, 270, 1334
3273, 558, 1104, 520, 1250
3274, 273, 1146, 246, 1438
3275, 281, 273, 246, 1438
3276, 1103, 1290, 749, 1364
3277, 361, 74, 75, 1551
3278, 368, 330, 367, 1222
3279, 64, 310, 65, 1297
3280, 1079, 656, 1271, 1443
3281, 1117, 1158, 1045, 1350
3282, 1009, 1139, 1181, 1318
3283, 1036, 1182, 1047, 1376
3284, 422, 413, 424, 1389
3285, 543, 517, 1059, 1194
3286, 1156, 1275, 1097, 1526
3287, 1325, 1415, 988, 1510
3288, 318, 319, 320, 1193
3289, 1128, 1247, 1127, 1496
3290, 501, 1133, 503, 1557
3291, 1187, 5, 1291, 1548
3292, 1143, 1268, 269, 1495
3293, 803, 804, 802, 1338
3294, 6, 70, 1296, 1467
3295, 1023, 1301, 1363, 1591
3296, 540, 1003, 1309, 1345
3297, 1119, 1180, 1018, 1552
3298, 803, 1271, 804, 1338
3299, 991, 1287, 1154, 1411
3300, 47, 250, 48, 1207
3301, 1034, 1253, 1204, 1459
3302, 1006, 1218, 1266, 1316
3303, 740, 742, 48, 1333
3304, 469, 474, 1134, 1480
3305, 996, 1459, 1356, 1528
3306, 575, 574, 1045, 1158
3307, 1007, 1040, 1424, 1428
3308, 1049, 1062, 1009, 1371
3309, 1010, 1218, 1352, 1415
3310, 344, 307, 88, 1456
3311, 1056, 1214, 1486, 1558
3312, 260, 261, 258, 1330
3313, 818, 1282, 1086, 1486
3314, 86, 1288, 85, 1583
3315, 13, 113, 1159, 1160
3316, 1204, 1253, 1058, 1459
3317, 80, 1175, 1174, 1353
3318, 1039, 1097, 1061, 1233
3319, 1218, 1232, 1038, 1475
3320, 277, 242, 302, 1243
3321, 999, 1339, 1039, 1388
3322, 1091, 1065, 1319, 1587
3323, 1082, 1253, 1204, 1274
3324, 1075, 513, 1250, 1449
3325, 1001, 1115, 1294, 1431
3326, 317, 1280, 1208, 1365
3327, 1171, 1283, 119, 1527
3328, 1117, 1045, 1277, 1350
3329, 20, 478, 145, 1482
3330, 261, 264, 267, 1417
3331, 80, 79, 1174, 1441
3332, 996, 1356, 1223, 1528
3333, 1036, 1029, 1322, 1420
3334, 1089, 1002, 1354, 1538
3335, 1176, 1284, 1033, 1306
3336, 289, 273, 246, 1307
3337, 1107, 1332, 1399, 1495
3338, 6, 1277, 1170, 1458
3339, 1063, 1308, 1318, 1542
3340, 1081, 1190, 1030, 1418
3341, 615, 616, 474, 1579
3342, 1010, 1479, 1232, 1575
3343, 73, 1437, 1138, 1532
3344, 1037, 1121, 1305, 1506
3345, 281, 273, 272, 1362
3346, 6, 70, 1166, 1458
3347, 1006, 1136, 1325, 1372
3348, 1107, 1143, 1334, 1495
3349, 1067, 1190, 1013, 1306
3350, 1024, 1171, 1150, 1366
3351, 713, 654, 1101, 1531
3352, 20, 1261, 150, 1412
3353, 6, 69, 1467, 1524
3354, 487, 1004, 1089, 1473
3355, 819, 793, 1083, 1501
3356, 1121, 1199, 1019, 1213
3357, 422, 424, 411, 1244
3358, 1016, 1156, 1175, 1275
3359, 1170, 1197, 71, 1458
3360, 1251, 1441, 1253, 1459
3361, 705, 1325, 1136, 1372
3362, 999, 1061, 1039, 1339
3363, 344, 307, 334, 1513
3364, 361, 337, 1139, 1239
3365, 306, 318, 317, 1353
3366, 351, 307, 87, 1453
3367, 1107, 1006, 1143, 1268
3368, 1128, 1161, 65, 1297
3369, 1022, 1171, 1150, 1543
3370, 339, 355, 311, 1233
3371, 240, 293, 59, 1495
3372, 1143, 1168, 1109, 1372
3373, 88, 307, 1430, 1456
3374, 1015, 1063, 1030, 1435
3375, 1007, 1388, 1122, 1424
3376, 1089, 1160, 494, 1329
3377, 1214, 1282, 990, 1364
3378, 289, 1332, 297, 1580
3379, 75, 361, 316, 1139
3380, 1119, 1236, 1018, 1474
3381, 342, 1453, 1110, 1481
3382, 1183, 1189, 1048, 1491
3383, 670, 1050, 671, 1132
3384, 640, 582, 580, 1225
3385, 270, 1334, 1143, 1495
3386, 276, 1384, 1185, 1451
3387, 766, 1200, 1033, 1306
3388, 1120, 998, 1225, 1562
3389, 335, 305, 359, 1181
3390, 1023, 1148, 1235, 1252
3391, 1037, 1148, 1304, 1543
3392, 276, 292, 284, 1433
3393, 90, 5, 1199, 1573
3394, 993, 1102, 1024, 1366
3395, 1020, 1027, 1092, 1116
3396, 992, 1050, 1123, 1381
3397, 1232, 1298, 1010, 1575
3398, 1035, 1352, 1175, 1356
3399, 1223, 1356, 1174, 1528
3400, 326, 325, 1224, 1343
3401, 20, 1261, 1176, 1429
3402, 1056, 1216, 1082, 1317
3403, 328, 346, 326, 1149
3404, 324, 1289, 1481, 1525
3405, 63, 1297, 64, 1374
3406, 1002, 1411, 1151, 1533
3407, 698, 1397, 1209, 1518
3408, 1212, 1236, 1103, 1396
3409, 997, 1246, 559, 1498
3410, 1023, 1288, 1189, 1491
3411, 719, 694, 749, 1559
3412, 1082, 1236, 1018, 1395
3413, 5, 1374, 1199, 1573
3414, 1084, 1318, 1314, 1558
3415, 39, 1153, 241, 1416
3416, 1013, 1284, 1271, 1311
3417, 1003, 1132, 1487, 1488
3418, 1183, 1283, 1148, 1491
3419, 1136, 1218, 1325, 1510
3420, 1047, 995, 1142, 1161
3421, 77, 1253, 1251, 1441
3422, 257, 275, 254, 1394
3423, 1129, 1379, 1138, 1551
3424, 501, 997, 1133, 1557
3425, 149, 1412, 150, 1429
3426, 1011, 1052, 1032, 1545
3427, 577, 579, 610, 1032
3428, 1063, 1294, 1001, 1542
3429, 119, 1235, 1148, 1304
3430, 116, 1192, 1121, 1305
3431, 652, 658, 1209, 1217
3432, 677, 1234, 583, 1368
3433, 749, 1290, 1103, 1559
3434, 1017, 1144, 1073, 1563
3435, 361, 1129, 75, 1342
3436, 1011, 1373, 1444, 1485
3437, 1356, 1459, 1174, 1528
3438, 343, 358, 349, 1582
3439, 1064, 1299, 1091, 1377
3440, 1174, 1175, 1035, 1560
3441, 87, 86, 1341, 1544
3442, 328, 332, 1205, 1343
3443, 1110, 1195, 1140, 1453
3444, 990, 1282, 1214, 1558
3445, 81, 80, 1175, 1549
3446, 267, 1243, 264, 1541
3447, 428, 422, 115, 1464
3448, 46, 1185, 1125, 1333
3449, 646, 1101, 654, 1203
3450, 990, 1056, 1214, 1216
3451, 1103, 1236, 1005, 1290
3452, 541, 662, 483, 1101
3453, 1056, 1318, 1274, 1558
3454, 346, 1205, 332, 1343
3455, 43, 1387, 42, 1425
3456, 115, 1240, 1121, 1322
3457, 615, 598, 616, 1579
3458, 355, 1233, 339, 1342
3459, 1267, 1312, 1085, 1425
3460, 994, 1020, 1011, 1167
3461, 78, 1233, 77, 1520
3462, 64, 65, 1186, 1291
3463, 292, 276, 284, 1185
3464, 260, 1206, 261, 1578
3465, 1172, 1301, 1048, 1354
3466, 591, 632, 1098, 1440
3467, 593, 609, 572, 1017
3468, 1142, 1310, 1574, 1586
3469, 582, 1079, 589, 1483
3470, 267, 290, 1432, 1541
3471, 766, 1033, 764, 1440
3472, 1174, 1035, 1356, 1560
3473, 1005, 1125, 1119, 1185
3474, 1216, 1253, 1082, 1317
3475, 1063, 1115, 987, 1257
3476, 1225, 1284, 1079, 1483
3477, 1041, 1253, 1215, 1523
3478, 1060, 1187, 5, 1291
3479, 1301, 1302, 1002, 1591
3480, 20, 1176, 1261, 1358
3481, 723, 1125, 1099, 1333
3482, 589, 1079, 1338, 1483
3483, 414, 534, 1272, 1344
3484, 1010, 1298, 1147, 1299
3485, 1010, 1147, 1146, 1299
3486, 1303, 1305, 1037, 1554
3487, 516, 515, 1059, 1344
3488, 1086, 1314, 1257, 1486
3489, 1056, 990, 1214, 1558
3490, 1084, 1088, 987, 1219
3491, 765, 1271, 1033, 1338
3492, 574, 1045, 1158, 1350
3493, 1175, 1560, 1353, 1569
3494, 996, 1223, 1490, 1528
3495, 1022, 1359, 1286, 1366
3496, 1156, 1388, 1097, 1436
3497, 74, 1532, 73, 1551
3498, 1031, 1392, 1158, 1393
3499, 1028, 1091, 1238, 1490
3500, 326, 1149, 1289, 1525
3501, 1174, 1356, 1223, 1560
3502, 1226, 1445, 148, 1480
3503, 1034, 1459, 1204, 1460
3504, 1303, 1304, 1148, 1543
3505, 997, 1094, 1029, 1187
3506, 575, 634, 574, 1158
3507, 990, 1082, 1056, 1216
3508, 577, 610, 580, 1225
3509, 332, 346, 366, 1205
3510, 1082, 1216, 1215, 1253
3511, 573, 609, 1073, 1563
3512, 13, 1184, 1159, 1527
3513, 7, 1061, 1342, 1383
3514, 986, 1065, 1028, 1465
3515, 576, 575, 1045, 1392
3516, 5, 90, 1327, 1351
3517, 696, 697, 1364, 1397
3518, 1151, 1221, 1189, 1363
3519, 647, 649, 994, 1398
3520, 342, 318, 340, 1208
3521, 321, 347, 1525, 1553
3522, 705, 1212, 744, 1279
3523, 255, 272, 280, 1394
3524, 1024, 1171, 1148, 1543
3525, 993, 1102, 1054, 1184
3526, 269, 240, 293, 1461
3527, 72, 1137, 359, 1476
3528, 774, 1067, 1226, 1445
3529, 1063, 1257, 1030, 1435
3530, 71, 1308, 1296, 1530
3531, 1144, 1385, 1127, 1524
3532, 1093, 1049, 1239, 1553
3533, 553, 414, 534, 1272
3534, 5, 363, 90, 1351
3535, 578, 1158, 1392, 1393
3536, 818, 1086, 1257, 1486
3537, 1066, 1260, 1258, 1411
3538, 765, 1338, 1033, 1440
3539, 1046, 1134, 777, 1226
3540, 333, 1222, 334, 1289
3541, 328, 1131, 329, 1529
3542, 987, 1294, 1063, 1542
3543, 1332, 1334, 271, 1495
3544, 1028, 1238, 1219, 1331
3545, 666, 671, 1050, 1123
3546, 565, 1187, 595, 1376
3547, 414, 536, 418, 1427
3548, 1002, 1259, 1258, 1411
3549, 58, 57, 1188, 1268
3550, 992, 1123, 1104, 1381
3551, 13, 1160, 1159, 1184
3552, 1147, 1260, 1010, 1316
3553, 118, 1304, 1303, 1305
3554, 86, 1195, 1164, 1346
3555, 648, 1167, 994, 1444
3556, 318, 320, 319, 1208
3557, 1084, 1130, 1219, 1274
3558, 1026, 1174, 1353, 1568
3559, 35, 297, 1, 1147
3560, 1328, 1378, 1123, 1576
3561, 1170, 1277, 1117, 1278
3562, 1043, 1003, 1539, 1540
3563, 357, 1296, 353, 1467
3564, 1454, 1521, 311, 1553
3565, 1098, 1403, 632, 1579
3566, 74, 1181, 1163, 1308
3567, 1214, 1216, 1056, 1547
3568, 1148, 1183, 1023, 1235
3569, 1033, 1403, 1126, 1440
3570, 1043, 1107, 1316, 1539
3571, 1010, 1352, 1260, 1356
3572, 1036, 1187, 1375, 1423
3573, 593, 1017, 572, 1368
3574, 356, 334, 1456, 1504
3575, 487, 1089, 1004, 1426
3576, 469, 1126, 148, 1403
3577, 1005, 1290, 1236, 1474
3578, 1066, 1511, 1162, 1539
3579, 362, 77, 1233, 1342
3580, 565, 1094, 595, 1187
3581, 272, 1191, 1334, 1438
3582, 1048, 1189, 1183, 1301
3583, 1106, 1470, 1217, 1489
3584, 286, 244, 274, 1384
3585, 1010, 1146, 1479, 1575
3586, 149, 148, 1200, 1403
3587, 1019, 1113, 1075, 1305
3588, 1090, 1266, 1436, 1516
3589, 770, 1190, 771, 1306
3590, 1014, 1083, 1055, 1340
3591, 318, 1122, 317, 1208
3592, 262, 259, 263, 1462
3593, 1006, 1268, 1043, 1571
3594, 421, 426, 554, 1427
3595, 78, 1520, 77, 1523
3596, 595, 1052, 594, 1376
3597, 988, 1212, 1279, 1396
3598, 326, 328, 1149, 1525
3599, 994, 1027, 1020, 1391
3600, 517, 1059, 515, 1250
3601, 1045, 1249, 1117, 1277
3602, 261, 1206, 1541, 1578
3603, 245, 1109, 57, 1268
3604, 57, 1109, 245, 1434
3605, 1091, 1319, 1238, 1490
3606, 1025, 1131, 1057, 1555
3607, 1154, 1242, 1, 1319
3608, 64, 65, 1227, 1247
3609, 769, 770, 771, 1306
3610, 1108, 1384, 1119, 1552
3611, 1023, 1189, 1183, 1491
3612, 292, 1185, 239, 1541
3613, 327, 334, 333, 1519
3614, 1295, 1299, 1146, 1580
3615, 342, 1369, 320, 1481
3616, 1374, 1513, 1293, 1573
3617, 997, 1187, 1060, 1556
3618, 306, 318, 1353, 1568
3619, 1037, 1341, 1213, 1506
3620, 1114, 1194, 519, 1538
3621, 1314, 1486, 1282, 1558
3622, 117, 118, 1113, 1276
3623, 1042, 1315, 1209, 1518
3624, 87, 1341, 86, 1570
3625, 324, 326, 325, 1224
3626, 621, 620, 146, 1355
3627, 656, 660, 1079, 1271
3628, 256, 259, 1191, 1206
3629, 1011, 1027, 994, 1373
3630, 1028, 1238, 1331, 1490
3631, 1081, 1166, 1055, 1458
3632, 322, 323, 324, 1224
3633, 782, 801, 1254, 1402
3634, 351, 87, 1195, 1453
3635, 70, 71, 1437, 1458
3636, 1030, 1308, 1197, 1508
3637, 1288, 1341, 1150, 1543
3638, 1151, 1220, 1068, 1448
3639, 75, 1163, 1139, 1317
3640, 1019, 1574, 1310, 1586
3641, 616, 1126, 568, 1468
3642, 272, 1334, 273, 1438
3643, 1019, 1310, 1182, 1507
3644, 1223, 1238, 991, 1537
3645, 1121, 1240, 115, 1305
3646, 273, 289, 249, 1455
3647, 85, 84, 1288, 1414
3648, 1253, 1274, 1082, 1317
3649, 713, 1101, 1321, 1531
3650, 362, 76, 7, 1342
3651, 1253, 1441, 77, 1523
3652, 1061, 1106, 1379, 1383
3653, 255, 272, 281, 1438
3654, 7, 1253, 1317, 1370
3655, 269, 1143, 270, 1413
3656, 1117, 1081, 1278, 1452
3657, 1098, 1403, 1033, 1440
3658, 283, 241, 38, 1409
3659, 1038, 1552, 1475, 1575
3660, 558, 1104, 513, 1449
3661, 267, 264, 301, 1417
3662, 1051, 1363, 1533, 1591
3663, 993, 1246, 1286, 1408
3664, 1154, 1123, 1537, 1576
3665, 1021, 1372, 1325, 1572
3666, 1223, 1528, 1174, 1560
3667, 735, 1168, 242, 1243
3668, 674, 1118, 570, 1254
3669, 1059, 1252, 1235, 1304
3670, 334, 1504, 333, 1519
3671, 1235, 1252, 1148, 1304
3672, 1139, 1251, 1093, 1521
3673, 1032, 1120, 1225, 1392
3674, 275, 276, 294, 1270
3675, 6, 1070, 1277, 1467
3676, 1059, 1302, 1235, 1591
3677, 1148, 1171, 1024, 1283
3678, 694, 1290, 749, 1559
3679, 1211, 1498, 626, 1564
3680, 595, 1052, 1187, 1211
3681, 286, 244, 1384, 1387
3682, 1008, 1310, 1123, 1494
3683, 572, 1326, 566, 1368
3684, 418, 1300, 536, 1389
3685, 710, 1136, 1279, 1518
3686, 1219, 1337, 1009, 1460
3687, 1063, 1170, 1081, 1197
3688, 997, 1060, 1020, 1556
3689, 999, 1217, 1379, 1470
3690, 1026, 1223, 1360, 1560
3691, 360, 1280, 351, 1582
3692, 573, 609, 576, 1073
3693, 771, 1067, 1190, 1497
3694, 1179, 1444, 1167, 1564
3695, 1192, 1322, 1029, 1484
3696, 280, 259, 256, 1394
3697, 658, 1173, 1209, 1398
3698, 342, 1369, 1110, 1453
3699, 774, 1200, 769, 1306
3700, 45, 284, 239, 1433
3701, 1215, 1041, 1315, 1396
3702, 1031, 1117, 1278, 1358
3703, 1030, 1336, 1163, 1508
3704, 988, 1395, 1396, 1415
3705, 570, 1118, 674, 1326
3706, 1062, 1127, 1012, 1410
3707, 1217, 1379, 1106, 1489
3708, 1175, 1353, 80, 1569
3709, 119, 120, 1235, 1272
3710, 1174, 1175, 1058, 1356
3711, 1117, 1358, 1261, 1452
3712, 611, 612, 474, 1134
3713, 531, 416, 417, 1276
3714, 1080, 1309, 1003, 1345
3715, 1045, 1144, 1073, 1392
3716, 326, 1149, 330, 1222
3717, 355, 311, 78, 1251
3718, 355, 362, 1233, 1342
3719, 252, 251, 274, 1384
3720, 1282, 1314, 1086, 1486
3721, 1119, 1125, 1005, 1474
3722, 1016, 1422, 1175, 1549
3723, 468, 477, 473, 1457
3724, 334, 307, 358, 1140
3725, 1013, 1176, 1067, 1306
3726, 116, 1303, 1192, 1305
3727, 1004, 1048, 1172, 1210
3728, 578, 1158, 634, 1392
3729, 1042, 1214, 1106, 1216
3730, 999, 1173, 1339, 1388
3731, 1019, 1075, 1240, 1305
3732, 1017, 1047, 1073, 1247
3733, 1019, 1199, 1121, 1240
3734, 1029, 1094, 997, 1133
3735, 999, 1039, 1357, 1388
3736, 1011, 1186, 1112, 1196
3737, 68, 1229, 67, 1265
3738, 69, 1120, 1229, 1249
3739, 41, 298, 247, 1180
3740, 1069, 1153, 1130, 1416
3741, 616, 1126, 1468, 1579
3742, 81, 317, 1122, 1365
3743, 1066, 1003, 1487, 1539
3744, 1471, 1505, 1210, 1536
3745, 1183, 1235, 1114, 1302
3746, 559, 521, 1246, 1359
3747, 87, 86, 351, 1195
3748, 1285, 1476, 335, 1532
3749, 760, 818, 1086, 1257
3750, 1258, 1316, 1260, 1539
3751, 559, 503, 521, 1359
3752, 1119, 1384, 244, 1387
3753, 1078, 1195, 1164, 1570
3754, 1076, 1359, 503, 1557
3755, 285, 266, 300, 1241
3756, 1167, 1011, 1373, 1444
3757, 6, 1467, 1277, 1524
3758, 990, 1018, 1085, 1558
3759, 331, 329, 1131, 1529
3760, 750, 1209, 645, 1531
3761, 1023, 1183, 1189, 1301
3762, 271, 270, 240, 1495
3763, 123, 1244, 122, 1323
3764, 114, 412, 113, 1159
3765, 1024, 1150, 1148, 1288
3766, 1179, 1444, 1011, 1556
3767, 1037, 1303, 1304, 1305
3768, 705, 1136, 1212, 1279
3769, 1090, 1202, 1136, 1266
3770, 1195, 1140, 1453, 1570
3771, 349, 334, 1140, 1289
3772, 568, 1126, 761, 1468
3773, 14, 1255, 1240, 1256
3774, 1138, 1379, 1106, 1551
3775, 766, 773, 764, 1200
3776, 75, 1139, 316, 1370
3777, 356, 344, 314, 1152
3778, 314, 89, 90, 1327
3779, 322, 1525, 1481, 1553
3780, 1128, 1247, 1161, 1292
3781, 1083, 1311, 1055, 1340
3782, 150, 1403, 149, 1429
3783, 341, 315, 68, 1467
3784, 1062, 1181, 1009, 1371
3785, 1140, 1078, 1293, 1570
3786, 316, 361, 75, 1342
3787, 305, 1181, 335, 1371
3788, 1081, 1055, 1197, 1458
3789, 38, 1416, 37, 1469
3790, 1026, 1174, 1093, 1528
3791, 1151, 1221, 1220, 1448
3792, 1069, 996, 1298, 1331
3793, 1107, 1143, 1006, 1479
3794, 1256, 1376, 1036, 1420
3795, 1055, 1379, 1025, 1405
3796, 634, 1158, 575, 1392
3797, 1015, 1190, 1067, 1497
3798, 45, 1125, 1185, 1382
3799, 1018, 1204, 1395, 1475
3800, 671, 1132, 1154, 1242
3801, 1289, 1453, 349, 1481
3802, 1039, 1061, 999, 1522
3803, 84, 1221, 1346, 1583
3804, 148, 1226, 1134, 1412
3805, 610, 1179, 640, 1225
3806, 1003, 1162, 1132, 1503
3807, 1021, 1206, 1168, 1243
3808, 639, 1126, 598, 1579
3809, 1025, 1129, 1039, 1522
3810, 1012, 1127, 1062, 1349
3811, 1153, 1295, 241, 1416
3812, 1180, 1384, 1119, 1387
3813, 1076, 1022, 1359, 1557
3814, 342, 1110, 1369, 1481
3815, 1078, 1195, 1008, 1328
3816, 1282, 1486, 1214, 1558
3817, 1174, 1353, 1175, 1560
3818, 483, 1203, 646, 1439
3819, 1016, 1136, 1436, 1510
3820, 1156, 1436, 1041, 1510
3821, 766, 764, 765, 1440
3822, 1024, 1148, 1150, 1543
3823, 302, 1243, 1168, 1578
3824, 1208, 1280, 1116, 1391
3825, 421, 426, 412, 1281
3826, 631, 800, 762, 1480
3827, 1153, 1438, 1295, 1575
3828, 555, 1426, 1101, 1517
3829, 516, 1059, 1272, 1344
3830, 1004, 1048, 1210, 1505
3831, 347, 322, 325, 1224
3832, 793, 1271, 1083, 1340
3833, 1107, 1334, 1143, 1479
3834, 39, 1264, 1248, 1469
3835, 989, 1172, 1068, 1478
3836, 60, 1399, 59, 1503
3837, 1038, 1232, 1218, 1479
3838, 59, 1399, 1335, 1503
3839, 760, 1086, 789, 1313
3840, 1129, 1106, 1379, 1551
3841, 359, 305, 73, 1181
3842, 987, 1063, 1318, 1542
3843, 1010, 1107, 1316, 1479
3844, 555, 1426, 1517, 1565
3845, 1109, 1143, 1006, 1268
3846, 576, 579, 577, 1392
3847, 579, 610, 1032, 1545
3848, 1021, 1168, 1143, 1372
3849, 705, 706, 1325, 1372
3850, 1164, 1195, 1078, 1328
3851, 1246, 1359, 1286, 1557
3852, 1041, 1396, 1395, 1415
3853, 1007, 1122, 1388, 1391
3854, 1155, 1178, 1150, 1544
3855, 791, 1126, 773, 1468
3856, 256, 258, 259, 1206
3857, 1176, 1429, 1261, 1452
3858, 6, 1249, 69, 1524
3859, 801, 1257, 815, 1320
3860, 1091, 1298, 1069, 1299
3861, 1145, 1379, 1025, 1522
3862, 354, 340, 313, 1280
3863, 342, 320, 323, 1481
3864, 121, 423, 425, 1272
3865, 1190, 1306, 770, 1340
3866, 1007, 1100, 1040, 1428
3867, 747, 698, 1209, 1518
3868, 1102, 1159, 509, 1565
3869, 338, 348, 321, 1514
3870, 1238, 1490, 1223, 1528
3871, 1212, 1324, 1021, 1572
3872, 1014, 1340, 1055, 1418
3873, 413, 116, 422, 1464
3874, 8, 1263, 84, 1477
3875, 801, 1115, 1257, 1320
3876, 347, 321, 1502, 1529
3877, 60, 1455, 61, 1503
3878, 764, 1033, 1200, 1440
3879, 1022, 1286, 1155, 1366
3880, 1039, 1169, 1025, 1522
3881, 1091, 1064, 1298, 1299
3882, 44, 1185, 1119, 1382
3883, 469, 148, 1134, 1412
3884, 1005, 1324, 1212, 1559
3885, 1048, 1004, 1172, 1505
3886, 1126, 1200, 1033, 1440
3887, 1038, 1146, 1334, 1438
3888, 1266, 1316, 1218, 1352
3889, 519, 1114, 517, 1194
3890, 1011, 1485, 1179, 1545
3891, 292, 276, 282, 1330
3892, 686, 1003, 540, 1488
3893, 515, 1250, 1059, 1276
3894, 281, 255, 253, 1394
3895, 1031, 1225, 1284, 1562
3896, 327, 1222, 333, 1289
3897, 576, 594, 579, 1073
3898, 67, 1205, 1112, 1229
3899, 75, 76, 1342, 1551
3900, 540, 1003, 686, 1309
3901, 1009, 1390, 1294, 1542
3902, 244, 284, 44, 1404
3903, 255, 253, 254, 1237
3904, 328, 1224, 1131, 1529
3905, 423, 412, 425, 1281
3906, 1266, 1352, 1218, 1415
3907, 1121, 1213, 1019, 1506
3908, 1038, 1324, 1191, 1509
3909, 1, 297, 62, 1511
3910, 1167, 1011, 1444, 1556
3911, 1026, 1337, 1238, 1528
3912, 1146, 1334, 1332, 1479
3913, 1008, 1195, 1110, 1589
3914, 8, 1189, 1263, 1447
3915, 1054, 1159, 509, 1160
3916, 597, 761, 568, 1126
3917, 283, 281, 253, 1409
3918, 501, 1211, 997, 1498
3919, 314, 90, 89, 1573
3920, 1179, 1225, 1032, 1485
3921, 995, 1182, 1104, 1234
3922, 1041, 1275, 1253, 1523
3923, 777, 799, 1445, 1480
3924, 1124, 1026, 1369, 1589
3925, 313, 364, 354, 1477
3926, 528, 1244, 424, 1389
3927, 317, 1124, 1535, 1566
3928, 1085, 1382, 1119, 1474
3929, 1150, 1341, 86, 1544
3930, 327, 326, 1222, 1289
3931, 1212, 1559, 1324, 1572
3932, 701, 1136, 1090, 1202
3933, 150, 20, 1176, 1429
3934, 1024, 1288, 1148, 1491
3935, 1058, 1253, 1204, 1395
3936, 1048, 1263, 1189, 1447
3937, 1028, 1294, 986, 1465
3938, 86, 1150, 1288, 1341
3939, 813, 1419, 1014, 1489
3940, 317, 1208, 1122, 1365
3941, 420, 414, 1272, 1344
3942, 1013, 1306, 1190, 1340
3943, 276, 1185, 292, 1451
3944, 1278, 1452, 1081, 1562
3945, 1217, 1339, 1209, 1470
3946, 1120, 1166, 1057, 1405
3947, 1044, 1364, 1290, 1474
3948, 998, 1145, 1025, 1373
3949, 1258, 1151, 1411, 1533
3950, 1059, 1250, 1113, 1276
3951, 1018, 1475, 1236, 1552
3952, 252, 274, 251, 1409
3953, 69, 1249, 1229, 1265
3954, 487, 1426, 1004, 1473
3955, 1088, 1141, 1028, 1248
3956, 1183, 1184, 1048, 1354
3957, 1012, 1390, 1062, 1410
3958, 513, 1104, 558, 1250
3959, 295, 240, 271, 1455
3960, 1168, 1243, 1206, 1578
3961, 1047, 1182, 995, 1368
3962, 275, 1270, 274, 1409
3963, 1031, 1249, 1045, 1392
3964, 688, 1177, 672, 1584
3965, 1162, 1316, 1107, 1539
3966, 1121, 1029, 1199, 1423
3967, 995, 1234, 1177, 1368
3968, 1013, 1340, 1190, 1418
3969, 518, 1272, 1114, 1281
3970, 361, 75, 1129, 1551
3971, 555, 495, 1101, 1426
3972, 670, 686, 1003, 1105
3973, 598, 639, 632, 1126
3974, 474, 611, 1134, 1480
3975, 986, 1123, 1378, 1537
3976, 760, 1257, 1086, 1320
3977, 774, 769, 1067, 1306
3978, 514, 1075, 1250, 1276
3979, 1142, 1182, 1047, 1574
3980, 487, 494, 1089, 1426
3981, 998, 1079, 1225, 1311
3982, 987, 1257, 1320, 1588
3983, 1106, 1383, 1061, 1470
3984, 44, 1382, 1119, 1387
3985, 37, 283, 38, 1228
3986, 629, 1254, 1118, 1567
3987, 266, 262, 265, 1462
3988, 1133, 1029, 1322, 1484
3989, 121, 1283, 1184, 1527
3990, 686, 670, 1003, 1488
3991, 319, 1193, 318, 1568
3992, 1203, 1357, 1007, 1512
3993, 1075, 1276, 116, 1305
3994, 288, 304, 250, 1432
3995, 1065, 1141, 1028, 1466
3996, 360, 309, 351, 1280
3997, 990, 1056, 1082, 1558
3998, 80, 1424, 1262, 1526
3999, 1206, 1451, 1108, 1492
4000, 1061, 999, 1129, 1379
4001, 37, 1416, 1091, 1469
4002, 1178, 1150, 1544, 1554
4003, 1114, 1302, 1194, 1538
4004, 1187, 1227, 1052, 1376
4005, 1168, 1367, 1109, 1372
4006, 534, 533, 516, 1344
4007, 5, 1351, 1327, 1423
4008, 1213, 1506, 1341, 1570
4009, 321, 322, 320, 1481
4010, 1029, 1192, 1121, 1322
4011, 320, 318, 1193, 1369
4012, 8, 1189, 84, 1263
4013, 89, 1213, 1178, 1544
4014, 1189, 1221, 1151, 1447
4015, 987, 1314, 1084, 1318
4016, 1013, 1081, 1452, 1562
4017, 1104, 1250, 513, 1449
4018, 416, 419, 1276, 1344
4019, 1180, 1384, 1153, 1552
4020, 998, 1444, 1373, 1485
4021, 1107, 1332, 1162, 1399
4022, 1011, 1444, 1179, 1485
4023, 1150, 1414, 1155, 1430
4024, 1047, 1142, 995, 1182
4025, 363, 352, 1297, 1513
4026, 1148, 1303, 1171, 1304
4027, 1129, 1379, 1106, 1383
4028, 318, 317, 1353, 1369
4029, 1000, 1041, 1097, 1436
4030, 1124, 1353, 317, 1369
4031, 1170, 1277, 1070, 1431
4032, 1112, 1205, 67, 1534
4033, 1261, 1358, 1176, 1452
4034, 1075, 1019, 1240, 1449
4035, 317, 1124, 1369, 1535
4036, 1154, 1287, 1066, 1411
4037, 1063, 1197, 1030, 1308
4038, 1011, 1060, 1020, 1092
4039, 273, 1334, 1146, 1438
4040, 1121, 1192, 116, 1484
4041, 1031, 1120, 1225, 1562
4042, 474, 1134, 612, 1412
4043, 1124, 1026, 1353, 1369
4044, 1166, 1278, 1081, 1562
4045, 90, 1374, 5, 1573
4046, 647, 642, 1203, 1246
4047, 1121, 1037, 1305, 1554
4048, 1169, 1224, 1208, 1502
4049, 1022, 1029, 1178, 1269
4050, 301, 264, 267, 1243
4051, 1093, 1193, 1026, 1337
4052, 1140, 1293, 307, 1570
4053, 631, 762, 800, 817
4054, 1143, 1268, 1109, 1413
4055, 996, 1298, 1223, 1356
4056, 341, 1127, 68, 1496
4057, 1020, 1060, 1011, 1556
4058, 357, 1371, 312, 1530
4059, 1210, 1478, 1471, 1516
4060, 1054, 1159, 1102, 1565
4061, 1057, 1120, 1229, 1230
4062, 88, 1155, 87, 1544
4063, 291, 266, 303, 1367
4064, 1090, 1266, 1136, 1436
4065, 88, 1155, 1152, 1456
4066, 1022, 1192, 1029, 1557
4067, 1364, 1397, 1042, 1489
4068, 645, 1209, 1173, 1531
4069, 88, 307, 344, 1293
4070, 593, 1376, 1047, 1386
4071, 347, 338, 336, 1239
4072, 992, 1059, 1252, 1591
4073, 1094, 1133, 1029, 1420
4074, 6, 1170, 70, 1458
4075, 311, 78, 79, 1520
4076, 331, 1131, 328, 1476
4077, 84, 1288, 1263, 1583
4078, 39, 241, 251, 1409
4079, 1124, 1360, 1347, 1560
4080, 777, 1226, 1134, 1480
4081, 1059, 992, 1113, 1507
4082, 1070, 1170, 1063, 1542
4083, 1011, 1196, 1112, 1485
4084, 1001, 1070, 1062, 1410
4085, 1131, 1137, 1057, 1476
4086, 246, 37, 36, 1228
4087, 117, 419, 118, 1276
4088, 240, 269, 270, 1462
4089, 1206, 1243, 1099, 1541
4090, 631, 569, 611, 1480
4091, 1245, 1360, 1238, 1378
4092, 988, 1232, 1218, 1475
4093, 999, 1357, 1173, 1388
4094, 345, 65, 66, 1534
4095, 67, 308, 66, 1534
4096, 1091, 1064, 1319, 1490
4097, 1031, 1120, 1249, 1392
4098, 283, 246, 1295, 1438
4099, 1284, 1452, 1358, 1562
4100, 251, 274, 247, 1592
4101, 1119, 1382, 1125, 1474
4102, 123, 1256, 14, 1323
4103, 705, 710, 1136, 1279
4104, 1034, 1251, 1253, 1459
4105, 999, 1173, 1209, 1339
4106, 1091, 1469, 1028, 1587
4107, 280, 270, 263, 1462
4108, 1168, 1367, 266, 1413
4109, 1106, 1216, 1214, 1547
4110, 1321, 1388, 1173, 1512
4111, 1158, 1350, 1117, 1400
4112, 1014, 1138, 1055, 1379
4113, 1171, 1303, 1148, 1543
4114, 1131, 1224, 328, 1343
4115, 340, 313, 1280, 1365
4116, 1015, 1261, 1117, 1401
4117, 1176, 1358, 1284, 1452
4118, 306, 1122, 1208, 1514
4119, 1093, 1139, 1034, 1251
4120, 261, 268, 282, 1433
4121, 86, 1288, 1164, 1341
4122, 1012, 1062, 1149, 1349
4123, 247, 1180, 298, 1387
4124, 768, 1306, 1271, 1340
4125, 1210, 1505, 1048, 1536
4126, 992, 1059, 1113, 1252
4127, 996, 1490, 1238, 1528
4128, 1001, 1062, 1390, 1410
4129, 1061, 7, 1215, 1383
4130, 357, 1349, 1296, 1467
4131, 989, 1259, 1172, 1478
4132, 781, 1435, 1402, 1497
4133, 1110, 1369, 1026, 1589
4134, 1253, 1441, 1058, 1459
4135, 505, 507, 1102, 1300
4136, 589, 1079, 623, 1338
4137, 1083, 1271, 656, 1443
4138, 341, 68, 1127, 1467
4139, 1064, 1319, 1287, 1377
4140, 1097, 1262, 1156, 1526
4141, 41, 1248, 1088, 1380
4142, 1115, 1015, 1402, 1435
4143, 777, 795, 1134, 1550
4144, 992, 1302, 1059, 1591
4145, 986, 1294, 1238, 1390
4146, 6, 1170, 1070, 1296
4147, 1246, 1286, 997, 1557
4148, 1028, 1465, 1065, 1466
4149, 501, 997, 559, 1498
4150, 520, 1250, 1104, 1381
4151, 121, 425, 1114, 1272
4152, 1020, 1092, 1060, 1152
4153, 148, 1126, 469, 1468
4154, 1079, 1225, 582, 1442
4155, 1143, 1168, 1021, 1413
4156, 359, 305, 335, 1532
4157, 1153, 1475, 1018, 1552
4158, 357, 353, 1296, 1530
4159, 1237, 1438, 1153, 1575
4160, 1053, 1142, 995, 1161
4161, 1148, 1288, 1150, 1543
4162, 1036, 1322, 1240, 1420
4163, 705, 706, 1212, 1325
4164, 1262, 1424, 1156, 1526
4165, 649, 648, 994, 1444
4166, 498, 1449, 1256, 1450
4167, 576, 575, 573, 1045
4168, 1084, 1274, 1219, 1318
4169, 568, 761, 810, 1468
4170, 1271, 1284, 1033, 1483
4171, 72, 1230, 1137, 1476
4172, 120, 121, 1235, 1272
4173, 777, 1134, 1046, 1550
4174, 1051, 1221, 1124, 1347
4175, 1049, 1110, 1026, 1245
4176, 774, 1226, 1067, 1497
4177, 1190, 1340, 770, 1419
4178, 239, 1185, 1333, 1541
4179, 1215, 1315, 1216, 1396
4180, 307, 1293, 88, 1570
4181, 1200, 1445, 805, 1468
4182, 275, 252, 254, 1409
4183, 1028, 1219, 1088, 1248
4184, 1, 1319, 35, 1377
4185, 1002, 1172, 1089, 1354
4186, 1209, 1217, 999, 1339
4187, 297, 1, 62, 1307
4188, 74, 1308, 1163, 1508
4189, 1243, 1541, 1206, 1578
4190, 483, 555, 541, 1101
4191, 425, 13, 1159, 1527
4192, 1038, 1237, 1108, 1552
4193, 771, 774, 769, 1067
4194, 1123, 1378, 1008, 1494
4195, 253, 1237, 255, 1438
4196, 640, 582, 1225, 1442
4197, 45, 1198, 44, 1273
4198, 568, 616, 598, 1126
4199, 1015, 1067, 1261, 1497
4200, 61, 1399, 60, 1503
4201, 744, 1279, 1103, 1518
4202, 1001, 1294, 1390, 1542
4203, 1066, 1487, 1259, 1539
4204, 705, 1212, 1136, 1325
4205, 1016, 1041, 1415, 1510
4206, 598, 632, 608, 1126
4207, 1051, 1195, 1164, 1328
4208, 1204, 1253, 1082, 1395
4209, 71, 72, 1230, 1437
4210, 241, 252, 253, 1237
4211, 1000, 1209, 1173, 1339
4212, 1146, 1038, 1334, 1479
4213, 425, 412, 423, 1527
4214, 74, 1163, 75, 1508
4215, 592, 1098, 632, 1579
4216, 1008, 1140, 1110, 1195
4217, 1043, 1162, 1107, 1539
4218, 989, 1266, 1202, 1478
4219, 1386, 1449, 1182, 1450
4220, 998, 1166, 1120, 1405
4221, 1069, 1298, 1091, 1331
4222, 415, 1300, 418, 1389
4223, 1013, 1271, 1083, 1311
4224, 473, 468, 628, 477
4225, 358, 1456, 349, 1582
4226, 666, 490, 1381, 1488
4227, 8, 1221, 1447, 1448
4228, 339, 337, 338, 1239
4229, 1269, 1327, 1060, 1423
4230, 346, 1149, 328, 1349
4231, 1203, 1246, 642, 1439
4232, 1058, 1275, 1175, 1441
4233, 90, 1199, 1423, 1573
4234, 1110, 1245, 1008, 1360
4235, 317, 1353, 1124, 1566
4236, 89, 90, 1327, 1423
4237, 1029, 1036, 1187, 1420
4238, 1007, 993, 1077, 1408
4239, 63, 64, 1161, 1374
4240, 336, 337, 305, 1239
4241, 645, 1173, 654, 1531
4242, 813, 1014, 1340, 1501
4243, 1078, 1164, 1252, 1341
4244, 1038, 1191, 1334, 1509
4245, 1005, 1108, 1099, 1185
4246, 1175, 1035, 1560, 1569
4247, 1016, 1352, 1266, 1415
4248, 1052, 1060, 1011, 1186
4249, 261, 260, 258, 1206
4250, 333, 1297, 370, 1513
4251, 1133, 1322, 1420, 1546
4252, 536, 1300, 418, 1427
4253, 1054, 1100, 993, 1536
4254, 1038, 1334, 1191, 1438
4255, 1192, 1484, 1029, 1557
4256, 254, 252, 275, 1237
4257, 664, 1167, 1444, 1564
4258, 1048, 1189, 1263, 1491
4259, 84, 1263, 1189, 1583
4260, 664, 1444, 1179, 1564
4261, 1325, 1372, 706, 1572
4262, 40, 1248, 1130, 1416
4263, 1199, 1374, 5, 1375
4264, 1, 1154, 1132, 1242
4265, 86, 1164, 1288, 1583
4266, 1137, 1138, 1055, 1437
4267, 1135, 1077, 1366, 1414
4268, 618, 674, 570, 1254
4269, 335, 1476, 1285, 1529
4270, 593, 1047, 1368, 1386
4271, 1075, 1019, 1449, 1507
4272, 727, 1125, 1044, 1290
4273, 1182, 1449, 1019, 1507
4274, 988, 1324, 1236, 1475
4275, 471, 1412, 473, 1482
4276, 250, 304, 288, 1417
4277, 578, 577, 580, 1392
4278, 318, 1369, 1353, 1568
4279, 1119, 1185, 1125, 1382
4280, 649, 994, 1145, 1444
4281, 764, 773, 1126, 1200
4282, 42, 1387, 2, 1425
4283, 20, 1176, 1098, 1403
4284, 986, 1065, 1123, 1537
4285, 688, 677, 1177, 1234
4286, 307, 344, 1293, 1513
4287, 45, 239, 284, 1185
4288, 67, 1144, 1496, 1524
4289, 146, 145, 1355, 1446
4290, 1086, 1312, 1267, 1407
4291, 1036, 1376, 1187, 1420
4292, 1189, 1301, 1151, 1363
4293, 349, 1289, 1140, 1453
4294, 1009, 1062, 1390, 1542
4295, 471, 478, 468, 1403
4296, 780, 1046, 777, 1226
4297, 654, 646, 662, 1101
4298, 1122, 1280, 1208, 1391
4299, 360, 351, 309, 1453
4300, 670, 666, 1050, 1488
4301, 629, 570, 1118, 1254
4302, 8, 1263, 1210, 1447
4303, 89, 1327, 1178, 1423
4304, 1069, 1331, 1091, 1416
4305, 150, 1261, 20, 1429
4306, 245, 58, 293, 1268
4307, 1108, 1237, 1191, 1492
4308, 1074, 1335, 1105, 1361
4309, 1057, 1166, 1120, 1230
4310, 1025, 1137, 1131, 1285
4311, 719, 749, 744, 1103
4312, 40, 39, 251, 1592
4313, 1001, 1062, 1070, 1542
4314, 1142, 1374, 1293, 1573
4315, 1007, 1100, 993, 1517
4316, 990, 1214, 1364, 1421
4317, 986, 1028, 1065, 1238
4318, 1179, 1485, 1032, 1545
4319, 532, 416, 1276, 1344
4320, 1145, 1217, 999, 1398
4321, 1013, 1271, 1284, 1306
4322, 497, 1094, 501, 1211
4323, 743, 296, 742, 1333
4324, 1271, 1306, 1013, 1340
4325, 1000, 1436, 1279, 1510
4326, 658, 1173, 645, 1209
4327, 1307, 1319, 1065, 1587
4328, 1063, 1431, 1070, 1542
4329, 1067, 1261, 1429, 1452
4330, 36, 1091, 1377, 1587
4331, 1129, 1342, 1061, 1383
4332, 146, 145, 1446, 1457
4333, 1058, 1175, 1174, 1441
4334, 1049, 1193, 1093, 1337
4335, 1021, 1325, 1212, 1572
4336, 254, 1237, 275, 1492
4337, 1002, 1345, 1194, 1538
4338, 1053, 1293, 1374, 1513
4339, 314, 356, 1152, 1504
4340, 65, 310, 64, 1186
4341, 266, 300, 1168, 1578
4342, 740, 48, 1125, 1333
4343, 989, 1478, 1068, 1516
4344, 785, 564, 757, 1550
4345, 57, 1188, 1109, 1434
4346, 736, 735, 754, 1168
4347, 1010, 1298, 1232, 1356
4348, 1021, 1191, 1324, 1509
4349, 699, 541, 495, 1101
4350, 1055, 1311, 1166, 1562
4351, 1124, 1221, 1051, 1535
4352, 14, 1256, 1240, 1420
4353, 360, 309, 1195, 1453
4354, 86, 85, 1288, 1414
4355, 370, 333, 368, 1297
4356, 417, 530, 424, 1389
4357, 473, 1412, 612, 1482
4358, 805, 791, 773, 1468
4359, 1126, 1200, 773, 1468
4360, 1051, 1347, 1124, 1360
4361, 1253, 1275, 1058, 1441
4362, 1221, 1363, 1346, 1583
4363, 1060, 1186, 1052, 1291
4364, 571, 1350, 1118, 1563
4365, 1030, 1163, 1308, 1508
4366, 1226, 1261, 1067, 1497
4367, 1035, 1175, 1352, 1422
4368, 366, 1205, 346, 1534
4369, 1172, 1478, 1259, 1540
4370, 1080, 1172, 1089, 1259
4371, 517, 1059, 1114, 1272
4372, 1150, 1171, 1022, 1366
4373, 305, 1239, 1181, 1371
4374, 1220, 1221, 1151, 1347
4375, 558, 520, 1104, 1381
4376, 998, 1179, 1225, 1443
4377, 1093, 1239, 1049, 1337
4378, 331, 1476, 335, 1529
4379, 7, 1216, 1215, 1383
4380, 1059, 1194, 1114, 1302
4381, 241, 283, 38, 1295
4382, 1015, 1261, 1046, 1497
4383, 765, 767, 766, 1271
4384, 359, 1476, 1137, 1532
4385, 313, 354, 1280, 1477
4386, 1180, 2, 1387, 1425
4387, 1167, 1286, 1246, 1408
4388, 283, 246, 281, 1228
4389, 640, 1225, 1179, 1442
4390, 1203, 1408, 1246, 1439
4391, 1156, 1388, 1040, 1424
4392, 1222, 1289, 1140, 1513
4393, 1065, 1154, 1123, 1537
4394, 998, 1225, 1179, 1485
4395, 337, 1139, 1239, 1521
4396, 1178, 1213, 1037, 1544
4397, 1277, 1385, 1070, 1431
4398, 469, 1134, 148, 1480
4399, 1064, 1260, 1147, 1287
4400, 1007, 1077, 1135, 1280
4401, 78, 1251, 311, 1454
4402, 359, 1137, 72, 1532
4403, 1034, 1318, 1139, 1460
4404, 345, 65, 1128, 1496
4405, 35, 1147, 1, 1377
4406, 1055, 1081, 1197, 1418
4407, 1174, 1441, 79, 1454
4408, 1070, 1431, 1001, 1542
4409, 1212, 1325, 706, 1572
4410, 271, 1334, 270, 1495
4411, 764, 773, 791, 1126
4412, 1240, 1449, 1019, 1574
4413, 1050, 1194, 1165, 1487
4414, 88, 1152, 1155, 1327
4415, 988, 1415, 1396, 1510
4416, 1142, 1310, 1182, 1574
4417, 297, 1147, 35, 1580
4418, 87, 307, 88, 1570
4419, 1132, 1066, 1287, 1511
4420, 998, 1311, 1225, 1562
4421, 1105, 1188, 1043, 1399
4422, 987, 1219, 1009, 1318
4423, 987, 1009, 1219, 1294
4424, 1050, 1154, 1132, 1487
4425, 656, 643, 819, 1083
4426, 1056, 1106, 1216, 1336
4427, 1007, 993, 1408, 1517
4428, 1146, 1299, 1147, 1580
4429, 1033, 1284, 1271, 1306
4430, 1242, 1307, 1, 1319
4431, 115, 1322, 1121, 1484
4432, 736, 1168, 754, 1367
4433, 702, 1090, 701, 1136
4434, 1052, 1186, 1011, 1196
4435, 1106, 1042, 1470, 1489
4436, 655, 1217, 652, 1397
4437, 1047, 1227, 1073, 1247
4438, 1007, 1357, 1388, 1512
4439, 1118, 1385, 1350, 1401
4440, 793, 1340, 1083, 1501
4441, 1112, 1186, 66, 1196
4442, 1089, 1354, 1172, 1505
4443, 148, 1226, 149, 1445
4444, 750, 652, 645, 1209
4445, 1151, 1051, 1221, 1363
4446, 83, 1365, 82, 1428
4447, 1013, 1311, 1055, 1562
4448, 492, 1309, 1080, 1345
4449, 320, 319, 321, 1193
4450, 65, 66, 1196, 1247
4451, 321, 338, 1169, 1529
4452, 1063, 1030, 1163, 1308
4453, 1259, 1539, 1003, 1540
4454, 1026, 1245, 1110, 1360
4455, 1054, 509, 1159, 1565
4456, 58, 1268, 1188, 1399
4457, 1213, 1573, 1199, 1586
4458, 1213, 1341, 1037, 1544
4459, 607, 588, 1134, 1550
4460, 427, 122, 546, 1464
4461, 1022, 1269, 1155, 1286
4462, 1037, 1544, 1543, 1554
4463, 246, 37, 283, 1295
4464, 70, 1437, 1230, 1458
4465, 1266, 1352, 1016, 1422
4466, 1252, 1341, 1037, 1506
4467, 320, 1369, 1193, 1481
4468, 1195, 1346, 309, 1535
4469, 1314, 1318, 1056, 1558
4470, 1209, 1217, 658, 1398
4471, 1310, 1328, 1078, 1561
4472, 1063, 1170, 1070, 1431
4473, 1016, 1175, 1156, 1549
4474, 256, 258, 1206, 1492
4475, 1093, 1454, 1251, 1459
4476, 570, 674, 668, 1326
4477, 369, 1205, 341, 1229
4478, 1116, 1224, 1092, 1519
4479, 1006, 1143, 1372, 1509
4480, 246, 36, 289, 1307
4481, 1077, 1116, 1280, 1391
4482, 1079, 1225, 1311, 1562
4483, 1112, 1196, 1265, 1485
4484, 1110, 1026, 1360, 1589
4485, 1077, 993, 1366, 1408
4486, 1147, 1287, 1260, 1511
4487, 469, 1468, 1126, 1579
4488, 64, 1227, 63, 1548
4489, 1130, 1153, 1018, 1180
4490, 597, 598, 608, 1126
4491, 991, 1347, 1258, 1411
4492, 999, 1398, 1357, 1522
4493, 255, 1237, 254, 1492
4494, 1028, 1219, 1130, 1331
4495, 1120, 1031, 1249, 1278
4496, 425, 13, 1114, 1281
4497, 526, 123, 122, 1323
4498, 999, 1379, 1145, 1522
4499, 1109, 1188, 709, 1434
4500, 308, 366, 341, 1496
4501, 367, 308, 345, 1496
4502, 989, 1316, 1258, 1539
4503, 612, 1134, 602, 1412
4504, 1218, 1232, 1010, 1479
4505, 148, 149, 1200, 1445
4506, 117, 116, 1276, 1305
4507, 1099, 1243, 1206, 1572
4508, 531, 1276, 417, 1464
4509, 345, 1186, 65, 1534
4510, 6, 1249, 1277, 1278
4511, 520, 543, 1250, 1381
4512, 85, 1414, 86, 1477
4513, 43, 42, 1406, 1407
4514, 122, 411, 1255, 1464
4515, 1142, 1561, 1310, 1586
4516, 532, 516, 533, 1344
4517, 82, 1365, 81, 1424
4518, 649, 648, 647, 994
4519, 316, 361, 337, 1521
4520, 1426, 1472, 1004, 1473
4521, 1014, 1379, 1217, 1489
4522, 43, 1267, 1382, 1387
4523, 1013, 1176, 1284, 1452
4524, 1100, 1471, 1210, 1536
4525, 1109, 1367, 245, 1434
4526, 1051, 1533, 1328, 1591
4527, 1271, 1284, 1079, 1311
4528, 319, 1208, 320, 1502
4529, 74, 1508, 75, 1551
4530, 1020, 1167, 994, 1408
4531, 1010, 1316, 1260, 1352
4532, 1049, 1026, 1193, 1337
4533, 113, 1160, 13, 1329
4534, 1006, 1043, 1202, 1571
4535, 588, 602, 1134, 1412
4536, 14, 1420, 1322, 1546
4537, 1043, 1003, 1105, 1503
4538, 799, 147, 1445, 1480
4539, 1331, 1416, 1130, 1469
4540, 1115, 1402, 1257, 1435
4541, 610, 1179, 1225, 1545
4542, 501, 1133, 1094, 1323
4543, 1113, 1305, 1019, 1506
4544, 255, 1237, 1191, 1438
4545, 1023, 1302, 1301, 1591
4546, 1166, 1437, 1197, 1458
4547, 998, 1120, 1057, 1405
4548, 116, 1389, 1484, 1515
4549, 752, 709, 1188, 1434
4550, 83, 1201, 82, 1549
4551, 1020, 1286, 1167, 1408
4552, 989, 1266, 1478, 1516
4553, 591, 1098, 1033, 1440
4554, 655, 1217, 792, 1501
4555, 1014, 1106, 1489, 1547
4556, 610, 640, 580, 1225
4557, 350, 80, 306, 1262
4558, 428, 422, 411, 1244
4559, 1317, 1336, 1216, 1383
4560, 255, 256, 280, 1191
4561, 1242, 1361, 1105, 1503
4562, 677, 668, 688, 1177
4563, 777, 1445, 1226, 1480
4564, 61, 1332, 1162, 1511
4565, 115, 1075, 1255, 1464
4566, 1, 1287, 1154, 1319
4567, 338, 321, 1169, 1514
4568, 1007, 1040, 1388, 1424
4569, 723, 1333, 1099, 1432
4570, 1167, 1373, 994, 1444
4571, 1085, 1267, 1119, 1382
4572, 1284, 1358, 1031, 1562
4573, 1171, 119, 1300, 1527
4574, 613, 473, 477, 1457
4575, 1057, 1131, 1025, 1137
4576, 1028, 1238, 986, 1294
4577, 678, 1105, 1132, 1242
4578, 813, 776, 1340, 1419
4579, 1189, 1288, 1023, 1583
4580, 517, 1114, 518, 1272
4581, 1258, 1260, 1066, 1539
4582, 1019, 1305, 1121, 1506
4583, 1118, 1385, 1401, 1431
4584, 413, 417, 416, 1276
4585, 1108, 1324, 1038, 1552
4586, 307, 1140, 334, 1513
4587, 414, 421, 423, 1272
4588, 990, 1421, 1364, 1474
4589, 311, 355, 78, 1233
4590, 598, 1126, 616, 1579
4591, 1046, 1261, 1015, 1401
4592, 1180, 1380, 2, 1425
4593, 1059, 1113, 1252, 1304
4594, 306, 1262, 1122, 1514
4595, 504, 1244, 528, 1389
4596, 1195, 1535, 1369, 1589
4597, 416, 415, 418, 1389
4598, 487, 1089, 1080, 1473
4599, 355, 311, 1251, 1521
4600, 1002, 1151, 1172, 1301
4601, 77, 1520, 1233, 1523
4602, 1043, 1188, 1268, 1399
4603, 1332, 1334, 1107, 1479
4604, 328, 1205, 1131, 1343
4605, 1127, 1385, 1144, 1410
4606, 316, 1139, 361, 1521
4607, 256, 1206, 1191, 1492
4608, 803, 656, 819, 1083
4609, 328, 1349, 1149, 1371
4610, 341, 68, 315, 1229
4611, 1128, 1222, 345, 1496
4612, 645, 654, 690, 1531
4613, 1078, 1164, 1341, 1570
4614, 1021, 1168, 1372, 1572
4615, 753, 1290, 758, 1364
4616, 1127, 1062, 1349, 1467
4617, 988, 1236, 1395, 1475
4618, 274, 251, 1409, 1592
4619, 688, 1177, 668, 1465
4620, 370, 352, 314, 1513
4621, 318, 1208, 319, 1514
4622, 1046, 1226, 780, 1497
4623, 411, 424, 427, 1244
4624, 1130, 1248, 1028, 1331
4625, 1026, 1110, 1193, 1369
4626, 368, 310, 345, 1504
4627, 1229, 1230, 353, 1476
4628, 311, 79, 350, 1262
4629, 1013, 1311, 1083, 1340
4630, 723, 1099, 722, 1432
4631, 1081, 1170, 1278, 1458
4632, 1150, 86, 1414, 1430
4633, 285, 260, 262, 1231
4634, 1047, 1161, 1142, 1375
4635, 655, 643, 1217, 1501
4636, 774, 773, 1200, 1445
4637, 326, 346, 328, 1343
4638, 1138, 1418, 1197, 1508
4639, 67, 1247, 1144, 1265
4640, 1221, 1346, 1051, 1535
4641, 1353, 1566, 317, 1569
4642, 632, 608, 1126, 1440
4643, 20, 1358, 1261, 1400
4644, 1086, 1282, 1267, 1312
4645, 626, 1498, 663, 1564
4646, 1402, 1435, 1015, 1497
4647, 361, 1532, 74, 1551
4648, 116, 1276, 1075, 1464
4649, 358, 1140, 307, 1453
4650, 148, 469, 470, 1468
4651, 90, 1199, 5, 1423
4652, 637, 1073, 609, 1376
4653, 331, 328, 329, 1371
4654, 248, 303, 279, 1367
4655, 1038, 1479, 1146, 1575
4656, 572, 1017, 609, 1563
4657, 239, 278, 46, 1433
4658, 1143, 1021, 1191, 1206
4659, 652, 1209, 750, 1397
4660, 1145, 1217, 659, 1501
4661, 69, 365, 6, 1467
4662, 1082, 1395, 1041, 1396
4663, 1014, 1138, 1106, 1547
4664, 1006, 1143, 1109, 1372
4665, 244, 274, 294, 1404
4666, 255, 1191, 1237, 1492
4667, 1079, 1284, 1225, 1562
4668, 650, 1079, 623, 1442
4669, 1078, 1252, 1164, 1328
4670, 805, 773, 1200, 1468
4671, 1138, 1336, 1106, 1547
4672, 1086, 1087, 789, 1313
4673, 565, 1256, 1094, 1376
4674, 766, 773, 1200, 1306
4675, 1263, 1447, 1048, 1536
4676, 570, 668, 566, 1326
4677, 1, 1147, 297, 1511
4678, 771, 1190, 1435, 1497
4679, 1064, 1287, 1147, 1377
4680, 1085, 1180, 1119, 1387
4681, 13, 1184, 1354, 1505
4682, 747, 1518, 1209, 1531
4683, 503, 1076, 505, 1359
4684, 995, 1494, 1310, 1561
4685, 1175, 1441, 1275, 1526
4686, 418, 536, 537, 1389
4687, 349, 327, 334, 1289
4688, 88, 87, 1155, 1430
4689, 1321, 1388, 1040, 1436
4690, 118, 119, 1300, 1515
4691, 1037, 1304, 1113, 1305
4692, 1270, 1273, 45, 1404
4693, 498, 1256, 1386, 1450
4694, 535, 536, 414, 1427
4695, 80, 1526, 1175, 1549
4696, 1341, 1506, 1078, 1570
4697, 1430, 1456, 351, 1582
4698, 310, 370, 352, 1504
4699, 992, 1078, 1506, 1507
4700, 1083, 1145, 659, 1501
4701, 1115, 1294, 987, 1466
4702, 1077, 1155, 1020, 1366
4703, 8, 1135, 364, 1365
4704, 992, 1078, 1252, 1506
4705, 1098, 1457, 1403, 1579
4706, 785, 601, 564, 1550
4707, 787, 1087, 1044, 1198
4708, 1154, 1411, 1066, 1487
4709, 266, 285, 300, 1578
4710, 243, 277, 301, 1432
4711, 803, 656, 1083, 1271
4712, 318, 1193, 1369, 1568
4713, 1113, 1037, 1252, 1304
4714, 1000, 1321, 1388, 1531
4715, 359, 335, 1181, 1530
4716, 70, 71, 1230, 1437
4717, 350, 306, 319, 1514
4718, 1070, 1170, 6, 1277
4719, 326, 327, 324, 1289
4720, 993, 1246, 1408, 1439
4721, 803, 802, 660, 1338
4722, 997, 1167, 1020, 1286
4723, 1066, 1154, 1132, 1287
4724, 1002, 1089, 1345, 1538
4725, 1102, 1171, 1076, 1300
4726, 1175, 1220, 1035, 1569
4727, 1094, 1376, 1256, 1420
4728, 296, 726, 48, 250
4729, 285, 264, 302, 1578
4730, 119, 1235, 1304, 1344
4731, 652, 655, 658, 1217
4732, 1028, 987, 1088, 1219
4733, 1015, 1401, 1117, 1431
4734, 352, 1297, 63, 1374
4735, 338, 1239, 347, 1553
4736, 1045, 1385, 1350, 1563
4737, 990, 1082, 1216, 1421
4738, 1319, 1490, 1064, 1537
4739, 1068, 1172, 1151, 1447
4740, 248, 279, 736, 1367
4741, 321, 320, 1193, 1481
4742, 365, 353, 1229, 1230
4743, 1104, 1123, 995, 1584
4744, 1123, 1381, 666, 1584
4745, 1046, 1261, 1226, 1497
4746, 1070, 1385, 1127, 1410
4747, 1194, 1345, 1002, 1487
4748, 293, 1268, 59, 1495
4749, 1042, 1364, 1214, 1421
4750, 1048, 1172, 1210, 1447
4751, 688, 672, 1177, 1465
4752, 310, 1186, 345, 1504
4753, 1049, 1110, 1289, 1481
4754, 339, 1239, 338, 1553
4755, 995, 1161, 1047, 1292
4756, 770, 1306, 768, 1340
4757, 1083, 1271, 1013, 1340
4758, 781, 815, 801, 1402
4759, 72, 73, 1308, 1530
4760, 421, 423, 1272, 1281
4761, 1039, 1169, 1208, 1514
4762, 473, 612, 628, 1482
4763, 993, 1286, 1359, 1366
4764, 1109, 1188, 57, 1268
4765, 1251, 1454, 1441, 1459
4766, 1150, 1178, 1022, 1554
4767, 1014, 1379, 1083, 1501
4768, 20, 1098, 1176, 1446
4769, 278, 250, 47, 1207
4770, 1007, 1280, 1122, 1391
4771, 113, 412, 425, 1159
4772, 1212, 1103, 1279, 1396
4773, 277, 735, 242, 1243
4774, 335, 312, 331, 1371
4775, 328, 1131, 1205, 1476
4776, 1164, 1023, 1288, 1583
4777, 294, 284, 244, 1270
4778, 13, 1329, 1160, 1354
4779, 1020, 1269, 997, 1286
4780, 1005, 1236, 1119, 1474
4781, 1149, 1222, 326, 1289
4782, 364, 1135, 8, 1477
4783, 310, 352, 1351, 1504
4784, 1060, 1187, 1052, 1556
4785, 1041, 1000, 1097, 1315
4786, 1143, 1206, 1191, 1413
4787, 1396, 1415, 1041, 1510
4788, 1068, 1478, 1210, 1516
4789, 1021, 1372, 1143, 1509
4790, 1030, 1336, 1138, 1547
4791, 1179, 1444, 998, 1485
4792, 1030, 1418, 1138, 1508
4793, 1027, 1025, 1169, 1522
4794, 1068, 1210, 1201, 1516
4795, 686, 1105, 739, 1309
4796, 1182, 1234, 995, 1368
4797, 353, 312, 71, 1530
4798, 73, 1138, 1437, 1508
4799, 772, 771, 1190, 1435
4800, 86, 1288, 1150, 1414
4801, 1456, 1504, 334, 1519
4802, 1165, 1002, 1302, 1591
4803, 64, 63, 1161, 1548
4804, 283, 281, 246, 1438
4805, 90, 314, 1327, 1351
4806, 413, 417, 1276, 1464
4807, 1034, 1317, 1253, 1370
4808, 148, 1200, 1126, 1468
4809, 629, 618, 570, 1254
4810, 309, 86, 1430, 1477
4811, 1116, 1155, 1077, 1430
4812, 780, 1402, 1046, 1497
4813, 83, 1221, 8, 1448
4814, 417, 424, 413, 1389
4815, 83, 1220, 82, 1566
4816, 672, 1065, 671, 1123
4817, 1048, 1301, 1172, 1447
4818, 814, 785, 757, 1550
4819, 1036, 1449, 1240, 1574
4820, 8, 1210, 1263, 1428
4821, 320, 342, 318, 1369
4822, 1019, 1240, 1121, 1305
4823, 588, 612, 602, 1412
4824, 74, 73, 1508, 1551
4825, 1062, 1371, 1349, 1530
4826, 777, 1134, 798, 1480
4827, 754, 1168, 735, 1243
4828, 368, 310, 370, 1297
4829, 1119, 1267, 1085, 1387
4830, 321, 1481, 1193, 1553
4831, 1124, 1035, 1220, 1569
4832, 1004, 1471, 1210, 1478
4833, 1000, 1518, 1321, 1531
4834, 314, 89, 1513, 1573
4835, 1058, 1232, 1356, 1415
4836, 1256, 1376, 627, 1386
4837, 1056, 1486, 1214, 1547
4838, 1024, 1148, 1283, 1491
4839, 495, 541, 555, 1101
4840, 1124, 1360, 1026, 1589
4841, 988, 1279, 1212, 1325
4842, 780, 1254, 814, 1550
4843, 705, 744, 710, 1279
4844, 680, 1254, 801, 1402
4845, 678, 1105, 670, 1132
4846, 268, 261, 267, 1417
4847, 470, 469, 148, 1480
4848, 119, 420, 120, 1272
4849, 613, 477, 614, 1457
4850, 84, 8, 364, 1221
4851, 279, 300, 303, 1241
4852, 340, 360, 342, 1280
4853, 1333, 1432, 290, 1541
4854, 265, 245, 291, 1462
4855, 769, 1200, 773, 1306
4856, 514, 1250, 515, 1276
4857, 1070, 1296, 1170, 1542
4858, 752, 712, 56, 1188
4859, 750, 747, 1209, 1531
4860, 1049, 1149, 1062, 1371
4861, 602, 607, 588, 1134
4862, 1150, 1366, 1155, 1414
4863, 649, 1145, 994, 1398
4864, 1107, 1162, 1043, 1399
4865, 71, 1197, 72, 1437
4866, 118, 1171, 119, 1515
4867, 1016, 1266, 1422, 1516
4868, 275, 294, 276, 1384
4869, 1042, 1217, 1209, 1470
4870, 1124, 1535, 1051, 1589
4871, 57, 58, 1335, 1461
4872, 1064, 1091, 1319, 1377
4873, 651, 1246, 1167, 1498
4874, 415, 1300, 419, 1515
4875, 589, 582, 623, 1079
4876, 146, 1355, 620, 1446
4877, 1378, 1537, 1123, 1576
4878, 998, 1373, 1025, 1405
4879, 998, 1120, 1225, 1485
4880, 774, 1067, 771, 1497
4881, 1238, 1378, 991, 1537
4882, 1012, 1410, 1292, 1494
4883, 334, 344, 356, 1456
4884, 1186, 1196, 1052, 1291
4885, 65, 1161, 1128, 1247
4886, 342, 320, 318, 1208
4887, 43, 42, 1267, 1425
4888, 1275, 1441, 1253, 1523
4889, 989, 1259, 1478, 1540
4890, 1066, 1260, 1287, 1511
4891, 37, 1228, 1469, 1587
4892, 988, 1218, 1325, 1509
4893, 1, 1132, 62, 1242
4894, 750, 747, 698, 1209
4895, 1098, 592, 1457, 1579
4896, 696, 698, 697, 1397
4897, 1259, 1487, 1003, 1539
4898, 123, 411, 428, 1255
4899, 989, 1316, 1266, 1352
4900, 1002, 1165, 1411, 1533
4901, 1093, 1174, 1454, 1459
4902, 750, 1209, 698, 1397
4903, 1047, 1376, 1182, 1386
4904, 1020, 1011, 1167, 1556
4905, 988, 1325, 1324, 1509
4906, 1334, 1479, 1038, 1509
4907, 1029, 1187, 1094, 1420
4908, 8, 1365, 83, 1428
4909, 517, 515, 543, 1250
4910, 650, 656, 1079, 1443
4911, 1032, 1225, 1120, 1485
4912, 565, 1094, 605, 1211
4913, 1034, 1219, 1274, 1318
4914, 1166, 1197, 1055, 1458
4915, 665, 1173, 658, 1398
4916, 316, 1370, 1139, 1521
4917, 999, 1217, 1209, 1398
4918, 1036, 1182, 1256, 1449
4919, 83, 82, 1201, 1428
4920, 363, 352, 63, 1374
4921, 1009, 1049, 1239, 1337
4922, 637, 594, 1073, 1376
4923, 1076, 1102, 505, 1359
4924, 1069, 1153, 1295, 1575
4925, 1005, 1119, 1108, 1185
4926, 606, 623, 660, 1338
4927, 549, 675, 1381, 1584
4928, 88, 1430, 1155, 1456
4929, 571, 584, 1118, 1350
4930, 1025, 1373, 1145, 1522
4931, 363, 1297, 352, 1374
4932, 751, 1125, 1290, 1559
4933, 1020, 1391, 1077, 1408
4934, 337, 1239, 339, 1521
4935, 1141, 1307, 1065, 1587
4936, 988, 1279, 1325, 1510
4937, 623, 650, 660, 1079
4938, 1078, 1310, 992, 1328
4939, 309, 351, 86, 1195
4940, 1068, 1220, 1422, 1448
4941, 493, 1345, 1089, 1538
4942, 67, 1144, 1247, 1496
4943, 1038, 1438, 1237, 1575
4944, 20, 1176, 1358, 1446
4945, 1032, 1249, 1120, 1392
4946, 1078, 1506, 1310, 1586
4947, 267, 1432, 1243, 1541
4948, 1320, 1466, 987, 1588
4949, 1062, 1127, 1070, 1467
4950, 118, 1304, 1113, 1344
4951, 1049, 1481, 1289, 1525
4952, 703, 1136, 701, 1202
4953, 1075, 1240, 115, 1255
4954, 647, 648, 642, 1246
4955, 1172, 1301, 1151, 1447
4956, 746, 1367, 1168, 1372
4957, 1299, 1377, 1147, 1580
4958, 1151, 1301, 1189, 1447
4959, 1369, 1453, 1195, 1589
4960, 1112, 67, 1229, 1265
4961, 1161, 1374, 1142, 1375
4962, 262, 1231, 259, 1462
4963, 1155, 1286, 1020, 1366
4964, 274, 1409, 1404, 1592
4965, 1149, 1222, 1128, 1496
4966, 1298, 1331, 996, 1490
4967, 1263, 1288, 84, 1414
4968, 1189, 1023, 1363, 1583
4969, 83, 1221, 1220, 1566
4970, 336, 337, 338, 1285
4971, 258, 1451, 1206, 1492
4972, 336, 347, 1239, 1525
4973, 713, 690, 654, 1531
4974, 311, 79, 1262, 1520
4975, 783, 569, 762, 1134
4976, 77, 362, 355, 1251
4977, 723, 1099, 1125, 1559
4978, 304, 250, 290, 1417
4979, 122, 547, 546, 1255
4980, 367, 330, 368, 1534
4981, 366, 346, 367, 1534
4982, 1196, 1247, 66, 1265
4983, 1286, 1359, 1022, 1557
4984, 571, 1118, 1326, 1563
4985, 553, 534, 518, 1272
4986, 1000, 1388, 1321, 1436
4987, 264, 261, 260, 1231
4988, 787, 1044, 1087, 1282
4989, 358, 351, 307, 1456
4990, 1481, 1525, 1193, 1553
4991, 355, 316, 362, 1342
4992, 1129, 1137, 1532, 1551
4993, 1245, 1390, 1049, 1493
4994, 414, 415, 420, 1427
4995, 1357, 1388, 1039, 1391
4996, 145, 20, 1355, 1446
4997, 595, 1094, 565, 1211
4998, 284, 239, 292, 1185
4999, 79, 78, 1275, 1520
5000, 1182, 1310, 1019, 1574
5001, 1056, 1216, 1317, 1336
5002, 1050, 1165, 1411, 1487
5003, 643, 759, 819, 1501
5004, 1084, 1085, 1312, 1380
5005, 1062, 1349, 1296, 1530
5006, 81, 1122, 1262, 1424
5007, 314, 1152, 89, 1327
5008, 415, 118, 119, 1300
5009, 340, 1369, 360, 1535
5010, 366, 346, 332, 1349
5011, 362, 76, 316, 1370
5012, 1038, 1475, 1232, 1575
5013, 366, 341, 369, 1205
5014, 761, 1126, 791, 1468
5015, 1060, 1092, 1011, 1186
5016, 311, 350, 348, 1514
5017, 597, 568, 598, 1126
5018, 478, 468, 1403, 1457
5019, 1062, 1149, 1049, 1390
5020, 246, 283, 37, 1228
5021, 1150, 1155, 1022, 1178
5022, 531, 532, 416, 1276
5023, 267, 290, 304, 1432
5024, 1079, 1284, 1271, 1483
5025, 1053, 1128, 1012, 1222
5026, 1078, 1341, 1252, 1506
5027, 729, 728, 1074, 1335
5028, 1190, 1419, 772, 1435
5029, 1174, 1026, 1353, 1560
5030, 1014, 1418, 1138, 1547
5031, 1009, 1062, 1049, 1390
5032, 340, 342, 1208, 1280
5033, 1132, 1162, 1066, 1511
5034, 301, 243, 304, 1417
5035, 1079, 1311, 1284, 1562
5036, 659, 1145, 1083, 1443
5037, 583, 572, 566, 1368
5038, 1212, 1324, 988, 1325
5039, 543, 490, 1194, 1381
5040, 584, 629, 1118, 1567
5041, 1048, 1184, 1183, 1491
5042, 1124, 1560, 1035, 1569
5043, 762, 1134, 569, 1480
5044, 987, 1219, 1028, 1294
5045, 1012, 1127, 1128, 1410
5046, 989, 1043, 1539, 1540
5047, 1120, 1031, 1278, 1562
5048, 323, 1224, 322, 1502
5049, 1027, 1224, 1131, 1343
5050, 1006, 1325, 1218, 1509
5051, 1051, 1151, 1221, 1533
5052, 684, 674, 618, 1254
5053, 72, 1308, 73, 1508
5054, 1350, 1385, 1118, 1563
5055, 1059, 1113, 1250, 1507
5056, 1026, 1245, 1238, 1337
5057, 1173, 1388, 1321, 1531
5058, 79, 1275, 78, 1441
5059, 548, 1246, 651, 1498
5060, 1051, 1221, 1347, 1533
5061, 268, 278, 290, 1333
5062, 59, 1361, 1335, 1461
5063, 1003, 1132, 1066, 1487
5064, 994, 1391, 1020, 1408
5065, 516, 1059, 517, 1272
5066, 1143, 1006, 1479, 1509
5067, 1016, 1352, 1175, 1422
5068, 63, 1227, 64, 1291
5069, 1263, 1288, 1189, 1583
5070, 122, 1255, 546, 1464
5071, 1076, 1133, 504, 1389
5072, 365, 70, 353, 1230
5073, 1009, 1139, 1093, 1239
5074, 1014, 813, 1489, 1501
5075, 1041, 1097, 1275, 1523
5076, 345, 1222, 1128, 1297
5077, 1040, 1388, 1156, 1436
5078, 38, 39, 1416, 1469
5079, 1077, 1155, 1414, 1430
5080, 253, 255, 281, 1438
5081, 1011, 1545, 1179, 1556
5082, 988, 1218, 1232, 1415
5083, 768, 1271, 793, 1340
5084, 1134, 1412, 1046, 1550
5085, 89, 1213, 88, 1293
5086, 63, 363, 5, 1351
5087, 569, 1134, 611, 1480
5088, 1030, 1314, 1056, 1486
5089, 1036, 1240, 1199, 1574
5090, 1271, 1033, 1338, 1483
5091, 60, 61, 295, 1495
5092, 534, 516, 1272, 1344
5093, 324, 326, 1224, 1519
5094, 1043, 1268, 1188, 1571
5095, 326, 327, 330, 1343
5096, 1072, 1046, 1412, 1550
5097, 1174, 1356, 1058, 1459
5098, 991, 1347, 1411, 1533
5099, 774, 773, 769, 1200
5100, 1104, 995, 1234, 1584
5101, 1088, 1248, 1084, 1380
5102, 1000, 1279, 1041, 1510
5103, 72, 1137, 1230, 1437
5104, 14, 123, 1323, 1546
5105, 1236, 1290, 1103, 1474
5106, 290, 250, 304, 1333
5107, 323, 324, 1224, 1519
5108, 1168, 1413, 266, 1578
5109, 997, 1094, 1187, 1211
5110, 1277, 1278, 1170, 1458
5111, 1222, 1289, 1149, 1493
5112, 1001, 1177, 1410, 1590
5113, 1055, 1138, 1014, 1418
5114, 1034, 1139, 1093, 1460
5115, 1037, 1305, 1113, 1506
5116, 1000, 1097, 1388, 1436
5117, 1164, 1195, 1051, 1346
5118, 1030, 1197, 1418, 1508
5119, 366, 369, 332, 1205
5120, 1067, 1429, 1176, 1452
5121, 1123, 1310, 995, 1494
5122, 1007, 1077, 1280, 1391
5123, 553, 1272, 518, 1281
5124, 166, 487, 1080, 1473
5125, 1009, 1239, 1093, 1337
5126, 1000, 1041, 1436, 1510
5127, 1114, 1235, 121, 1272
5128, 114, 113, 1281, 1329
5129, 325, 347, 1224, 1529
5130, 766, 1271, 767, 1306
5131, 311, 1454, 1251, 1521
5132, 563, 600, 756, 1440
5133, 1053, 1161, 1128, 1297
5134, 1011, 1052, 1545, 1556
5135, 297, 1332, 1147, 1580
5136, 671, 670, 1132, 1242
5137, 780, 1046, 1254, 1550
5138, 248, 279, 54, 736
5139, 1019, 1213, 1199, 1586
5140, 1147, 1332, 1146, 1580
5141, 37, 36, 1228, 1587
5142, 350, 1262, 306, 1514
5143, 815, 1257, 760, 1320
5144, 1441, 1454, 1174, 1459
5145, 1032, 1225, 1179, 1545
5146, 344, 1152, 356, 1456
5147, 1035, 1124, 1220, 1347
5148, 655, 792, 643, 1501
5149, 537, 416, 418, 1389
5150, 36, 37, 1091, 1587
5151, 261, 1206, 258, 1541
5152, 20, 1355, 1400, 1482
5153, 7, 77, 1253, 1370
5154, 1106, 1336, 1056, 1547
5155, 252, 275, 1237, 1384
5156, 61, 1162, 1399, 1503
5157, 1023, 1301, 1189, 1363
5158, 997, 1020, 1167, 1556
5159, 1008, 1140, 1078, 1561
5160, 1037, 1113, 1252, 1506
5161, 1164, 1363, 1023, 1583
5162, 685, 1087, 1198, 1273
5163, 998, 1225, 1079, 1443
5164, 328, 1371, 1149, 1525
5165, 45, 1270, 284, 1433
5166, 1019, 1075, 1113, 1507
5167, 322, 324, 325, 1224
5168, 1220, 1175, 1549, 1569
5169, 503, 1133, 1076, 1557
5170, 1167, 1444, 1179, 1556
5171, 1016, 1436, 1156, 1510
5172, 1014, 1106, 1138, 1379
5173, 525, 1159, 114, 1160
5174, 1002, 1259, 1411, 1487
5175, 1214, 1489, 1106, 1547
5176, 637, 594, 609, 1073
5177, 267, 268, 290, 1541
5178, 1031, 1358, 1284, 1393
5179, 987, 1257, 1115, 1320
5180, 358, 343, 349, 1453
5181, 13, 1160, 1184, 1505
5182, 710, 741, 1321, 1518
5183, 361, 1129, 1532, 1551
5184, 1093, 1193, 1553, 1568
5185, 335, 329, 336, 1371
5186, 1215, 1315, 1097, 1339
5187, 1126, 1200, 148, 1403
5188, 1237, 1384, 275, 1492
5189, 1187, 1376, 1375, 1548
5190, 1127, 1247, 1144, 1496
5191, 1097, 1061, 1233, 1520
5192, 1107, 1334, 1332, 1495
5193, 347, 322, 1224, 1502
5194, 1021, 1206, 1243, 1572
5195, 995, 1182, 1142, 1310
5196, 1034, 1093, 1251, 1460
5197, 708, 166, 1080, 1473
5198, 579, 1052, 595, 1545
5199, 1176, 1200, 1067, 1306
5200, 146, 1446, 620, 1457
5201, 1206, 1451, 258, 1541
5202, 311, 1262, 350, 1514
5203, 772, 1435, 1419, 1486
5204, 991, 1378, 1165, 1576
5205, 1140, 1293, 1078, 1561
5206, 413, 1276, 116, 1464
5207, 998, 1057, 1120, 1485
5208, 1015, 1435, 1190, 1497
5209, 1048, 1301, 1183, 1354
5210, 557, 493, 1080, 1089
5211, 1090, 1040, 1321, 1471
5212, 59, 1399, 60, 1495
5213, 337, 305, 361, 1285
5214, 656, 803, 660, 1271
5215, 72, 1437, 1197, 1508
5216, 1033, 1176, 1098, 1284
5217, 1138, 1437, 1137, 1532
5218, 491, 1345, 1194, 1488
5219, 993, 1408, 1203, 1439
5220, 998, 1311, 1166, 1405
5221, 61, 1332, 295, 1495
5222, 586, 1350, 1158, 1355
5223, 1043, 989, 1202, 1540
5224, 1132, 1154, 1066, 1487
5225, 674, 668, 1326, 1577
5226, 1543, 1544, 1150, 1554
5227, 1084, 1219, 987, 1318
5228, 1039, 1097, 1233, 1262
5229, 294, 276, 284, 1270
5230, 1143, 1334, 1191, 1509
5231, 1154, 1287, 991, 1537
5232, 1109, 1367, 707, 1372
5233, 1327, 1351, 1060, 1423
5234, 1053, 1293, 1142, 1374
5235, 1061, 1379, 1106, 1470
5236, 305, 1285, 335, 1532
5237, 654, 1173, 665, 1203
5238, 1034, 1274, 1317, 1318
5239, 1232, 1395, 1204, 1475
5240, 77, 355, 78, 1251
5241, 147, 805, 794, 1445
5242, 1165, 1378, 1328, 1576
5243, 1173, 1357, 1203, 1512
5244, 297, 35, 1, 1307
5245, 566, 170, 583, 668
5246, 13, 1354, 1160, 1505
5247, 1028, 1130, 1219, 1248
5248, 1049, 1193, 1110, 1481
5249, 340, 360, 309, 1535
5250, 1065, 1242, 1154, 1319
5251, 75, 1163, 1317, 1336
5252, 1019, 1199, 1240, 1574
5253, 75, 1336, 76, 1551
5254, 1005, 1099, 1125, 1185
5255, 1151, 1068, 1447, 1448
5256, 1093, 1521, 1454, 1553
5257, 170, 677, 583, 668
5258, 1143, 1021, 1206, 1413
5259, 579, 594, 595, 1052
5260, 1155, 1430, 1116, 1456
5261, 667, 760, 1313, 1320
5262, 1102, 1283, 1171, 1527
5263, 1033, 1200, 1176, 1306
5264, 1471, 1478, 1090, 1516
5265, 998, 1079, 1311, 1443
5266, 1091, 1331, 1298, 1490
5267, 1077, 1366, 1020, 1408
5268, 1258, 1347, 1151, 1533
5269, 1108, 1185, 1119, 1384
5270, 248, 736, 737, 1367
5271, 268, 1333, 290, 1541
5272, 774, 1226, 816, 1445
5273, 150, 1176, 1403, 1429
5274, 1012, 1049, 1390, 1493
5275, 351, 1280, 1430, 1582
5276, 1210, 1471, 1004, 1505
5277, 1040, 1388, 1321, 1512
5278, 58, 1188, 1335, 1399
5279, 1069, 1130, 1331, 1416
5280, 2, 1380, 1312, 1425
5281, 573, 575, 574, 1045
5282, 1023, 1164, 1252, 1591
5283, 1021, 1143, 1191, 1509
5284, 519, 1194, 491, 1538
5285, 279, 242, 53, 736
5286, 1102, 1159, 1054, 1184
5287, 335, 305, 336, 1285
5288, 276, 275, 1384, 1451
5289, 163, 490, 666, 1488
5290, 368, 330, 1504, 1534
5291, 1245, 1390, 1012, 1494
5292, 307, 1293, 1140, 1513
5293, 1052, 1227, 1187, 1291
5294, 664, 1179, 644, 1564
5295, 415, 118, 1300, 1515
5296, 1093, 1553, 1454, 1568
5297, 117, 1276, 1113, 1305
5298, 728, 1309, 1105, 1335
5299, 1021, 1324, 1212, 1325
5300, 1057, 1166, 1230, 1405
5301, 784, 756, 600, 1440
5302, 1065, 1307, 1242, 1319
5303, 1037, 1304, 1303, 1543
5304, 1224, 1343, 1092, 1519
5305, 510, 1054, 509, 1160
5306, 339, 1521, 1239, 1553
5307, 763, 761, 597, 1126
5308, 1182, 1368, 1047, 1386
5309, 620, 1355, 621, 1446
5310, 1197, 1437, 71, 1458
5311, 762, 569, 631, 1480
5312, 1114, 1281, 1354, 1538
5313, 2, 1312, 1088, 1313
5314, 423, 425, 1272, 1281
5315, 997, 1211, 1187, 1556
5316, 680, 801, 1115, 1402
5317, 775, 780, 777, 1226
5318, 1169, 1285, 1131, 1529
5319, 1027, 1208, 1169, 1224
5320, 787, 1044, 693, 1198
5321, 351, 1195, 309, 1453
5322, 1049, 1149, 1289, 1493
5323, 256, 1191, 255, 1492
5324, 777, 795, 798, 1134
5325, 766, 767, 768, 1306
5326, 750, 645, 690, 1531
5327, 149, 1226, 1412, 1429
5328, 772, 1190, 770, 1419
5329, 1117, 1278, 1358, 1452
5330, 1310, 1506, 1078, 1507
5331, 1021, 1099, 1206, 1572
5332, 1138, 1532, 1137, 1551
5333, 705, 1136, 703, 1372
5334, 659, 643, 1083, 1501
5335, 792, 1217, 655, 1397
5336, 1146, 1299, 1295, 1575
5337, 700, 1090, 702, 1321
5338, 626, 1211, 538, 1498
5339, 674, 684, 680, 1254
5340, 68, 1249, 1265, 1524
5341, 1064, 1091, 1298, 1490
5342, 158, 651, 548, 1246
5343, 789, 1087, 1086, 1282
5344, 266, 303, 300, 1241
5345, 1043, 1399, 1162, 1503
5346, 1233, 1262, 1097, 1520
5347, 119, 1272, 1235, 1344
5348, 1007, 1408, 1203, 1517
5349, 1201, 1210, 1068, 1448
5350, 1013, 1452, 1284, 1562
5351, 1190, 1418, 1340, 1419
5352, 1017, 1047, 1292, 1368
5353, 710, 741, 702, 1321
5354, 35, 1147, 1377, 1580
5355, 329, 1371, 328, 1525
5356, 538, 1211, 501, 1498
5357, 331, 1131, 1476, 1529
5358, 1132, 1242, 1105, 1503
5359, 35, 1319, 1307, 1587
5360, 623, 1079, 582, 1442
5361, 776, 770, 1340, 1419
5362, 416, 419, 413, 1276
5363, 116, 413, 117, 1276
5364, 64, 1161, 1227, 1548
5365, 1015, 1170, 1063, 1431
5366, 784, 765, 756, 1440
5367, 764, 791, 763, 1126
5368, 263, 259, 262, 1413
5369, 264, 1243, 302, 1578
5370, 1040, 1100, 1210, 1428
5371, 1115, 1320, 680, 1466
5372, 1025, 1373, 1027, 1555
5373, 554, 426, 522, 1427
5374, 1099, 722, 1432, 1572
5375, 557, 487, 494, 1089
5376, 745, 654, 662, 1101
5377, 678, 728, 1105, 1335
5378, 56, 57, 1335, 1463
5379, 67, 1265, 1144, 1524
5380, 333, 327, 330, 1222
5381, 1145, 1398, 999, 1522
5382, 1164, 1328, 1252, 1591
5383, 1055, 1197, 1166, 1437
5384, 999, 1209, 1173, 1398
5385, 602, 599, 607, 1134
5386, 1097, 1520, 1262, 1526
5387, 1216, 1082, 1396, 1421
5388, 281, 1228, 273, 1362
5389, 369, 332, 357, 1349
5390, 65, 1227, 1196, 1291
5391, 1054, 1160, 510, 1426
5392, 522, 426, 114, 1159
5393, 596, 1211, 626, 1564
5394, 359, 1181, 73, 1530
5395, 76, 7, 1342, 1383
5396, 467, 470, 472, 1468
5397, 1411, 1487, 1154, 1576
5398, 47, 1125, 46, 1499
5399, 541, 745, 662, 1101
5400, 1064, 1298, 1223, 1490
5401, 703, 1202, 701, 1571
5402, 1187, 1291, 1227, 1548
5403, 1159, 1184, 1102, 1527
5404, 83, 1220, 1221, 1448
5405, 257, 275, 1451, 1492
5406, 1129, 1138, 1137, 1551
5407, 997, 1246, 1167, 1286
5408, 1020, 1116, 1092, 1152
5409, 291, 248, 303, 1241
5410, 1124, 1353, 1026, 1560
5411, 1189, 1301, 1048, 1447
5412, 597, 1126, 608, 1440
5413, 692, 696, 697, 1364
5414, 993, 1286, 1246, 1359
5415, 1142, 1161, 1053, 1374
5416, 1043, 1188, 1105, 1309
5417, 1084, 987, 1088, 1588
5418, 1182, 1310, 1104, 1507
5419, 786, 1397, 1364, 1489
5420, 1106, 1214, 1042, 1489
5421, 1014, 1340, 1418, 1419
5422, 80, 306, 81, 1353
5423, 562, 1472, 1426, 1473
5424, 986, 1378, 1123, 1494
5425, 1179, 1442, 1225, 1443
5426, 1189, 1288, 1263, 1491
5427, 367, 308, 366, 1534
5428, 368, 345, 367, 1534
5429, 781, 806, 815, 1435
5430, 1329, 1354, 1281, 1538
5431, 1236, 1103, 1421, 1474
5432, 1151, 1051, 1363, 1533
5433, 1173, 1388, 1357, 1512
5434, 1028, 987, 1294, 1466
5435, 991, 1411, 1165, 1533
5436, 1076, 1171, 1022, 1192
5437, 84, 1221, 364, 1346
5438, 1039, 1208, 1122, 1514
5439, 1172, 1210, 1068, 1478
5440, 154, 496, 565, 1256
5441, 1137, 1230, 1057, 1476
5442, 259, 258, 260, 1206
5443, 1131, 1285, 1137, 1476
5444, 1093, 1337, 1026, 1528
5445, 1137, 1476, 1285, 1532
5446, 1080, 1259, 1003, 1540
5447, 1051, 1346, 1221, 1363
5448, 760, 815, 818, 1257
5449, 1001, 1385, 1118, 1431
5450, 468, 1457, 473, 1579
5451, 522, 114, 525, 1159
5452, 548, 559, 521, 1246
5453, 1170, 1296, 1308, 1542
5454, 1088, 987, 1466, 1588
5455, 1085, 1044, 1267, 1382
5456, 1049, 1371, 1239, 1525
5457, 313, 1365, 364, 1477
5458, 39, 1264, 38, 1409
5459, 70, 1230, 1166, 1458
5460, 789, 1086, 818, 1282
5461, 636, 1234, 687, 1450
5462, 1203, 1408, 993, 1517
5463, 1035, 1124, 1347, 1560
5464, 812, 1364, 1214, 1489
5465, 425, 1159, 412, 1527
5466, 1208, 1280, 1122, 1365
5467, 658, 665, 645, 1173
5468, 44, 1273, 1198, 1382
5469, 1040, 1201, 1210, 1516
5470, 588, 612, 1412, 1482
5471, 1204, 1232, 1058, 1395
5472, 1384, 1451, 275, 1492
5473, 759, 643, 792, 1501
5474, 1049, 1193, 1525, 1553
5475, 1297, 1374, 363, 1513
5476, 1239, 1525, 347, 1553
5477, 419, 1300, 415, 1389
5478, 1040, 1090, 1436, 1516
5479, 1139, 1318, 1009, 1460
5480, 1006, 1109, 1268, 1571
5481, 1032, 1265, 1196, 1485
5482, 532, 1276, 516, 1344
5483, 1199, 1374, 1142, 1573
5484, 995, 1104, 1182, 1310
5485, 257, 1451, 258, 1492
5486, 709, 1188, 1109, 1571
5487, 1013, 1284, 1311, 1562
5488, 283, 253, 281, 1438
5489, 1007, 1391, 1357, 1408
5490, 493, 1080, 1089, 1345
5491, 758, 1282, 790, 1364
5492, 256, 258, 257, 1330
5493, 1014, 1217, 1379, 1501
5494, 1043, 1309, 1003, 1540
5495, 1044, 1267, 1087, 1282
5496, 605, 1094, 497, 1211
5497, 335, 312, 359, 1476
5498, 1258, 1411, 1347, 1533
5499, 564, 601, 624, 1550
5500, 1155, 1269, 1020, 1286
5501, 75, 1342, 1129, 1551
5502, 992, 1252, 1078, 1328
5503, 83, 1448, 1201, 1549
5504, 247, 286, 298, 1592
5505, 292, 1451, 1185, 1541
5506, 746, 707, 717, 1367
5507, 1151, 1447, 1221, 1448
5508, 1222, 1297, 333, 1513
5509, 276, 257, 275, 1451
5510, 1085, 1387, 1267, 1425
5511, 1001, 1294, 1115, 1577
5512, 644, 1179, 567, 1564
5513, 1125, 1185, 1099, 1333
5514, 1112, 1196, 66, 1265
5515, 1024, 1263, 1288, 1491
5516, 988, 1395, 1236, 1396
5517, 1070, 1385, 1277, 1524
5518, 259, 1231, 260, 1330
5519, 1000, 1388, 1173, 1531
5520, 1087, 1267, 1086, 1282
5521, 1033, 1098, 591, 1483
5522, 1061, 999, 1379, 1470
5523, 20, 1403, 1098, 1457
5524, 43, 1267, 1387, 1425
5525, 1150, 1430, 1155, 1544
5526, 1212, 1279, 1136, 1325
5527, 675, 1450, 1234, 1584
5528, 1049, 1289, 1149, 1525
5529, 1030, 1486, 1056, 1547
5530, 518, 1114, 519, 1281
5531, 1026, 1360, 1124, 1560
5532, 83, 364, 8, 1221
5533, 271, 273, 272, 1334
5534, 1217, 1470, 1042, 1489
5535, 1115, 987, 1320, 1466
5536, 1350, 1355, 1072, 1400
5537, 1206, 1413, 1168, 1578
5538, 46, 278, 47, 1207
5539, 1053, 995, 1142, 1561
5540, 1069, 1295, 1153, 1416
5541, 1120, 1278, 1166, 1562
5542, 1223, 1356, 1035, 1560
5543, 1040, 1210, 1471, 1516
5544, 1000, 1315, 1209, 1339
5545, 1008, 1078, 1328, 1561
5546, 1115, 1466, 680, 1577
5547, 1060, 1152, 1092, 1186
5548, 650, 1079, 1442, 1443
5549, 1089, 1172, 1004, 1505
5550, 1012, 1410, 1494, 1590
5551, 1216, 1396, 1315, 1421
5552, 1154, 991, 1411, 1576
5553, 552, 510, 1160, 1426
5554, 650, 656, 660, 1079
5555, 338, 1285, 1169, 1529
5556, 1049, 1525, 1239, 1553
5557, 504, 1076, 503, 1133
5558, 1124, 1051, 1360, 1589
5559, 341, 1127, 1349, 1467
5560, 1133, 1244, 504, 1389
5561, 1261, 1358, 1117, 1400
5562, 491, 519, 517, 1194
5563, 1251, 1253, 77, 1370
5564, 776, 1419, 813, 1489
5565, 1030, 1419, 1190, 1435
5566, 259, 262, 1413, 1578
5567, 507, 1102, 1300, 1427
5568, 1122, 81, 1365, 1424
5569, 1139, 1370, 1251, 1521
5570, 622, 620, 621, 1446
5571, 81, 306, 317, 1353
5572, 516, 517, 518, 1272
5573, 118, 1113, 1276, 1344
5574, 64, 1186, 310, 1351
5575, 1124, 1566, 1353, 1569
5576, 467, 472, 470, 1480
5577, 1173, 1209, 1000, 1531
5578, 302, 264, 285, 1231
5579, 1169, 1502, 321, 1529
5580, 1282, 1312, 1086, 1314
5581, 1045, 1350, 574, 1563
5582, 502, 1244, 1133, 1323
5583, 80, 1454, 350, 1568
5584, 1426, 1471, 1054, 1505
5585, 612, 611, 602, 1134
5586, 596, 626, 663, 1564
5587, 516, 514, 515, 1276
5588, 1184, 1283, 1183, 1491
5589, 628, 477, 468, 1482
5590, 1090, 1321, 1040, 1436
5591, 1049, 1245, 1026, 1337
5592, 501, 1094, 500, 1323
5593, 560, 490, 163, 1488
5594, 744, 1103, 697, 1518
5595, 686, 540, 484, 1488
5596, 746, 1372, 1168, 1572
5597, 1155, 1152, 1269, 1327
5598, 652, 658, 645, 1209
5599, 258, 1451, 282, 1541
5600, 6, 1277, 1249, 1524
5601, 664, 653, 1167, 1564
5602, 1158, 1358, 1031, 1393
5603, 1209, 1315, 1000, 1518
5604, 1059, 1250, 992, 1507
5605, 244, 294, 274, 1384
5606, 668, 570, 171, 674
5607, 281, 1362, 272, 1394
5608, 795, 783, 798, 1134
5609, 697, 744, 749, 1103
5610, 1210, 1048, 1447, 1536
5611, 1106, 1336, 1138, 1551
5612, 996, 1223, 1298, 1490
5613, 72, 1197, 1308, 1508
5614, 285, 264, 260, 1231
5615, 1258, 1259, 1066, 1411
5616, 1001, 1070, 1385, 1431
5617, 1034, 1139, 1317, 1370
5618, 632, 591, 625, 1440
5619, 1177, 1326, 1017, 1368
5620, 319, 321, 1193, 1553
5621, 627, 1256, 565, 1376
5622, 273, 249, 271, 1455
5623, 1093, 1139, 1009, 1460
5624, 76, 7, 1317, 1370
5625, 1, 1377, 1147, 1511
5626, 64, 1227, 1161, 1247
5627, 569, 783, 599, 1134
5628, 786, 696, 1364, 1397
5629, 659, 1217, 643, 1501
5630, 565, 496, 1094, 1256
5631, 1213, 1078, 1506, 1570
5632, 467, 810, 796, 1468
5633, 1214, 1282, 790, 1486
5634, 356, 1456, 1152, 1504
5635, 1151, 1347, 1221, 1533
5636, 1296, 1349, 1062, 1467
5637, 1105, 1335, 1188, 1399
5638, 1024, 1150, 1288, 1414
5639, 468, 471, 1403, 1579
5640, 311, 1233, 78, 1520
5641, 1187, 1376, 1094, 1420
5642, 313, 317, 82, 1365
5643, 1220, 1221, 1124, 1566
5644, 64, 1297, 1161, 1374
5645, 424, 530, 528, 1389
5646, 365, 1296, 70, 1467
5647, 469, 1126, 1403, 1579
5648, 710, 1279, 744, 1518
5649, 670, 163, 666, 1488
5650, 498, 1256, 627, 1386
5651, 998, 1179, 1443, 1444
5652, 497, 501, 538, 1211
5653, 1026, 1174, 1528, 1560
5654, 348, 1454, 1553, 1568
5655, 1025, 1057, 1373, 1555
5656, 1035, 1220, 1175, 1422
5657, 1027, 1092, 1224, 1343
5658, 571, 1118, 570, 1326
5659, 342, 1280, 360, 1582
5660, 336, 1371, 329, 1525
5661, 505, 1102, 507, 1359
5662, 120, 423, 121, 1272
5663, 1181, 1308, 73, 1530
5664, 1107, 1399, 1268, 1495
5665, 693, 1044, 727, 1499
5666, 282, 276, 257, 1330
5667, 513, 514, 1075, 1250
5668, 644, 1443, 1442, 1444
5669, 1312, 1314, 1282, 1558
5670, 1172, 1080, 1478, 1540
5671, 511, 1104, 558, 1449
5672, 1053, 1128, 1222, 1297
5673, 798, 1134, 762, 1480
5674, 301, 1243, 267, 1432
5675, 1172, 1259, 1080, 1540
5676, 737, 248, 54, 736
5677, 336, 1285, 338, 1529
5678, 686, 484, 670, 1488
5679, 745, 713, 654, 1101
5680, 679, 789, 1087, 1313
5681, 1051, 1164, 1346, 1363
5682, 995, 1292, 1047, 1368
5683, 1004, 1090, 1471, 1478
5684, 1173, 1357, 999, 1398
5685, 1294, 1465, 1028, 1466
5686, 344, 89, 88, 1293
5687, 414, 423, 420, 1272
5688, 257, 282, 258, 1451
5689, 41, 2, 1088, 1348
5690, 1277, 1467, 1070, 1524
5691, 1134, 1226, 1046, 1412
5692, 1161, 1227, 1047, 1247
5693, 678, 1132, 670, 1242
5694, 990, 1236, 1082, 1421
5695, 201, 667, 760, 1313
5696, 707, 709, 1109, 1571
5697, 989, 1258, 1259, 1539
5698, 1153, 1384, 1237, 1552
5699, 1093, 1459, 1251, 1460
5700, 1032, 1073, 1196, 1265
5701, 1062, 1070, 1296, 1467
5702, 262, 266, 1413, 1578
5703, 150, 1412, 1261, 1429
5704, 507, 1102, 509, 1565
5705, 1184, 1283, 1102, 1527
5706, 642, 158, 548, 1246
5707, 1055, 1405, 1137, 1437
5708, 670, 666, 671, 1050
5709, 775, 780, 1226, 1497
5710, 692, 749, 1290, 1364
5711, 80, 79, 350, 1454
5712, 290, 268, 267, 1417
5713, 1287, 1319, 1064, 1537
5714, 566, 570, 171, 668
5715, 1027, 1116, 1208, 1224
5716, 1039, 1208, 1169, 1391
5717, 1012, 1493, 1245, 1494
5718, 1040, 1471, 1090, 1516
5719, 366, 1349, 341, 1496
5720, 1243, 1432, 722, 1572
5721, 1168, 1206, 1021, 1413
5722, 677, 638, 583, 1234
5723, 1012, 1494, 1390, 1590
5724, 1267, 1282, 1085, 1312
5725, 1119, 1382, 1267, 1387
5726, 336, 1239, 1371, 1525
5727, 1341, 1544, 1213, 1570
5728, 274, 1270, 294, 1404
5729, 1085, 1282, 1044, 1474
5730, 1068, 1210, 1172, 1447
5731, 550, 519, 491, 1538
5732, 1027, 1169, 1039, 1522
5733, 487, 557, 1080, 1089
5734, 1146, 1438, 1038, 1575
5735, 1248, 1130, 1416, 1469
5736, 767, 1271, 765, 1338
5737, 1076, 1133, 1389, 1484
5738, 354, 309, 85, 1346
5739, 1088, 1141, 1248, 1348
5740, 1012, 1049, 1149, 1390
5741, 990, 1282, 1085, 1474
5742, 1004, 1471, 1426, 1505
5743, 1217, 1397, 792, 1489
5744, 271, 272, 270, 1334
5745, 1022, 1029, 1269, 1557
5746, 317, 1535, 313, 1566
5747, 353, 70, 71, 1230
5748, 162, 549, 675, 1381
5749, 82, 317, 1566, 1569
5750, 1456, 1519, 349, 1582
5751, 351, 1280, 309, 1430
5752, 1019, 1507, 1506, 1586
5753, 1196, 1227, 65, 1247
5754, 1050, 1411, 1165, 1576
5755, 995, 1053, 1161, 1292
5756, 648, 1167, 651, 1246
5757, 1005, 1290, 1125, 1559
5758, 1113, 1250, 1075, 1276
5759, 510, 509, 1054, 1565
5760, 544, 122, 1244, 1323
5761, 1110, 1453, 1369, 1589
5762, 1080, 708, 1473, 1585
5763, 475, 800, 467, 1480
5764, 354, 309, 1346, 1535
5765, 573, 1045, 574, 1563
5766, 257, 1330, 275, 1394
5767, 777, 798, 799, 1480
5768, 1106, 1056, 1216, 1547
5769, 767, 1271, 768, 1306
5770, 201, 760, 789, 1313
5771, 316, 362, 1370, 1521
5772, 641, 612, 473, 474
5773, 20, 1072, 1261, 1412
5774, 1030, 1163, 1336, 1547
5775, 35, 1307, 36, 1587
5776, 1021, 1243, 1168, 1572
5777, 1159, 1160, 1054, 1184
5778, 1036, 1256, 1240, 1449
5779, 267, 301, 304, 1417
5780, 1079, 1271, 1338, 1483
5781, 265, 262, 266, 1413
5782, 666, 672, 671, 1123
5783, 1116, 1020, 1155, 1456
5784, 574, 634, 586, 1158
5785, 751, 1290, 694, 1559
5786, 1072, 1355, 585, 1482
5787, 416, 419, 415, 1389
5788, 644, 1442, 1179, 1444
5789, 1056, 1317, 1274, 1318
5790, 1092, 1504, 1456, 1519
5791, 1006, 1372, 1325, 1509
5792, 511, 558, 513, 1449
5793, 340, 342, 360, 1369
5794, 1117, 1358, 1158, 1400
5795, 313, 1280, 1365, 1477
5796, 793, 807, 1340, 1501
5797, 495, 1426, 562, 1472
5798, 819, 759, 793, 1501
5799, 1257, 1314, 1086, 1588
5800, 809, 1087, 787, 1198
5801, 295, 61, 249, 1332
5802, 1008, 1140, 1053, 1493
5803, 1174, 1459, 1093, 1528
5804, 311, 1233, 1262, 1514
5805, 8, 1447, 1210, 1448
5806, 368, 333, 330, 1222
5807, 1188, 1309, 714, 1335
5808, 660, 802, 606, 1338
5809, 1028, 1088, 987, 1466
5810, 1192, 1303, 117, 1515
5811, 1067, 1200, 1429, 1445
5812, 337, 336, 338, 1239
5813, 606, 784, 600, 1338
5814, 1285, 1476, 1131, 1529
5815, 1182, 1019, 1449, 1574
5816, 809, 685, 1087, 1198
5817, 995, 1292, 1177, 1494
5818, 469, 149, 471, 1403
5819, 1030, 1138, 1418, 1547
5820, 1066, 1259, 1258, 1539
5821, 607, 587, 588, 1567
5822, 1193, 1481, 1049, 1525
5823, 1017, 1177, 1292, 1410
5824, 1419, 1435, 1030, 1486
5825, 780, 1254, 1046, 1402
5826, 1164, 1023, 1363, 1591
5827, 1038, 1479, 1218, 1509
5828, 1027, 1169, 1208, 1391
5829, 319, 1208, 1502, 1514
5830, 333, 1222, 368, 1297
5831, 43, 44, 1273, 1404
5832, 622, 621, 1355, 1446
5833, 45, 1207, 1270, 1433
5834, 1187, 1227, 1376, 1548
5835, 770, 772, 771, 1190
5836, 1414, 1430, 86, 1477
5837, 741, 1321, 1518, 1531
5838, 540, 1309, 492, 1345
5839, 1012, 1390, 1245, 1493
5840, 1085, 1044, 1382, 1474
5841, 1171, 1192, 1076, 1515
5842, 675, 486, 1450, 1584
5843, 597, 763, 1126, 1440
5844, 428, 115, 1255, 1464
5845, 43, 1267, 42, 1407
5846, 988, 1232, 1395, 1415
5847, 205, 696, 692, 1364
5848, 805, 773, 794, 1445
5849, 1086, 1267, 1087, 1407
5850, 1000, 1097, 1339, 1388
5851, 1124, 1221, 1220, 1347
5852, 566, 1326, 572, 1563
5853, 253, 252, 254, 1237
5854, 320, 1208, 342, 1582
5855, 321, 1502, 1169, 1514
5856, 43, 244, 286, 1387
5857, 1110, 1453, 1289, 1481
5858, 1295, 1299, 1069, 1575
5859, 81, 1353, 317, 1569
5860, 1051, 1535, 1346, 1589
5861, 304, 1333, 250, 1432
5862, 290, 278, 268, 1433
5863, 63, 1291, 64, 1351
5864, 1054, 1471, 1426, 1517
5865, 1026, 1528, 1223, 1560
5866, 1236, 1395, 1082, 1396
5867, 680, 782, 801, 1254
5868, 505, 1076, 506, 1300
5869, 1063, 1001, 1431, 1542
5870, 1199, 1573, 1142, 1586
5871, 259, 1413, 1206, 1578
5872, 1346, 1363, 1164, 1583
5873, 1052, 1211, 595, 1545
5874, 988, 1395, 1232, 1475
5875, 727, 1044, 693, 1290
5876, 316, 75, 76, 1342
5877, 258, 261, 282, 1330
5878, 79, 78, 311, 1454
5879, 335, 1371, 1181, 1530
5880, 1240, 1256, 1036, 1420
5881, 333, 368, 330, 1504
5882, 1037, 1178, 1544, 1554
5883, 370, 1297, 352, 1513
5884, 1160, 1329, 1089, 1354
5885, 59, 240, 60, 1361
5886, 1104, 1449, 1182, 1507
5887, 992, 1310, 1078, 1507
5888, 355, 1251, 362, 1521
5889, 1025, 1373, 1057, 1405
5890, 751, 1125, 727, 1290
5891, 250, 278, 47, 1333
5892, 274, 244, 286, 1404
5893, 1170, 1197, 1063, 1308
5894, 20, 1072, 1412, 1482
5895, 1029, 1133, 997, 1557
5896, 1097, 1215, 1061, 1520
5897, 591, 1440, 1033, 1483
5898, 149, 469, 471, 1412
5899, 1085, 1267, 1044, 1282
5900, 1235, 1059, 1304, 1344
5901, 1076, 1192, 1484, 1515
5902, 515, 517, 516, 1059
5903, 1110, 1049, 1289, 1493
5904, 1116, 1152, 1020, 1456
5905, 578, 634, 575, 1392
5906, 145, 20, 1446, 1457
5907, 323, 1224, 1502, 1582
5908, 1005, 1125, 1099, 1559
5909, 609, 594, 576, 1073
5910, 1242, 1455, 1361, 1503
5911, 796, 147, 475, 1468
5912, 308, 341, 67, 1496
5913, 345, 308, 66, 1496
5914, 1321, 1471, 1040, 1512
5915, 1210, 1447, 1263, 1536
5916, 65, 1196, 1186, 1291
5917, 989, 1478, 1202, 1540
5918, 293, 58, 59, 1268
5919, 1103, 1364, 1042, 1421
5920, 801, 815, 760, 1320
5921, 1012, 1053, 1222, 1493
5922, 1238, 1490, 1319, 1537
5923, 1214, 1364, 1042, 1489
5924, 76, 1383, 1342, 1551
5925, 341, 1349, 1127, 1496
5926, 1114, 1272, 425, 1281
5927, 20, 1158, 1358, 1400
5928, 534, 516, 518, 1272
5929, 365, 315, 69, 1229
5930, 538, 626, 605, 1211
5931, 603, 1234, 636, 1450
5932, 277, 1243, 301, 1432
5933, 353, 70, 365, 1296
5934, 995, 1310, 1142, 1561
5935, 1160, 1354, 1089, 1505
5936, 611, 569, 602, 1134
5937, 350, 1454, 348, 1568
5938, 734, 277, 243, 1432
5939, 659, 1217, 1145, 1398
5940, 1208, 1280, 342, 1582
5941, 1012, 1149, 1062, 1390
5942, 1217, 1489, 792, 1501
5943, 1121, 1322, 1192, 1484
5944, 1043, 1105, 1003, 1309
5945, 1152, 1155, 1020, 1456
5946, 1062, 1009, 1181, 1542
5947, 1053, 1008, 1493, 1494
5948, 781, 806, 1435, 1497
5949, 790, 1282, 818, 1486
5950, 1084, 1380, 1312, 1588
5951, 1002, 1345, 1259, 1487
5952, 488, 642, 548, 1246
5953, 419, 1300, 1389, 1515
5954, 1036, 1182, 1449, 1574
5955, 256, 259, 1330, 1394
5956, 317, 1369, 340, 1535
5957, 1085, 1312, 1282, 1558
5958, 1127, 1496, 1144, 1524
5959, 64, 352, 310, 1297
5960, 2, 1312, 1407, 1425
5961, 364, 1346, 1221, 1535
5962, 239, 284, 292, 1433
5963, 818, 1257, 788, 1486
5964, 58, 1188, 57, 1335
5965, 680, 1115, 801, 1320
5966, 745, 541, 699, 1101
5967, 1077, 1116, 1020, 1155
5968, 1092, 1116, 1027, 1224
5969, 306, 1353, 80, 1568
5970, 1007, 1388, 1357, 1391
5971, 118, 1303, 1171, 1515
5972, 1205, 1343, 346, 1534
5973, 702, 700, 701, 1090
5974, 1112, 1265, 1229, 1485
5975, 331, 332, 357, 1476
5976, 740, 723, 742, 1333
5977, 1034, 1219, 1318, 1460
5978, 710, 702, 705, 1136
5979, 507, 505, 506, 1300
5980, 348, 1553, 319, 1568
5981, 116, 422, 115, 1484
5982, 779, 1419, 776, 1489
5983, 1018, 1180, 1153, 1552
5984, 1001, 1177, 1326, 1410
5985, 1046, 1402, 1015, 1497
5986, 334, 349, 358, 1456
5987, 1187, 1211, 1052, 1556
5988, 578, 622, 1158, 1393
5989, 561, 555, 1439, 1565
5990, 323, 1519, 1224, 1582
5991, 1050, 1487, 1411, 1576
5992, 312, 1371, 335, 1530
5993, 992, 1252, 1113, 1507
5994, 687, 675, 486, 1450
5995, 640, 610, 567, 1179
5996, 509, 1102, 507, 1159
5997, 1022, 1155, 1150, 1366
5998, 583, 1368, 1234, 1386
5999, 345, 1504, 1186, 1534
6000, 364, 1535, 1221, 1566
6001, 1001, 1326, 1118, 1385
6002, 1034, 1317, 1139, 1318
6003, 326, 1343, 1224, 1519
6004, 1140, 1289, 1222, 1493
6005, 1165, 1328, 1533, 1591
6006, 595, 594, 637, 1376
6007, 45, 46, 1207, 1433
6008, 1076, 1484, 1389, 1515
6009, 736, 754, 717, 1367
6010, 1133, 1029, 1484, 1557
6011, 59, 1268, 1399, 1495
6012, 1202, 1266, 1090, 1478
6013, 336, 335, 1285, 1529
6014, 653, 651, 1167, 1498
6015, 1044, 1125, 1382, 1474
6016, 549, 486, 675, 1584
6017, 1257, 1086, 1320, 1588
6018, 785, 617, 601, 1254
6019, 526, 1256, 123, 1323
6020, 693, 1198, 1044, 1499
6021, 1270, 1404, 274, 1409
6022, 62, 249, 297, 1455
6023, 672, 1123, 666, 1584
6024, 1257, 1314, 1030, 1486
6025, 270, 280, 272, 1362
6026, 1015, 1115, 1402, 1431
6027, 20, 1400, 1072, 1482
6028, 630, 567, 644, 1442
6029, 1080, 1309, 708, 1585
6030, 804, 803, 767, 1271
6031, 315, 68, 69, 1229
6032, 605, 497, 538, 1211
6033, 1024, 1288, 1263, 1414
6034, 1218, 1479, 1006, 1509
6035, 766, 769, 773, 1306
6036, 1080, 1003, 1259, 1345
6037, 1048, 1354, 1184, 1505
6038, 1335, 1361, 1074, 1461
6039, 356, 344, 334, 1513
6040, 1142, 1293, 1053, 1561
6041, 1032, 1120, 1249, 1265
6042, 277, 302, 301, 1243
6043, 72, 359, 73, 1530
6044, 1155, 1366, 1077, 1414
6045, 1068, 1422, 1201, 1448
6046, 625, 608, 632, 1440
6047, 81, 1549, 1175, 1569
6048, 1040, 1100, 1007, 1512
6049, 1034, 1251, 1139, 1370
6050, 1049, 1012, 1149, 1493
6051, 563, 625, 600, 1440
6052, 87, 1155, 1430, 1544
6053, 1104, 1450, 486, 1584
6054, 275, 254, 1394, 1409
6055, 1143, 1479, 1334, 1509
6056, 585, 1355, 633, 1482
6057, 1128, 1149, 1012, 1222
6058, 1001, 1431, 1118, 1577
6059, 645, 665, 654, 1173
6060, 707, 1109, 1372, 1571
6061, 571, 584, 570, 1118
6062, 252, 274, 275, 1384
6063, 265, 269, 263, 1413
6064, 994, 1145, 1373, 1522
6065, 302, 264, 301, 1243
6066, 419, 118, 1276, 1344
6067, 1039, 1233, 1169, 1514
6068, 557, 1089, 494, 1329
6069, 1324, 1475, 1038, 1552
6070, 82, 81, 317, 1569
6071, 678, 1074, 728, 1335
6072, 787, 1087, 789, 1282
6073, 761, 763, 791, 1126
6074, 45, 1270, 1207, 1273
6075, 353, 71, 1296, 1530
6076, 1342, 1383, 1129, 1551
6077, 84, 1414, 85, 1477
6078, 684, 782, 680, 1254
6079, 149, 1403, 1200, 1429
6080, 350, 79, 80, 1262
6081, 701, 1202, 1090, 1473
6082, 203, 787, 693, 1198
6083, 1041, 1215, 1097, 1523
6084, 636, 638, 687, 1234
6085, 1008, 1378, 1245, 1494
6086, 1083, 1145, 998, 1443
6087, 1034, 1251, 1459, 1460
6088, 738, 300, 242, 279
6089, 613, 473, 1457, 1579
6090, 1004, 1471, 1090, 1472
6091, 1248, 1331, 1130, 1469
6092, 1008, 1053, 1140, 1561
6093, 1142, 1374, 1199, 1375
6094, 995, 1177, 1292, 1368
6095, 606, 589, 623, 1338
6096, 994, 1357, 1391, 1408
6097, 571, 1326, 566, 1563
6098, 1027, 1039, 1169, 1391
6099, 599, 1134, 783, 1550
6100, 1090, 1471, 1321, 1472
6101, 256, 257, 258, 1492
6102, 45, 46, 1499, 1500
6103, 1209, 1217, 1042, 1397
6104, 1099, 1432, 1243, 1572
6105, 625, 1338, 1440, 1483
6106, 47, 48, 1499, 1500
6107, 78, 1441, 1251, 1454
6108, 556, 1089, 1329, 1538
6109, 1175, 1422, 1220, 1549
6110, 653, 1498, 1167, 1564
6111, 64, 352, 63, 1351
6112, 353, 365, 315, 1467
6113, 1076, 1484, 1192, 1557
6114, 325, 329, 328, 1525
6115, 1062, 1296, 1070, 1542
6116, 1234, 1368, 1182, 1386
6117, 361, 1285, 305, 1532
6118, 312, 357, 353, 1476
6119, 754, 721, 746, 1168
6120, 587, 1072, 588, 1567
6121, 1015, 1046, 1401, 1402
6122, 154, 498, 496, 1256
6123, 1000, 1041, 1279, 1315
6124, 356, 370, 314, 1513
6125, 168, 495, 699, 541
6126, 1191, 1237, 1038, 1438
6127, 1193, 319, 1553, 1568
6128, 713, 1321, 1101, 1472
6129, 994, 1373, 1145, 1444
6130, 245, 287, 291, 1463
6131, 655, 661, 811, 1397
6132, 368, 1504, 345, 1534
6133, 428, 115, 14, 1255
6134, 646, 1203, 642, 1439
6135, 88, 1213, 1544, 1570
6136, 1118, 1385, 1326, 1563
6137, 764, 1126, 763, 1440
6138, 687, 1234, 675, 1450
6139, 656, 659, 1083, 1443
6140, 1040, 1201, 1424, 1428
6141, 363, 352, 314, 1351
6142, 1116, 1092, 1456, 1519
6143, 323, 322, 320, 1502
6144, 257, 254, 275, 1492
6145, 706, 1559, 1212, 1572
6146, 271, 272, 273, 1362
6147, 1025, 1129, 1137, 1285
6148, 270, 271, 240, 1362
6149, 1052, 1211, 1545, 1556
6150, 415, 1300, 420, 1427
6151, 712, 1188, 714, 1335
6152, 1008, 1494, 1053, 1561
6153, 1150, 1022, 1543, 1554
6154, 584, 629, 570, 1118
6155, 1080, 1003, 1309, 1540
6156, 79, 80, 1262, 1526
6157, 1093, 1239, 1139, 1521
6158, 174, 785, 564, 757
6159, 1012, 1128, 1053, 1292
6160, 1208, 1169, 1502, 1514
6161, 1084, 1314, 1312, 1558
6162, 507, 1359, 1102, 1565
6163, 77, 362, 1251, 1370
6164, 8, 1210, 1428, 1448
6165, 179, 644, 567, 1564
6166, 1252, 1506, 1113, 1507
6167, 705, 703, 706, 1372
6168, 781, 1402, 780, 1497
6169, 88, 1293, 1213, 1570
6170, 62, 1242, 1132, 1503
6171, 340, 317, 318, 1369
6172, 1284, 1393, 1098, 1483
6173, 1238, 1319, 1065, 1537
6174, 1473, 1540, 1080, 1585
6175, 723, 1125, 751, 1559
6176, 772, 806, 771, 1435
6177, 20, 1355, 1158, 1400
6178, 205, 786, 696, 1364
6179, 536, 1300, 506, 1389
6180, 483, 561, 555, 1439
6181, 355, 339, 311, 1521
6182, 38, 283, 37, 1295
6183, 584, 1118, 1350, 1567
6184, 1113, 1506, 1019, 1507
6185, 1293, 1561, 1142, 1586
6186, 1007, 1203, 1512, 1517
6187, 754, 721, 1168, 1243
6188, 115, 1240, 14, 1255
6189, 684, 808, 782, 1254
6190, 346, 326, 330, 1343
6191, 1004, 1210, 1172, 1478
6192, 501, 500, 1133, 1323
6193, 748, 243, 288, 1432
6194, 1140, 1222, 1053, 1493
6195, 86, 351, 309, 1430
6196, 992, 1328, 1165, 1591
6197, 1057, 1230, 1137, 1405
6198, 1001, 1294, 1577, 1590
6199, 714, 1309, 728, 1335
6200, 1185, 1384, 1108, 1451
6201, 367, 346, 330, 1343
6202, 788, 1257, 815, 1435
6203, 1208, 1224, 1116, 1582
6204, 1125, 1290, 1005, 1474
6205, 309, 340, 354, 1280
6206, 774, 775, 1226, 1497
6207, 571, 566, 572, 1563
6208, 642, 651, 158, 1246
6209, 1275, 1520, 1097, 1526
6210, 327, 1343, 326, 1519
6211, 805, 1200, 773, 1445
6212, 1374, 1375, 1161, 1548
6213, 673, 1065, 672, 1465
6214, 1036, 1375, 1187, 1376
6215, 1043, 1105, 1399, 1503
6216, 663, 653, 596, 1564
6217, 468, 1403, 1457, 1579
6218, 1209, 1518, 1000, 1531
6219, 693, 753, 787, 204
6220, 1053, 1222, 1140, 1513
6221, 1167, 1556, 1179, 1564
6222, 1113, 1304, 1059, 1344
6223, 622, 634, 578, 1158
6224, 784, 600, 1338, 1440
6225, 281, 1394, 253, 1409
6226, 649, 664, 648, 1444
6227, 274, 1404, 286, 1592
6228, 1024, 1366, 1150, 1414
6229, 1008, 1360, 1245, 1378
6230, 1009, 1049, 1337, 1390
6231, 1097, 1520, 1275, 1523
6232, 1012, 1128, 1292, 1410
6233, 289, 36, 35, 1307
6234, 1112, 1343, 1205, 1534
6235, 347, 1502, 1224, 1529
6236, 1015, 1402, 1401, 1431
6237, 275, 276, 1270, 1330
6238, 280, 1157, 259, 1394
6239, 986, 1177, 1465, 1590
6240, 20, 1358, 1158, 1446
6241, 590, 1098, 1393, 1483
6242, 8, 1135, 1263, 1477
6243, 707, 1109, 709, 1434
6244, 602, 569, 599, 1134
6245, 786, 1364, 812, 1489
6246, 325, 329, 347, 1529
6247, 572, 609, 573, 1563
6248, 468, 473, 628, 1482
6249, 351, 87, 307, 1430
6250, 724, 652, 750, 1397
6251, 788, 1435, 772, 1486
6252, 1163, 1336, 75, 1508
6253, 997, 1498, 1211, 1556
6254, 290, 1333, 304, 1432
6255, 997, 1167, 1498, 1556
6256, 1102, 1171, 1300, 1527
6257, 646, 159, 483, 1439
6258, 619, 1545, 595, 1564
6259, 43, 244, 44, 1404
6260, 254, 256, 255, 1492
6261, 280, 259, 1157, 1462
6262, 558, 549, 520, 1381
6263, 1229, 1249, 1120, 1265
6264, 604, 585, 633, 1482
6265, 1506, 1507, 1310, 1586
6266, 1105, 1309, 1188, 1335
6267, 348, 350, 311, 1454
6268, 1048, 1491, 1263, 1536
6269, 806, 771, 1435, 1497
6270, 792, 655, 811, 1397
6271, 1110, 1008, 1245, 1493
6272, 562, 1426, 487, 1473
6273, 1091, 1416, 1331, 1469
6274, 309, 1430, 1280, 1477
6275, 1216, 1336, 1106, 1383
6276, 714, 1309, 1188, 1585
6277, 273, 1228, 246, 1307
6278, 1001, 1410, 1390, 1590
6279, 413, 117, 419, 1389
6280, 1072, 1350, 585, 1355
6281, 75, 1508, 1336, 1551
6282, 1144, 1385, 1017, 1410
6283, 62, 1455, 1242, 1503
6284, 58, 293, 59, 1461
6285, 1145, 1373, 998, 1444
6286, 987, 1314, 1257, 1588
6287, 758, 787, 753, 204
6288, 1001, 1326, 1177, 1590
6289, 323, 349, 324, 1519
6290, 1293, 1142, 1573, 1586
6291, 1057, 1112, 1205, 1229
6292, 1058, 1395, 1232, 1415
6293, 20, 1261, 1072, 1400
6294, 998, 1311, 1083, 1443
6295, 1266, 1090, 1478, 1516
6296, 739, 540, 686, 1309
6297, 1027, 1343, 1131, 1555
6298, 1081, 1197, 1170, 1458
6299, 667, 200, 760, 1320
6300, 1027, 1208, 1116, 1391
6301, 774, 775, 816, 1226
6302, 610, 619, 567, 1545
6303, 1205, 1230, 1229, 1476
6304, 1149, 1371, 1049, 1525
6305, 1057, 1137, 1025, 1405
6306, 349, 324, 327, 1289
6307, 595, 565, 605, 1211
6308, 1042, 1216, 1106, 1470
6309, 716, 707, 709, 1434
6310, 248, 737, 299, 1434
6311, 1295, 1438, 1146, 1575
6312, 1243, 1432, 1099, 1541
6313, 986, 1238, 1065, 1537
6314, 1257, 1435, 788, 1486
6315, 585, 1350, 586, 1355
6316, 663, 1498, 653, 1564
6317, 314, 1152, 1351, 1504
6318, 496, 1094, 1256, 1323
6319, 610, 567, 1179, 1545
6320, 1085, 1312, 1380, 1425
6321, 483, 159, 561, 1439
6322, 188, 654, 690, 645
6323, 60, 1361, 1455, 1503
6324, 1033, 1200, 1126, 1403
6325, 1110, 1245, 1049, 1493
6326, 1192, 1303, 1171, 1554
6327, 1275, 1441, 79, 1526
6328, 664, 1167, 648, 1444
6329, 1054, 1100, 1471, 1517
6330, 485, 548, 651, 1498
6331, 336, 305, 337, 1285
6332, 1021, 1325, 1372, 1509
6333, 413, 424, 417, 1464
6334, 723, 720, 1099, 1559
6335, 560, 543, 490, 1194
6336, 1133, 1420, 1323, 1546
6337, 622, 1158, 1393, 1446
6338, 1012, 1053, 1493, 1494
6339, 1017, 1326, 1177, 1410
6340, 1128, 1161, 1053, 1292
6341, 1057, 1112, 1229, 1485
6342, 531, 417, 424, 1464
6343, 475, 147, 796, 805
6344, 1346, 1535, 1195, 1589
6345, 1152, 1327, 314, 1351
6346, 1221, 1535, 1124, 1566
6347, 351, 1430, 307, 1456
6348, 1001, 1577, 1326, 1590
6349, 628, 146, 477, 1482
6350, 1171, 1300, 119, 1515
6351, 193, 643, 655, 792
6352, 370, 333, 356, 1504
6353, 513, 515, 514, 1250
6354, 737, 755, 299, 1434
6355, 767, 793, 768, 1271
6356, 78, 1441, 1275, 1523
6357, 1040, 1210, 1201, 1428
6358, 257, 254, 256, 1394
6359, 1225, 1442, 1079, 1443
6360, 1163, 1139, 1317, 1318
6361, 1097, 1315, 1000, 1339
6362, 60, 295, 61, 1455
6363, 779, 1214, 1419, 1489
6364, 784, 1338, 765, 1440
6365, 739, 1105, 728, 1309
6366, 1110, 1140, 1008, 1493
6367, 640, 1179, 567, 1442
6368, 488, 1246, 521, 1359
6369, 712, 56, 1188, 1335
6370, 260, 259, 1206, 1578
6371, 1133, 1094, 1323, 1420
6372, 1085, 1380, 1180, 1425
6373, 269, 240, 1461, 1462
6374, 1091, 1331, 1028, 1469
6375, 567, 1179, 644, 1442
6376, 658, 1217, 659, 1398
6377, 298, 286, 42, 1406
6378, 588, 628, 612, 1482
6379, 282, 1451, 292, 1541
6380, 338, 347, 336, 1529
6381, 291, 303, 248, 1367
6382, 1088, 1466, 1320, 1588
6383, 1167, 1246, 997, 1498
6384, 729, 1335, 1074, 1463
6385, 323, 343, 349, 1582
6386, 323, 322, 324, 1481
6387, 1056, 1336, 1163, 1547
6388, 769, 768, 770, 1306
6389, 1084, 1312, 1085, 1558
6390, 339, 338, 348, 1553
6391, 423, 412, 1427, 1527
6392, 1020, 1366, 1286, 1408
6393, 261, 258, 282, 1541
6394, 1136, 1325, 1279, 1510
6395, 1012, 1222, 1149, 1493
6396, 992, 1506, 1252, 1507
6397, 1007, 1512, 1100, 1517
6398, 790, 758, 787, 1282
6399, 1117, 1261, 1400, 1401
6400, 1052, 1187, 1060, 1291
6401, 1075, 1113, 1276, 1305
6402, 1009, 1181, 1139, 1239
6403, 283, 38, 1228, 1409
6404, 588, 1412, 1072, 1482
6405, 260, 264, 285, 1578
6406, 591, 625, 1440, 1483
6407, 1213, 1293, 89, 1573
6408, 1, 1287, 1377, 1511
6409, 686, 728, 739, 1105
6410, 119, 420, 415, 1300
6411, 708, 1080, 492, 1309
6412, 999, 1357, 1039, 1522
6413, 715, 1473, 708, 1585
6414, 59, 60, 240, 1495
6415, 804, 767, 765, 1338
6416, 14, 1323, 1420, 1546
6417, 636, 603, 638, 1234
6418, 496, 500, 1094, 1323
6419, 1092, 1112, 1011, 1186
6420, 804, 1271, 767, 1338
6421, 643, 193, 759, 792
6422, 558, 1104, 511, 1450
6423, 114, 412, 426, 1281
6424, 306, 80, 350, 1568
6425, 1116, 1456, 1430, 1582
6426, 1065, 1028, 1141, 1587
6427, 82, 1220, 1549, 1569
6428, 1177, 1577, 1465, 1590
6429, 796, 475, 467, 1468
6430, 564, 601, 785, 174
6431, 751, 727, 694, 1290
6432, 351, 358, 307, 1453
6433, 275, 1394, 1270, 1409
6434, 266, 265, 291, 1241
6435, 1043, 1188, 1309, 1585
6436, 760, 200, 801, 1320
6437, 1050, 1194, 1487, 1488
6438, 722, 723, 720, 1099
6439, 1072, 1400, 1261, 1401
6440, 586, 574, 1158, 1350
6441, 359, 312, 335, 1530
6442, 202, 679, 789, 1087
6443, 1326, 1577, 1177, 1590
6444, 1292, 1410, 1177, 1494
6445, 1158, 1355, 1350, 1400
6446, 425, 412, 113, 1281
6447, 419, 1389, 117, 1515
6448, 166, 487, 492, 1080
6449, 1099, 1333, 1185, 1541
6450, 243, 748, 734, 1432
6451, 1057, 1229, 1120, 1485
6452, 1114, 1235, 1059, 1302
6453, 1034, 1253, 1251, 1370
6454, 260, 262, 259, 1578
6455, 777, 799, 816, 1445
6456, 641, 473, 129, 474
6457, 734, 735, 277, 1243
6458, 1358, 1393, 1158, 1446
6459, 506, 1076, 504, 1389
6460, 993, 1359, 1246, 1439
6461, 998, 1057, 1373, 1405
6462, 243, 734, 51, 277
6463, 1042, 1397, 1217, 1489
6464, 785, 1254, 601, 1550
6465, 323, 1502, 320, 1582
6466, 322, 347, 325, 1525
6467, 1009, 1337, 1093, 1460
6468, 1009, 1318, 1219, 1460
6469, 783, 762, 798, 1134
6470, 988, 1396, 1279, 1510
6471, 264, 301, 1417, 1581
6472, 1140, 1289, 1110, 1453
6473, 1104, 1234, 1182, 1450
6474, 319, 348, 321, 1553
6475, 1193, 1369, 1110, 1481
6476, 760, 818, 789, 1086
6477, 1001, 1390, 1294, 1590
6478, 513, 1075, 512, 1449
6479, 317, 340, 313, 1535
6480, 1092, 1152, 1116, 1456
6481, 1229, 1265, 1120, 1485
6482, 367, 1343, 330, 1534
6483, 349, 334, 327, 1519
6484, 346, 1343, 367, 1534
6485, 703, 702, 701, 1136
6486, 420, 1272, 119, 1344
6487, 677, 638, 170, 583
6488, 1022, 1178, 1155, 1269
6489, 1248, 1416, 39, 1469
6490, 809, 787, 203, 1198
6491, 993, 1100, 1054, 1517
6492, 814, 1254, 785, 1550
6493, 746, 707, 1367, 1372
6494, 521, 503, 505, 1359
6495, 1343, 1504, 330, 1534
6496, 1365, 1424, 82, 1428
6497, 319, 320, 321, 1502
6498, 700, 1090, 1321, 1472
6499, 1068, 1210, 1447, 1448
6500, 1324, 1325, 1021, 1509
6501, 1112, 1092, 1343, 1534
6502, 729, 728, 196, 1074
6503, 616, 472, 130, 474
6504, 669, 1157, 1231, 1241
6505, 493, 550, 1345, 1538
6506, 537, 536, 506, 1389
6507, 539, 687, 486, 1450
6508, 795, 783, 1134, 1550
6509, 1251, 1454, 1093, 1521
6510, 311, 1262, 1233, 1520
6511, 664, 644, 653, 1564
6512, 323, 349, 1519, 1582
6513, 83, 364, 1221, 1566
6514, 514, 516, 532, 1276
6515, 1041, 1279, 1315, 1396
6516, 1014, 1419, 1418, 1547
6517, 647, 654, 665, 1203
6518, 627, 154, 565, 1256
6519, 364, 1365, 1135, 1477
6520, 1073, 1144, 1017, 1247
6521, 1033, 1284, 1098, 1483
6522, 45, 1382, 1198, 1499
6523, 644, 1179, 664, 1444
6524, 364, 354, 1346, 1535
6525, 659, 657, 1145, 1443
6526, 595, 1545, 1211, 1564
6527, 1016, 1156, 1436, 1516
6528, 494, 551, 552, 1160
6529, 1052, 1196, 1073, 1227
6530, 68, 1127, 1467, 1524
6531, 1017, 1292, 1177, 1368
6532, 1027, 1373, 1025, 1522
6533, 1028, 1141, 1088, 1466
6534, 150, 478, 471, 1403
6535, 323, 320, 322, 1481
6536, 35, 1377, 1319, 1587
6537, 41, 1348, 1248, 1592
6538, 1303, 1543, 1171, 1554
6539, 779, 1214, 778, 1419
6540, 118, 119, 1304, 1344
6541, 678, 1105, 1074, 1335
6542, 1053, 1374, 1297, 1513
6543, 1312, 1313, 1086, 1588
6544, 130, 611, 641, 474
6545, 1046, 1550, 1072, 1567
6546, 630, 650, 623, 1442
6547, 1226, 1429, 149, 1445
6548, 1216, 1315, 1215, 1470
6549, 1065, 689, 1242, 1307
6550, 1057, 1485, 1373, 1555
6551, 1498, 1556, 1167, 1564
6552, 70, 353, 71, 1296
6553, 83, 364, 313, 1365
6554, 681, 1465, 668, 1577
6555, 68, 315, 69, 1467
6556, 262, 285, 266, 1578
6557, 625, 1338, 600, 1440
6558, 331, 329, 335, 1371
6559, 43, 1406, 1404, 1407
6560, 320, 342, 323, 1582
6561, 1060, 1269, 1152, 1327
6562, 1003, 1132, 1105, 1503
6563, 607, 1134, 599, 1550
6564, 806, 788, 815, 1435
6565, 626, 663, 178, 596
6566, 82, 1566, 1220, 1569
6567, 1110, 1195, 1453, 1589
6568, 1309, 1080, 1540, 1585
6569, 1030, 1435, 1257, 1486
6570, 1116, 1430, 1280, 1582
6571, 322, 347, 321, 1502
6572, 644, 180, 630, 1442
6573, 155, 496, 497, 1094
6574, 543, 491, 517, 1194
6575, 289, 36, 246, 1580
6576, 283, 1228, 281, 1409
6577, 1011, 1060, 1052, 1556
6578, 1335, 1461, 1074, 1463
6579, 557, 556, 1089, 1329
6580, 146, 614, 477, 1457
6581, 1202, 1540, 1473, 1585
6582, 628, 146, 15, 477
6583, 337, 339, 316, 1521
6584, 1196, 1227, 1052, 1291
6585, 163, 670, 484, 1488
6586, 986, 1245, 1238, 1378
6587, 687, 161, 486, 675
6588, 743, 1333, 723, 1432
6589, 349, 1456, 334, 1519
6590, 1239, 1521, 1093, 1553
6591, 656, 659, 643, 1083
6592, 690, 713, 654, 188
6593, 626, 538, 663, 1498
6594, 684, 617, 808, 1254
6595, 478, 150, 471, 1412
6596, 692, 753, 758, 1364
6597, 780, 814, 795, 1550
6598, 1124, 1353, 1560, 1569
6599, 708, 492, 165, 1309
6600, 565, 496, 155, 1094
6601, 276, 292, 282, 1451
6602, 724, 661, 652, 1397
6603, 1211, 1556, 1498, 1564
6604, 79, 1441, 78, 1454
6605, 742, 723, 743, 1333
6606, 1240, 1256, 1255, 1449
6607, 255, 254, 253, 1394
6608, 1022, 1076, 1192, 1557
6609, 557, 1089, 556, 1538
6610, 1067, 1261, 1226, 1429
6611, 2, 1312, 1313, 1407
6612, 748, 734, 51, 243
6613, 1012, 1390, 1410, 1590
6614, 265, 269, 245, 1462
6615, 655, 643, 659, 1217
6616, 1188, 1268, 1109, 1571
6617, 1345, 1487, 1194, 1488
6618, 262, 263, 265, 1462
6619, 283, 253, 241, 1409
6620, 299, 248, 287, 1463
6621, 293, 245, 269, 1461
6622, 681, 680, 1466, 1577
6623, 1077, 1391, 1007, 1408
6624, 324, 327, 326, 1519
6625, 1006, 1372, 1109, 1571
6626, 488, 642, 1246, 1439
6627, 84, 364, 354, 1346
6628, 599, 175, 757, 783
6629, 780, 782, 814, 1254
6630, 411, 422, 428, 1464
6631, 79, 1520, 1275, 1526
6632, 1028, 1469, 1141, 1587
6633, 309, 360, 340, 1280
6634, 1033, 1098, 1176, 1403
6635, 678, 728, 686, 1105
6636, 149, 1429, 1200, 1445
6637, 50, 288, 748, 243
6638, 1027, 1169, 1131, 1224
6639, 1067, 1200, 1176, 1429
6640, 1046, 1401, 1402, 1567
6641, 513, 558, 520, 1250
6642, 1245, 1337, 1049, 1390
6643, 517, 519, 518, 1114
6644, 986, 1390, 1245, 1494
6645, 562, 691, 1472, 1473
6646, 162, 490, 549, 1381
6647, 1001, 1115, 1431, 1577
6648, 1144, 1247, 1196, 1265
6649, 673, 1141, 1065, 1466
6650, 316, 76, 362, 1342
6651, 986, 1245, 1378, 1494
6652, 261, 282, 1330, 1433
6653, 1165, 1411, 991, 1576
6654, 291, 248, 287, 1367
6655, 506, 1300, 1076, 1389
6656, 113, 412, 114, 1281
6657, 752, 709, 712, 1188
6658, 640, 630, 582, 1442
6659, 1075, 1250, 1113, 1507
6660, 272, 1362, 280, 1394
6661, 708, 691, 166, 1473
6662, 78, 1275, 1520, 1523
6663, 705, 719, 744, 1212
6664, 90, 363, 5, 1374
6665, 46, 45, 1207, 1500
6666, 282, 268, 292, 1433
6667, 776, 772, 770, 1419
6668, 298, 42, 286, 1387
6669, 47, 1207, 48, 1500
6670, 335, 331, 312, 1476
6671, 419, 415, 118, 1344
6672, 350, 348, 319, 1568
6673, 810, 761, 796, 1468
6674, 336, 329, 335, 1529
6675, 344, 89, 1293, 1513
6676, 552, 510, 509, 1160
6677, 818, 815, 788, 1257
6678, 642, 159, 646, 1439
6679, 282, 257, 258, 1330
6680, 733, 52, 738, 1581
6681, 427, 424, 528, 1244
6682, 1137, 1405, 1230, 1437
6683, 1152, 1456, 1092, 1504
6684, 1003, 1259, 1345, 1487
6685, 1294, 1466, 1115, 1577
6686, 1122, 1208, 1039, 1391
6687, 499, 1256, 498, 1449
6688, 651, 648, 653, 1167
6689, 8, 1263, 1135, 1428
6690, 1061, 1215, 1097, 1339
6691, 1017, 1385, 1326, 1410
6692, 1067, 1429, 1226, 1445
6693, 1138, 1197, 1055, 1437
6694, 256, 255, 280, 1394
6695, 422, 1244, 428, 1546
6696, 593, 572, 583, 1368
6697, 336, 329, 347, 1525
6698, 684, 618, 617, 1254
6699, 1030, 1056, 1163, 1547
6700, 1027, 1092, 1343, 1555
6701, 995, 1053, 1494, 1561
6702, 485, 501, 559, 1498
6703, 618, 172, 570, 674
6704, 735, 53, 242, 736
6705, 1252, 1328, 992, 1591
6706, 50, 49, 288, 733
6707, 1090, 1004, 1473, 1478
6708, 526, 122, 544, 1323
6709, 162, 675, 666, 1381
6710, 146, 477, 468, 1457
6711, 1014, 1083, 1340, 1501
6712, 317, 313, 82, 1566
6713, 63, 1374, 1161, 1548
6714, 103, 414, 421, 554
6715, 1054, 1102, 993, 1565
6716, 201, 789, 679, 1313
6717, 1033, 1440, 1338, 1483
6718, 1312, 1380, 1088, 1588
6719, 82, 83, 313, 1365
6720, 166, 691, 487, 1473
6721, 1072, 1350, 1400, 1401
6722, 1065, 1465, 673, 1466
6723, 533, 418, 105, 416
6724, 986, 1465, 1294, 1590
6725, 296, 288, 726, 1417
6726, 492, 708, 166, 1080
6727, 120, 1283, 121, 1527
6728, 1004, 1426, 1471, 1472
6729, 802, 784, 606, 1338
6730, 1127, 1070, 1467, 1524
6731, 2, 1407, 42, 1425
6732, 413, 419, 117, 1276
6733, 267, 304, 290, 1417
6734, 812, 758, 790, 1364
6735, 420, 119, 415, 1344
6736, 797, 800, 475, 1480
6737, 154, 627, 498, 1256
6738, 428, 14, 123, 1255
6739, 592, 591, 632, 1098
6740, 285, 1231, 300, 1581
6741, 505, 503, 504, 1076
6742, 419, 117, 118, 1515
6743, 341, 366, 369, 1349
6744, 790, 778, 1214, 1486
6745, 539, 636, 687, 1450
6746, 1245, 1493, 1008, 1494
6747, 1108, 1384, 1237, 1492
6748, 603, 1386, 1234, 1450
6749, 674, 618, 172, 684
6750, 986, 1378, 1238, 1537
6751, 786, 812, 779, 1489
6752, 576, 577, 575, 1392
6753, 1131, 1224, 1169, 1529
6754, 290, 1417, 278, 1433
6755, 130, 615, 616, 474
6756, 685, 1273, 1198, 1500
6757, 1033, 1176, 1200, 1403
6758, 793, 767, 803, 1271
6759, 1166, 1311, 1055, 1405
6760, 1226, 1261, 1046, 1412
6761, 1040, 1156, 1201, 1516
6762, 1149, 1349, 1062, 1371
6763, 785, 808, 617, 1254
6764, 163, 484, 560, 1488
6765, 8, 1135, 1365, 1428
6766, 679, 1087, 685, 1273
6767, 1267, 1407, 1312, 1425
6768, 297, 249, 62, 1332
6769, 114, 1281, 524, 1329
6770, 1024, 1283, 1184, 1491
6771, 1055, 1197, 1138, 1418
6772, 1050, 1154, 1487, 1576
6773, 82, 1424, 1201, 1428
6774, 525, 509, 1159, 1160
6775, 499, 512, 547, 1255
6776, 353, 1296, 365, 1467
6777, 291, 303, 266, 1241
6778, 1158, 1355, 20, 1446
6779, 577, 578, 575, 1392
6780, 1116, 1077, 1280, 1430
6781, 468, 477, 146, 1482
6782, 540, 492, 545, 1345
6783, 1152, 1186, 1060, 1351
6784, 118, 117, 1303, 1515
6785, 637, 565, 595, 1376
6786, 740, 1125, 723, 1333
6787, 998, 1373, 1057, 1485
6788, 1042, 1315, 1103, 1421
6789, 469, 1403, 471, 1579
6790, 153, 603, 636, 1450
6791, 993, 1439, 1203, 1517
6792, 750, 189, 645, 652
6793, 711, 714, 1188, 1585
6794, 639, 598, 615, 1579
6795, 692, 1290, 753, 1364
6796, 571, 574, 1350, 1563
6797, 1106, 1383, 1336, 1551
6798, 695, 685, 1198, 1500
6799, 260, 1231, 261, 1330
6800, 585, 1350, 1072, 1567
6801, 553, 518, 523, 1281
6802, 520, 543, 515, 1250
6803, 1022, 1192, 1171, 1554
6804, 1039, 1122, 1262, 1514
6805, 627, 153, 498, 1450
6806, 84, 1263, 1414, 1477
6807, 653, 644, 179, 1564
6808, 494, 487, 551, 1426
6809, 348, 319, 321, 1514
6810, 1118, 1326, 1001, 1577
6811, 1051, 1346, 1195, 1589
6812, 1208, 1502, 1224, 1582
6813, 777, 816, 1226, 1445
6814, 85, 84, 354, 1346
6815, 310, 1351, 1186, 1504
6816, 1279, 1315, 1103, 1518
6817, 637, 1376, 593, 1386
6818, 1072, 1261, 1046, 1401
6819, 1207, 1273, 676, 1500
6820, 1092, 1186, 1152, 1504
6821, 700, 1321, 713, 1472
6822, 250, 296, 726, 1417
6823, 1044, 1198, 1087, 1267
6824, 514, 1276, 531, 1464
6825, 1086, 1087, 1313, 1407
6826, 1230, 1437, 1166, 1458
6827, 1001, 1326, 1385, 1410
6828, 344, 314, 89, 1513
6829, 1071, 1207, 732, 1417
6830, 666, 1381, 675, 1584
6831, 569, 762, 176, 783
6832, 332, 369, 366, 1349
6833, 1174, 1058, 1441, 1459
6834, 754, 735, 721, 1243
6835, 597, 563, 763, 1440
6836, 1020, 1155, 1152, 1269
6837, 468, 473, 471, 1579
6838, 1140, 1293, 1053, 1513
6839, 807, 813, 776, 1340
6840, 1296, 1530, 1308, 1542
6841, 43, 286, 42, 1387
6842, 1190, 1030, 1418, 1419
6843, 261, 1231, 264, 1417
6844, 692, 758, 205, 1364
6845, 734, 1243, 277, 1432
6846, 240, 270, 1362, 1462
6847, 655, 652, 661, 1397
6848, 1442, 1443, 1179, 1444
6849, 321, 338, 347, 1553
6850, 275, 1330, 1270, 1394
6851, 757, 599, 783, 1550
6852, 1244, 1323, 123, 1546
6853, 1100, 1263, 1210, 1428
6854, 663, 653, 178, 596
6855, 987, 1084, 1314, 1588
6856, 1251, 1370, 362, 1521
6857, 792, 1397, 786, 1489
6858, 268, 261, 1417, 1433
6859, 306, 319, 318, 1568
6860, 1040, 1210, 1100, 1471
6861, 63, 1227, 1291, 1548
6862, 1249, 1277, 1045, 1524
6863, 485, 548, 158, 651
6864, 1202, 1478, 1473, 1540
6865, 675, 486, 549, 162
6866, 411, 428, 1255, 1464
6867, 248, 1367, 737, 1434
6868, 61, 249, 62, 1455
6869, 664, 653, 648, 1167
6870, 671, 1154, 1065, 1242
6871, 1125, 1044, 1382, 1499
6872, 741, 1518, 747, 1531
6873, 627, 1386, 603, 1450
6874, 1042, 1216, 1315, 1421
6875, 669, 1231, 731, 1241
6876, 772, 788, 806, 1435
6877, 1312, 1314, 1084, 1588
6878, 280, 1362, 270, 1462
6879, 486, 1104, 558, 1450
6880, 1336, 1383, 76, 1551
6881, 532, 531, 514, 1276
6882, 590, 591, 1098, 1483
6883, 1, 1242, 62, 1307
6884, 1084, 1088, 1380, 1588
6885, 290, 278, 250, 1333
6886, 71, 312, 72, 1530
6887, 555, 489, 510, 1565
6888, 62, 249, 61, 1332
6889, 1198, 1267, 1044, 1382
6890, 180, 650, 630, 1442
6891, 633, 585, 586, 1355
6892, 588, 587, 585, 1072
6893, 1293, 1513, 89, 1573
6894, 816, 775, 777, 1226
6895, 205, 758, 786, 1364
6896, 423, 420, 120, 1527
6897, 248, 299, 287, 1434
6898, 292, 276, 1330, 1433
6899, 644, 657, 1443, 1444
6900, 750, 690, 747, 1531
6901, 66, 308, 345, 1534
6902, 499, 1255, 547, 1256
6903, 1459, 1460, 1093, 1528
6904, 414, 553, 103, 421
6905, 1066, 1411, 1259, 1487
6906, 494, 551, 1160, 1426
6907, 1145, 998, 1443, 1444
6908, 655, 659, 658, 1217
6909, 578, 580, 581, 1393
6910, 604, 1072, 585, 1482
6911, 491, 545, 1345, 1488
6912, 498, 1386, 627, 1450
6913, 318, 342, 340, 1369
6914, 1101, 1471, 1321, 1512
6915, 1201, 1422, 1068, 1516
6916, 779, 776, 813, 1489
6917, 703, 701, 704, 1571
6918, 1137, 1285, 1129, 1532
6919, 488, 642, 158, 548
6920, 750, 189, 690, 645
6921, 495, 562, 699, 1472
6922, 1098, 1446, 20, 1457
6923, 590, 1098, 592, 1457
6924, 478, 145, 468, 1457
6925, 695, 203, 693, 1198
6926, 776, 770, 807, 1340
6927, 1108, 1451, 1384, 1492
6928, 678, 1074, 1105, 1361
6929, 64, 1291, 1186, 1351
6930, 596, 605, 626, 1211
6931, 428, 411, 123, 1244
6932, 1426, 1471, 1101, 1517
6933, 721, 1168, 1243, 1572
6934, 1465, 1577, 1294, 1590
6935, 370, 310, 352, 1297
6936, 590, 620, 1446, 1457
6937, 77, 7, 362, 1370
6938, 717, 707, 716, 1367
6939, 57, 245, 58, 1461
6940, 354, 85, 309, 1477
6941, 706, 720, 1559, 1572
6942, 1086, 1313, 1320, 1588
6943, 264, 302, 301, 1581
6944, 585, 1072, 587, 1567
6945, 285, 300, 302, 1581
6946, 621, 586, 622, 1355
6947, 427, 122, 411, 1244
6948, 1116, 1280, 1208, 1582
6949, 590, 1446, 1098, 1457
6950, 271, 249, 295, 1455
6951, 1022, 1171, 1543, 1554
6952, 69, 68, 1467, 1524
6953, 782, 684, 199, 808
6954, 1019, 1310, 1507, 1586
6955, 1286, 1366, 993, 1408
6956, 180, 630, 567, 644
6957, 647, 665, 649, 1398
6958, 812, 1214, 779, 1489
6959, 1269, 1286, 1022, 1557
6960, 254, 252, 253, 1409
6961, 571, 570, 566, 1326
6962, 1120, 1265, 1032, 1485
6963, 269, 263, 270, 1462
6964, 601, 1254, 624, 1550
6965, 1261, 1412, 1226, 1429
6966, 707, 1372, 703, 1571
6967, 722, 1099, 720, 1572
6968, 364, 313, 1535, 1566
6969, 705, 702, 703, 1136
6970, 679, 1087, 1273, 1407
6971, 1155, 1269, 1178, 1327
6972, 560, 491, 543, 1194
6973, 1085, 1180, 1387, 1425
6974, 281, 1228, 1362, 1394
6975, 115, 422, 428, 1546
6976, 670, 678, 686, 1105
6977, 1201, 1424, 82, 1549
6978, 813, 792, 1489, 1501
6979, 14, 1323, 1256, 1420
6980, 630, 623, 582, 1442
6981, 297, 289, 35, 1307
6982, 1177, 1494, 1410, 1590
6983, 1047, 1161, 1375, 1548
6984, 647, 642, 646, 1203
6985, 687, 161, 539, 486
6986, 774, 771, 775, 1497
6987, 73, 305, 359, 1532
6988, 1198, 1273, 1267, 1382
6989, 696, 786, 206, 1397
6990, 202, 685, 679, 1087
6991, 1144, 1196, 1073, 1265
6992, 1315, 1396, 1103, 1421
6993, 245, 1461, 291, 1462
6994, 642, 488, 159, 1439
6995, 715, 1202, 1473, 1585
6996, 1210, 1263, 1100, 1536
6997, 361, 305, 74, 1532
6998, 648, 651, 642, 1246
6999, 514, 527, 512, 1464
7000, 468, 145, 478, 1482
7001, 666, 490, 162, 1381
7002, 1279, 1396, 1041, 1510
7003, 1027, 1039, 1391, 1522
7004, 1012, 1292, 1053, 1494
7005, 14, 1322, 115, 1546
7006, 1057, 1230, 1205, 1476
7007, 145, 146, 468, 1457
7008, 319, 1502, 321, 1514
7009, 8, 1428, 83, 1448
7010, 1147, 1377, 1287, 1511
7011, 593, 1368, 583, 1386
7012, 5, 363, 63, 1374
7013, 755, 56, 299, 1434
7014, 1197, 1437, 1138, 1508
7015, 1104, 1449, 511, 1450
7016, 83, 1428, 1201, 1448
7017, 1177, 986, 1494, 1590
7018, 680, 200, 667, 1320
7019, 1110, 1289, 1140, 1493
7020, 360, 343, 351, 1453
7021, 266, 1241, 262, 1462
7022, 597, 763, 563, 184
7023, 502, 1133, 500, 1323
7024, 811, 661, 655, 194
7025, 713, 1101, 699, 1472
7026, 807, 768, 793, 1340
7027, 1230, 1405, 1166, 1437
7028, 706, 719, 1212, 1559
7029, 288, 243, 304, 1432
7030, 603, 583, 1234, 1386
7031, 1099, 1432, 1333, 1541
7032, 683, 680, 1320, 1466
7033, 1124, 1369, 1535, 1589
7034, 611, 130, 472, 474
7035, 772, 1419, 778, 1486
7036, 354, 309, 1280, 1477
7037, 262, 285, 1231, 1241
7038, 1053, 1297, 1222, 1513
7039, 282, 292, 1330, 1433
7040, 1184, 1024, 1491, 1536
7041, 1215, 1061, 1383, 1470
7042, 608, 563, 597, 1440
7043, 986, 1390, 1494, 1590
7044, 1070, 1001, 1385, 1410
7045, 499, 512, 1255, 1449
7046, 334, 307, 344, 1456
7047, 684, 199, 680, 782
7048, 1044, 1290, 1125, 1474
7049, 667, 201, 679, 1313
7050, 1065, 1141, 689, 1307
7051, 807, 770, 768, 1340
7052, 1175, 1526, 1156, 1549
7053, 146, 1355, 145, 1482
7054, 1135, 1077, 1414, 1477
7055, 1401, 1402, 1118, 1431
7056, 150, 471, 149, 1403
7057, 354, 340, 309, 1535
7058, 627, 603, 153, 1450
7059, 514, 1075, 1276, 1464
7060, 750, 724, 190, 652
7061, 721, 746, 1168, 1572
7062, 622, 1355, 1158, 1446
7063, 724, 750, 698, 1397
7064, 656, 657, 659, 1443
7065, 499, 1255, 1256, 1449
7066, 153, 636, 539, 1450
7067, 1112, 1186, 1092, 1534
7068, 185, 563, 600, 756
7069, 681, 688, 668, 1465
7070, 282, 292, 268, 1541
7071, 1072, 1046, 1261, 1412
7072, 622, 590, 620, 1446
7073, 1200, 1403, 1176, 1429
7074, 468, 146, 145, 1482
7075, 809, 695, 685, 1198
7076, 281, 1228, 1394, 1409
7077, 348, 350, 319, 1514
7078, 638, 677, 687, 1234
7079, 1004, 1472, 1090, 1473
7080, 271, 240, 295, 1495
7081, 585, 604, 588, 1072
7082, 273, 1307, 289, 1455
7083, 165, 492, 540, 1309
7084, 801, 200, 680, 1320
7085, 1096, 1273, 1270, 1404
7086, 680, 199, 801, 782
7087, 613, 592, 639, 1579
7088, 1144, 1265, 1249, 1524
7089, 557, 493, 1089, 1538
7090, 1040, 1007, 1388, 1512
7091, 693, 718, 1198, 1499
7092, 1123, 1104, 1381, 1584
7093, 248, 287, 1367, 1434
7094, 422, 424, 413, 1464
7095, 489, 507, 509, 1565
7096, 613, 1457, 592, 1579
7097, 149, 471, 150, 1412
7098, 265, 263, 262, 1413
7099, 802, 804, 784, 1338
7100, 809, 202, 789, 1087
7101, 173, 601, 785, 617
7102, 123, 411, 122, 1244
7103, 104, 418, 414, 536
7104, 1348, 1406, 2, 1407
7105, 147, 797, 475, 1480
7106, 560, 491, 1194, 1488
7107, 1057, 1229, 1205, 1230
7108, 679, 1313, 1087, 1407
7109, 614, 146, 620, 1457
7110, 811, 655, 792, 194
7111, 1171, 1303, 1192, 1515
7112, 710, 747, 741, 1518
7113, 552, 551, 510, 1426
7114, 528, 504, 502, 1244
7115, 693, 727, 718, 1499
7116, 115, 1484, 422, 1546
7117, 240, 1362, 271, 1455
7118, 809, 685, 202, 1087
7119, 753, 727, 693, 1290
7120, 736, 717, 737, 1367
7121, 1108, 1237, 1384, 1552
7122, 1170, 1308, 1063, 1542
7123, 250, 1207, 278, 1417
7124, 485, 651, 157, 1498
7125, 779, 778, 776, 1419
7126, 1103, 1315, 1279, 1396
7127, 994, 1027, 1391, 1522
7128, 774, 794, 773, 1445
7129, 1205, 1343, 1112, 1555
7130, 1135, 1365, 1280, 1477
7131, 510, 489, 509, 1565
7132, 1319, 1377, 1091, 1587
7133, 1159, 1427, 412, 1527
7134, 552, 1160, 551, 1426
7135, 691, 699, 562, 1472
7136, 589, 1338, 625, 1483
7137, 1020, 1152, 1060, 1269
7138, 719, 705, 706, 1212
7139, 285, 300, 1231, 1241
7140, 1154, 1537, 991, 1576
7141, 488, 1246, 1359, 1439
7142, 488, 548, 521, 1246
7143, 1321, 1471, 1101, 1472
7144, 542, 1439, 1359, 1565
7145, 790, 789, 818, 1282
7146, 87, 1544, 1341, 1570
7147, 183, 568, 597, 761
7148, 1055, 1166, 1405, 1437
7149, 1215, 1383, 1216, 1470
7150, 241, 252, 251, 1409
7151, 1103, 1396, 1236, 1421
7152, 622, 1393, 590, 1446
7153, 427, 424, 411, 1464
7154, 242, 302, 300, 1581
7155, 302, 277, 301, 1581
7156, 562, 487, 691, 1473
7157, 1053, 1293, 1140, 1561
7158, 1160, 1426, 1054, 1505
7159, 542, 1359, 507, 1565
7160, 999, 1061, 1339, 1470
7161, 1118, 1402, 1401, 1567
7162, 712, 711, 714, 1188
7163, 509, 507, 508, 1159
7164, 243, 301, 277, 733
7165, 1093, 1460, 1337, 1528
7166, 711, 1188, 709, 1571
7167, 320, 1502, 1208, 1582
7168, 244, 294, 1270, 1404
7169, 1224, 1519, 1116, 1582
7170, 1124, 1220, 1566, 1569
7171, 1112, 1485, 1057, 1555
7172, 701, 1202, 704, 1571
7173, 272, 271, 270, 1362
7174, 746, 706, 1372, 1572
7175, 1014, 1489, 1217, 1501
7176, 557, 556, 493, 1538
7177, 38, 1264, 1228, 1409
7178, 633, 146, 604, 1482
7179, 45, 1273, 1207, 1500
7180, 244, 1270, 284, 1404
7181, 1102, 1359, 993, 1565
7182, 1076, 1133, 1484, 1557
7183, 106, 417, 416, 530
7184, 612, 473, 129, 641
7185, 588, 1072, 604, 1482
7186, 1141, 1264, 1248, 1348
7187, 590, 1393, 1098, 1446
7188, 1075, 1255, 512, 1449
7189, 1310, 1561, 1078, 1586
7190, 1028, 1331, 1248, 1469
7191, 1213, 1293, 1078, 1570
7192, 37, 1469, 1091, 1587
7193, 1085, 1282, 990, 1558
7194, 1373, 1485, 1011, 1555
7195, 661, 190, 724, 652
7196, 1019, 1506, 1213, 1586
7197, 1086, 1314, 1312, 1588
7198, 43, 1273, 1267, 1407
7199, 695, 809, 203, 1198
7200, 196, 678, 669, 1074
7201, 88, 1544, 87, 1570
7202, 793, 759, 807, 1501
7203, 683, 1141, 1088, 1348
7204, 186, 600, 606, 784
7205, 1144, 1249, 1045, 1524
7206, 180, 623, 630, 650
7207, 555, 551, 495, 1426
7208, 246, 1228, 36, 1307
7209, 41, 1088, 1248, 1348
7210, 796, 467, 475, 151
7211, 1163, 1317, 1056, 1318
7212, 1161, 1297, 1053, 1374
7213, 624, 1254, 629, 1567
7214, 423, 121, 425, 1527
7215, 699, 745, 168, 541
7216, 781, 782, 780, 1402
7217, 649, 1145, 657, 1444
7218, 420, 423, 120, 1272
7219, 721, 1243, 722, 1572
7220, 276, 282, 257, 1451
7221, 274, 294, 275, 1384
7222, 995, 1053, 1292, 1494
7223, 1186, 1291, 1060, 1351
7224, 1088, 1313, 1312, 1588
7225, 674, 681, 668, 1577
7226, 179, 567, 596, 1564
7227, 1077, 1430, 1414, 1477
7228, 647, 646, 654, 1203
7229, 522, 525, 509, 1159
7230, 196, 728, 678, 1074
7231, 1186, 1351, 1152, 1504
7232, 1263, 1491, 1024, 1536
7233, 524, 1329, 1281, 1538
7234, 85, 84, 1346, 1583
7235, 488, 521, 542, 1359
7236, 43, 286, 244, 1404
7237, 743, 748, 288, 1432
7238, 1040, 1436, 1156, 1516
7239, 48, 718, 740, 1499
7240, 630, 640, 567, 1442
7241, 758, 753, 692, 204
7242, 1248, 1264, 1141, 1469
7243, 1029, 997, 1269, 1557
7244, 1072, 1400, 1355, 1482
7245, 796, 805, 147, 1468
7246, 1092, 1343, 1504, 1519
7247, 1048, 1505, 1184, 1536
7248, 1201, 1428, 1210, 1448
7249, 1236, 1396, 1082, 1421
7250, 287, 56, 57, 1434
7251, 811, 206, 786, 1397
7252, 423, 412, 421, 1427
7253, 1234, 1386, 1182, 1450
7254, 704, 1202, 715, 1571
7255, 1135, 1280, 1077, 1477
7256, 176, 599, 569, 783
7257, 504, 506, 505, 1076
7258, 286, 1406, 298, 1592
7259, 571, 574, 584, 1350
7260, 678, 1105, 1242, 1361
7261, 363, 63, 352, 1351
7262, 1088, 2, 1313, 1348
7263, 1040, 1471, 1100, 1512
7264, 1080, 1473, 1478, 1540
7265, 1545, 1556, 1211, 1564
7266, 1156, 1526, 1424, 1549
7267, 298, 2, 41, 1406
7268, 633, 1355, 146, 1482
7269, 304, 301, 267, 1432
7270, 653, 179, 596, 1564
7271, 118, 415, 119, 1344
7272, 781, 801, 782, 1402
7273, 550, 491, 545, 1345
7274, 87, 351, 86, 1430
7275, 743, 723, 722, 1432
7276, 787, 789, 790, 1282
7277, 600, 784, 185, 756
7278, 1198, 1499, 718, 1500
7279, 604, 146, 628, 1482
7280, 500, 501, 497, 1094
7281, 769, 766, 768, 1306
7282, 175, 564, 599, 757
7283, 427, 546, 424, 1464
7284, 1040, 1201, 1156, 1424
7285, 296, 49, 726, 288
7286, 301, 733, 243, 1417
7287, 528, 529, 427, 1244
7288, 1059, 1235, 1114, 1272
7289, 1097, 1215, 1520, 1523
7290, 1326, 1385, 1017, 1563
7291, 619, 595, 596, 1564
7292, 1159, 1102, 1427, 1527
7293, 276, 284, 1270, 1433
7294, 724, 696, 206, 1397
7295, 707, 704, 709, 1571
7296, 727, 1125, 740, 1499
7297, 1057, 1205, 1112, 1555
7298, 561, 159, 488, 1439
7299, 600, 589, 606, 1338
7300, 416, 530, 417, 1389
7301, 554, 103, 414, 535
7302, 114, 426, 523, 1281
7303, 273, 271, 1362, 1455
7304, 1105, 1335, 1399, 1503
7305, 500, 497, 496, 1094
7306, 4, 299, 56, 1463
7307, 1073, 1196, 1144, 1247
7308, 1046, 1402, 1254, 1567
7309, 5, 1375, 1374, 1548
7310, 1030, 1418, 1419, 1547
7311, 504, 1133, 502, 1244
7312, 492, 1080, 493, 1345
7313, 364, 313, 354, 1535
7314, 761, 791, 796, 1468
7315, 590, 1393, 581, 1483
7316, 1235, 1272, 1059, 1344
7317, 1048, 1184, 1491, 1536
7318, 2, 1348, 41, 1406
7319, 638, 603, 583, 1234
7320, 66, 308, 67, 1496
7321, 715, 1202, 701, 1473
7322, 739, 708, 165, 1309
7323, 350, 79, 311, 1454
7324, 304, 243, 301, 1432
7325, 537, 418, 105, 536
7326, 1118, 1254, 1402, 1567
7327, 161, 486, 675, 162
7328, 158, 485, 651, 157
7329, 1184, 1505, 1054, 1536
7330, 555, 510, 551, 1426
7331, 245, 57, 287, 1463
7332, 1088, 1320, 1313, 1588
7333, 989, 1539, 1259, 1540
7334, 1234, 1450, 1104, 1584
7335, 502, 501, 500, 1133
7336, 624, 1550, 1254, 1567
7337, 614, 592, 613, 1457
7338, 504, 503, 502, 1133
7339, 582, 589, 581, 1483
7340, 589, 600, 625, 1338
7341, 1011, 1112, 1092, 1555
7342, 540, 545, 484, 1488
7343, 1089, 1354, 1329, 1538
7344, 39, 251, 1264, 1409
7345, 1100, 1135, 1263, 1428
7346, 239, 268, 278, 1433
7347, 1131, 1057, 1205, 1476
7348, 807, 813, 1340, 1501
7349, 62, 297, 1307, 1455
7350, 1198, 1273, 45, 1500
7351, 604, 146, 15, 628
7352, 520, 490, 543, 1381
7353, 57, 1461, 1335, 1463
7354, 279, 738, 300, 1241
7355, 633, 146, 15, 604
7356, 1131, 1343, 1205, 1555
7357, 809, 789, 787, 1087
7358, 343, 342, 360, 1582
7359, 779, 792, 786, 1489
7360, 1037, 1543, 1303, 1554
7361, 563, 756, 763, 1440
7362, 782, 1254, 780, 1402
7363, 79, 1262, 1520, 1526
7364, 673, 671, 672, 1065
7365, 1092, 1112, 1343, 1555
7366, 1179, 1556, 1545, 1564
7367, 994, 1373, 1027, 1522
7368, 1357, 1391, 1039, 1522
7369, 751, 723, 727, 1125
7370, 1104, 1182, 1449, 1450
7371, 1101, 1471, 1426, 1472
7372, 1145, 1443, 657, 1444
7373, 81, 82, 1424, 1549
7374, 39, 1264, 251, 1592
7375, 1000, 1315, 1279, 1518
7376, 242, 277, 52, 735
7377, 586, 1158, 622, 1355
7378, 358, 307, 334, 1456
7379, 1086, 1313, 1312, 1407
7380, 1030, 1419, 1486, 1547
7381, 421, 553, 102, 426
7382, 796, 810, 467, 151
7383, 651, 663, 157, 1498
7384, 514, 512, 1075, 1464
7385, 564, 599, 757, 1550
7386, 595, 1211, 596, 1564
7387, 525, 552, 509, 1160
7388, 689, 1065, 673, 1141
7389, 1117, 1400, 1350, 1401
7390, 778, 1419, 1214, 1486
7391, 267, 261, 268, 1541
7392, 1028, 1248, 1141, 1469
7393, 1090, 1473, 1202, 1478
7394, 148, 470, 147, 1468
7395, 1300, 1427, 1102, 1527
7396, 539, 498, 153, 1450
7397, 198, 197, 676, 1207
7398, 990, 1236, 1421, 1474
7399, 707, 703, 704, 1571
7400, 251, 247, 40, 1592
7401, 1078, 1293, 1213, 1586
7402, 996, 1460, 1459, 1528
7403, 1264, 1404, 1409, 1592
7404, 1254, 1550, 1046, 1567
7405, 316, 355, 362, 1521
7406, 36, 1307, 1228, 1587
7407, 1072, 1350, 1401, 1567
7408, 557, 493, 492, 1080
7409, 655, 193, 792, 194
7410, 590, 591, 592, 1098
7411, 723, 751, 720, 1559
7412, 679, 201, 202, 789
7413, 653, 179, 178, 596
7414, 763, 563, 184, 756
7415, 726, 197, 198, 1207
7416, 1042, 1315, 1216, 1470
7417, 1039, 1262, 1233, 1514
7418, 488, 1359, 542, 1439
7419, 2, 1406, 42, 1407
7420, 683, 1313, 1088, 1320
7421, 1047, 1227, 1161, 1548
7422, 69, 315, 365, 1467
7423, 1256, 1323, 1094, 1420
7424, 1099, 1559, 720, 1572
7425, 788, 790, 818, 1486
7426, 714, 739, 728, 1309
7427, 1294, 1465, 1466, 1577
7428, 644, 650, 180, 1442
7429, 103, 534, 553, 414
7430, 656, 643, 192, 819
7431, 475, 470, 467, 1468
7432, 1077, 1280, 1430, 1477
7433, 1142, 1375, 1199, 1574
7434, 1294, 1390, 986, 1590
7435, 1056, 1317, 1163, 1336
7436, 1101, 1512, 1203, 1517
7437, 663, 538, 157, 1498
7438, 488, 642, 159, 158
7439, 157, 538, 485, 1498
7440, 162, 666, 163, 490
7441, 546, 108, 427, 424
7442, 739, 165, 540, 1309
7443, 669, 1074, 1157, 1241
7444, 255, 256, 254, 1394
7445, 278, 1207, 46, 1433
7446, 484, 670, 164, 686
7447, 814, 757, 795, 1550
7448, 420, 1427, 1300, 1527
7449, 676, 197, 669, 1071
7450, 197, 1071, 676, 1207
7451, 148, 147, 470, 1480
7452, 1003, 1487, 1345, 1488
7453, 172, 171, 570, 674
7454, 1359, 1439, 993, 1565
7455, 542, 505, 507, 1359
7456, 1157, 1330, 259, 1394
7457, 724, 811, 661, 1397
7458, 1213, 1506, 1078, 1586
7459, 1309, 1540, 1043, 1585
7460, 146, 633, 621, 1355
7461, 370, 310, 368, 1504
7462, 765, 784, 804, 1338
7463, 1228, 1307, 273, 1362
7464, 531, 424, 527, 1464
7465, 416, 418, 105, 537
7466, 677, 675, 1234, 1584
7467, 1228, 1307, 1141, 1587
7468, 584, 1350, 585, 1567
7469, 747, 697, 698, 1518
7470, 715, 1571, 1202, 1585
7471, 147, 794, 799, 1445
7472, 797, 762, 800, 1480
7473, 273, 1362, 1307, 1455
7474, 76, 362, 7, 1370
7475, 561, 489, 555, 1565
7476, 364, 84, 354, 1477
7477, 554, 421, 102, 426
7478, 729, 1074, 730, 1463
7479, 1116, 1519, 1456, 1582
7480, 1054, 1184, 1160, 1505
7481, 756, 765, 764, 1440
7482, 700, 702, 741, 1321
7483, 1072, 1401, 1046, 1567
7484, 254, 257, 256, 1492
7485, 669, 1071, 197, 1231
7486, 700, 713, 699, 1472
7487, 475, 467, 470, 1480
7488, 82, 1549, 81, 1569
7489, 497, 538, 156, 605
7490, 688, 673, 672, 1465
7491, 706, 720, 719, 1559
7492, 245, 291, 1461, 1463
7493, 538, 626, 156, 605
7494, 584, 585, 587, 1567
7495, 1036, 1199, 1375, 1574
7496, 654, 713, 745, 188
7497, 530, 504, 528, 1389
7498, 522, 11, 114, 426
7499, 1154, 1319, 1287, 1537
7500, 680, 681, 674, 1577
7501, 737, 1367, 716, 1434
7502, 414, 421, 554, 1427
7503, 427, 529, 122, 1244
7504, 358, 351, 343, 1453
7505, 683, 681, 680, 1466
7506, 515, 513, 520, 1250
7507, 295, 240, 60, 1495
7508, 50, 288, 243, 733
7509, 535, 104, 414, 536
7510, 662, 160, 483, 646
7511, 257, 256, 1330, 1394
7512, 617, 785, 173, 808
7513, 428, 123, 14, 1546
7514, 1186, 1504, 1092, 1534
7515, 532, 533, 105, 416
7516, 778, 812, 790, 1214
7517, 617, 172, 618, 684
7518, 1315, 1339, 1215, 1470
7519, 621, 146, 15, 633
7520, 700, 1472, 691, 1473
7521, 724, 206, 811, 1397
7522, 781, 780, 775, 1497
7523, 1011, 1485, 1112, 1555
7524, 993, 1517, 1054, 1565
7525, 717, 716, 737, 1367
7526, 1248, 1348, 1264, 1592
7527, 567, 619, 596, 1564
7528, 476, 467, 810, 152
7529, 499, 496, 498, 1256
7530, 522, 114, 11, 525
7531, 501, 502, 503, 1133
7532, 519, 1281, 1114, 1538
7533, 1100, 1512, 1471, 1517
7534, 683, 1088, 1141, 1466
7535, 322, 321, 320, 1502
7536, 677, 672, 675, 1584
7537, 331, 357, 312, 1476
7538, 298, 42, 2, 1406
7539, 788, 772, 778, 1486
7540, 151, 810, 467, 152
7541, 83, 313, 364, 1566
7542, 347, 329, 325, 1525
7543, 1215, 1339, 1061, 1470
7544, 637, 627, 1376, 1386
7545, 512, 1255, 1075, 1464
7546, 701, 700, 691, 1473
7547, 779, 813, 792, 1489
7548, 15, 146, 621, 620
7549, 1118, 1401, 1350, 1567
7550, 345, 308, 367, 1534
7551, 50, 288, 743, 748
7552, 1135, 1414, 1263, 1477
7553, 129, 474, 473, 1579
7554, 595, 605, 596, 1211
7555, 683, 680, 667, 1320
7556, 624, 607, 564, 1550
7557, 239, 292, 268, 1433
7558, 755, 752, 56, 1434
7559, 819, 643, 192, 759
7560, 58, 245, 293, 1461
7561, 63, 5, 1374, 1548
7562, 1264, 1404, 1270, 1409
7563, 713, 1321, 741, 1531
7564, 578, 590, 622, 1393
7565, 715, 691, 708, 1473
7566, 180, 567, 179, 644
7567, 514, 531, 527, 1464
7568, 42, 1407, 1267, 1425
7569, 624, 629, 587, 1567
7570, 354, 84, 85, 1477
7571, 416, 417, 413, 1389
7572, 24, 636, 687, 539
7573, 546, 1255, 512, 1464
7574, 566, 171, 170, 668
7575, 644, 664, 657, 1444
7576, 1088, 1313, 683, 1348
7577, 618, 601, 617, 1254
7578, 494, 1160, 525, 1329
7579, 74, 305, 73, 1532
7580, 1293, 1573, 1213, 1586
7581, 290, 268, 1417, 1433
7582, 579, 619, 610, 1545
7583, 114, 11, 523, 426
7584, 994, 1391, 1357, 1522
7585, 83, 82, 313, 1566
7586, 48, 250, 726, 1207
7587, 726, 1207, 198, 1500
7588, 732, 197, 726, 1207
7589, 732, 1071, 197, 1207
7590, 485, 538, 501, 1498
7591, 649, 657, 664, 1444
7592, 498, 511, 1449, 1450
7593, 738, 54, 55, 248
7594, 635, 810, 568, 182
7595, 1330, 1417, 261, 1433
7596, 259, 1231, 1157, 1462
7597, 737, 716, 755, 1434
7598, 1214, 1486, 1419, 1547
7599, 259, 1157, 1231, 1330
7600, 129, 473, 613, 1579
7601, 662, 160, 541, 483
7602, 167, 562, 691, 699
7603, 43, 1404, 1273, 1407
7604, 1202, 1571, 1043, 1585
7605, 262, 260, 285, 1578
7606, 289, 297, 35, 1580
7607, 129, 615, 474, 1579
7608, 691, 166, 487, 562
7609, 694, 753, 749, 1290
7610, 423, 1427, 420, 1527
7611, 347, 329, 336, 1529
7612, 756, 764, 763, 1440
7613, 61, 295, 249, 1455
7614, 45, 1499, 1198, 1500
7615, 686, 164, 484, 540
7616, 685, 676, 1273, 1500
7617, 266, 265, 1241, 1462
7618, 314, 344, 356, 1513
7619, 205, 206, 696, 786
7620, 806, 775, 771, 1497
7621, 722, 1243, 734, 1432
7622, 1062, 1181, 1371, 1530
7623, 368, 333, 370, 1504
7624, 685, 809, 30, 695
7625, 606, 802, 186, 784
7626, 189, 750, 190, 652
7627, 661, 724, 29, 811
7628, 269, 265, 263, 1462
7629, 413, 419, 416, 1389
7630, 342, 343, 323, 1582
7631, 1188, 1043, 1571, 1585
7632, 626, 23, 663, 538
7633, 684, 617, 27, 808
7634, 545, 493, 550, 1345
7635, 484, 670, 163, 164
7636, 547, 512, 546, 1255
7637, 545, 492, 493, 1345
7638, 692, 749, 753, 1290
7639, 499, 498, 511, 1449
7640, 586, 585, 574, 1350
7641, 993, 1439, 1517, 1565
7642, 253, 252, 241, 1409
7643, 512, 513, 514, 1075
7644, 704, 1571, 715, 1585
7645, 350, 319, 306, 1568
7646, 524, 11, 114, 525
7647, 590, 581, 591, 1483
7648, 540, 686, 26, 739
7649, 620, 590, 592, 1457
7650, 1087, 1267, 1198, 1273
7651, 1057, 1131, 1205, 1555
7652, 646, 160, 483, 159
7653, 669, 197, 731, 1231
7654, 1133, 1484, 1322, 1546
7655, 423, 120, 121, 1527
7656, 187, 654, 745, 188
7657, 541, 745, 25, 662
7658, 669, 1157, 1071, 1231
7659, 324, 349, 327, 1519
7660, 242, 53, 52, 1581
7661, 660, 28, 606, 802
7662, 813, 759, 792, 1501
7663, 469, 471, 474, 1579
7664, 1336, 1508, 1138, 1551
7665, 679, 1096, 682, 1348
7666, 692, 205, 758, 204
7667, 597, 763, 183, 761
7668, 667, 1313, 683, 1320
7669, 653, 663, 651, 1498
7670, 129, 613, 615, 1579
7671, 279, 53, 54, 736
7672, 660, 803, 191, 802
7673, 787, 203, 693, 204
7674, 1242, 1111, 1361, 1455
7675, 522, 508, 554, 1427
7676, 547, 526, 499, 1256
7677, 704, 711, 709, 1571
7678, 732, 1231, 1071, 1417
7679, 537, 106, 416, 530
7680, 339, 355, 316, 1521
7681, 1071, 1095, 676, 1270
7682, 542, 507, 489, 1565
7683, 354, 313, 340, 1535
7684, 151, 467, 475, 800
7685, 36, 289, 35, 1580
7686, 762, 631, 177, 817
7687, 779, 812, 778, 1214
7688, 578, 581, 590, 1393
7689, 476, 635, 17, 810
7690, 628, 588, 604, 1482
7691, 1078, 1561, 1293, 1586
7692, 586, 634, 622, 1158
7693, 713, 745, 699, 1101
7694, 496, 1256, 526, 1323
7695, 1202, 1043, 1540, 1585
7696, 618, 629, 624, 1254
7697, 180, 181, 623, 650
7698, 348, 338, 321, 1553
7699, 740, 727, 723, 1125
7700, 261, 1330, 1231, 1417
7701, 192, 803, 656, 819
7702, 1216, 1383, 1106, 1470
7703, 785, 782, 808, 1254
7704, 724, 698, 696, 1397
7705, 662, 654, 745, 187
7706, 196, 195, 678, 728
7707, 195, 686, 678, 728
7708, 1092, 1504, 1343, 1534
7709, 513, 512, 511, 1449
7710, 168, 745, 25, 541
7711, 147, 799, 797, 1480
7712, 810, 17, 476, 152
7713, 537, 530, 416, 1389
7714, 527, 531, 107, 424
7715, 671, 678, 670, 1242
7716, 997, 1286, 1269, 1557
7717, 637, 627, 565, 1376
7718, 812, 786, 758, 1364
7719, 359, 72, 312, 1530
7720, 114, 523, 524, 1281
7721, 679, 1273, 1096, 1407
7722, 557, 494, 556, 1329
7723, 411, 424, 422, 1464
7724, 689, 671, 1065, 1242
7725, 991, 1537, 1378, 1576
7726, 672, 666, 675, 1584
7727, 56, 1335, 729, 1463
7728, 154, 155, 565, 496
7729, 689, 671, 673, 1065
7730, 564, 607, 599, 1550
7731, 811, 786, 792, 1397
7732, 619, 579, 595, 1545
7733, 492, 487, 557, 1080
7734, 254, 253, 1394, 1409
7735, 781, 775, 806, 1497
7736, 1224, 1502, 1169, 1529
7737, 677, 675, 687, 1234
7738, 1240, 1255, 1075, 1449
7739, 591, 589, 625, 1483
7740, 56, 712, 729, 1335
7741, 1141, 1469, 1228, 1587
7742, 261, 282, 268, 1541
7743, 1181, 1308, 1530, 1542
7744, 287, 299, 56, 1434
7745, 197, 669, 731, 196
7746, 167, 495, 699, 168
7747, 494, 552, 525, 1160
7748, 560, 545, 491, 1488
7749, 265, 291, 1241, 1462
7750, 571, 573, 574, 1563
7751, 508, 506, 535, 1427
7752, 476, 17, 631, 817
7753, 795, 757, 783, 1550
7754, 694, 719, 751, 1559
7755, 733, 732, 288, 1417
7756, 695, 198, 685, 1500
7757, 683, 1320, 1088, 1466
7758, 492, 708, 165, 166
7759, 486, 558, 511, 1450
7760, 711, 1188, 1571, 1585
7761, 1198, 1382, 1044, 1499
7762, 695, 693, 718, 1198
7763, 181, 606, 623, 660
7764, 778, 772, 776, 1419
7765, 679, 676, 682, 1096
7766, 161, 24, 687, 539
7767, 23, 157, 663, 538
7768, 614, 620, 592, 1457
7769, 638, 170, 169, 677
7770, 682, 676, 669, 1095
7771, 718, 727, 740, 1499
7772, 1095, 1096, 676, 1270
7773, 752, 716, 709, 1434
7774, 49, 288, 733, 732
7775, 26, 164, 686, 540
7776, 428, 1244, 123, 1546
7777, 414, 554, 535, 1427
7778, 704, 701, 715, 1202
7779, 690, 741, 747, 1531
7780, 1296, 1062, 1530, 1542
7781, 562, 691, 166, 167
7782, 1471, 1512, 1101, 1517
7783, 47, 1499, 46, 1500
7784, 650, 181, 623, 660
7785, 524, 1281, 519, 1538
7786, 790, 788, 778, 1486
7787, 522, 554, 102, 426
7788, 280, 1362, 1157, 1394
7789, 280, 1157, 1362, 1462
7790, 721, 734, 722, 1243
7791, 156, 497, 605, 155
7792, 269, 1461, 245, 1462
7793, 114, 524, 525, 1329
7794, 1322, 1484, 115, 1546
7795, 1133, 1323, 1244, 1546
7796, 198, 685, 30, 695
7797, 264, 1231, 302, 1581
7798, 285, 302, 1231, 1581
7799, 524, 556, 1329, 1538
7800, 710, 744, 697, 1518
7801, 1060, 1327, 1152, 1351
7802, 189, 188, 690, 645
7803, 677, 169, 638, 687
7804, 521, 505, 542, 1359
7805, 650, 657, 656, 1443
7806, 1361, 1461, 240, 1462
7807, 679, 1096, 1313, 1407
7808, 561, 1439, 542, 1565
7809, 1141, 1228, 689, 1307
7810, 15, 146, 620, 614
7811, 1207, 1270, 676, 1273
7812, 247, 298, 41, 1592
7813, 190, 724, 29, 661
7814, 1076, 1389, 1300, 1515
7815, 1181, 1530, 1062, 1542
7816, 46, 1207, 47, 1500
7817, 130, 131, 611, 472
7818, 147, 470, 475, 1468
7819, 679, 683, 1313, 1348
7820, 424, 531, 107, 417
7821, 300, 738, 242, 1581
7822, 624, 601, 618, 1254
7823, 240, 1362, 1361, 1462
7824, 797, 798, 762, 1480
7825, 682, 1095, 1228, 1264
7826, 735, 734, 721, 1243
7827, 725, 1198, 718, 1500
7828, 676, 1071, 669, 1095
7829, 732, 197, 1071, 1231
7830, 499, 511, 512, 1449
7831, 473, 474, 471, 1579
7832, 682, 1264, 1141, 1348
7833, 537, 506, 504, 1389
7834, 746, 706, 703, 1372
7835, 562, 551, 487, 1426
7836, 27, 172, 617, 684
7837, 262, 1241, 1231, 1462
7838, 527, 424, 546, 1464
7839, 522, 1159, 508, 1427
7840, 682, 1228, 1141, 1264
7841, 508, 522, 509, 1159
7842, 631, 611, 131, 472
7843, 584, 587, 629, 1567
7844, 613, 473, 128, 477
7845, 417, 107, 424, 530
7846, 553, 523, 102, 426
7847, 562, 167, 495, 699
7848, 277, 734, 52, 735
7849, 807, 759, 813, 1501
7850, 62, 1307, 1242, 1455
7851, 724, 206, 29, 811
7852, 169, 636, 638, 687
7853, 470, 147, 475, 1480
7854, 423, 414, 420, 1427
7855, 56, 299, 287, 1463
7856, 1156, 1424, 1201, 1549
7857, 1073, 1227, 1196, 1247
7858, 721, 722, 720, 1572
7859, 523, 11, 114, 524
7860, 649, 665, 658, 1398
7861, 797, 151, 475, 800
7862, 678, 1242, 1111, 1361
7863, 662, 745, 25, 187
7864, 41, 40, 247, 1592
7865, 643, 193, 192, 759
7866, 181, 28, 606, 660
7867, 1076, 1300, 1171, 1515
7868, 153, 627, 498, 154
7869, 1154, 1065, 1319, 1537
7870, 714, 708, 1309, 1585
7871, 683, 682, 1141, 1348
7872, 544, 122, 529, 1244
7873, 108, 546, 527, 424
7874, 1095, 1111, 689, 1228
7875, 614, 613, 128, 477
7876, 489, 561, 542, 1565
7877, 761, 568, 810, 182
7878, 748, 722, 734, 1432
7879, 679, 1313, 1096, 1348
7880, 659, 657, 649, 1145
7881, 27, 199, 684, 808
7882, 659, 1145, 649, 1398
7883, 414, 423, 421, 1427
7884, 709, 711, 712, 1188
7885, 527, 107, 108, 424
7886, 1313, 1348, 2, 1407
7887, 248, 55, 730, 299
7888, 626, 156, 23, 538
7889, 682, 676, 1095, 1096
7890, 700, 699, 691, 1472
7891, 571, 572, 573, 1563
7892, 686, 195, 739, 728
7893, 714, 708, 739, 1309
7894, 678, 1111, 1074, 1361
7895, 129, 128, 473, 612
7896, 165, 540, 26, 739
7897, 608, 625, 563, 1440
7898, 14, 115, 428, 1546
7899, 669, 1074, 678, 1111
7900, 679, 676, 1096, 1273
7901, 549, 490, 520, 1381
7902, 741, 713, 700, 1321
7903, 803, 656, 660, 191
7904, 799, 798, 797, 1480
7905, 51, 50, 748, 243
7906, 727, 753, 694, 1290
7907, 288, 732, 726, 1417
7908, 689, 673, 682, 1141
7909, 689, 669, 678, 1111
7910, 574, 585, 584, 1350
7911, 667, 679, 683, 1313
7912, 714, 711, 708, 1585
7913, 1361, 1362, 1157, 1462
7914, 681, 1466, 1465, 1577
7915, 131, 472, 635, 476
7916, 710, 697, 747, 1518
7917, 725, 726, 198, 1500
7918, 1096, 1270, 1264, 1404
7919, 802, 28, 606, 186
7920, 1264, 1409, 251, 1592
7921, 695, 725, 198, 1500
7922, 30, 809, 685, 202
7923, 28, 660, 191, 802
7924, 680, 801, 199, 200
7925, 203, 30, 809, 695
7926, 1157, 1361, 1111, 1362
7927, 730, 1074, 196, 1241
7928, 1095, 1362, 1228, 1394
7929, 277, 733, 301, 1581
7930, 1270, 1330, 276, 1433
7931, 495, 551, 562, 1426
7932, 689, 678, 671, 1242
7933, 791, 805, 796, 1468
7934, 56, 4, 712, 752
7935, 613, 639, 615, 1579
7936, 679, 682, 683, 1348
7937, 615, 130, 129, 474
7938, 1404, 1406, 286, 1592
7939, 569, 762, 631, 177
7940, 264, 1417, 1231, 1581
7941, 581, 589, 591, 1483
7942, 690, 713, 741, 1531
7943, 278, 1417, 1207, 1433
7944, 539, 24, 636, 153
7945, 715, 701, 691, 1473
7946, 41, 1406, 1348, 1592
7947, 302, 242, 277, 1581
7948, 160, 541, 25, 662
7949, 15, 146, 614, 477
7950, 637, 593, 627, 1386
7951, 108, 528, 427, 424
7952, 704, 711, 1571, 1585
7953, 1096, 676, 1270, 1273
7954, 681, 673, 1465, 1466
7955, 811, 29, 661, 194
7956, 496, 526, 500, 1323
7957, 760, 667, 201, 200
7958, 732, 731, 197, 1231
7959, 731, 730, 196, 1241
7960, 131, 631, 472, 476
7961, 603, 593, 583, 1386
7962, 556, 494, 525, 1329
7963, 785, 814, 782, 1254
7964, 527, 546, 512, 1464
7965, 686, 195, 26, 739
7966, 242, 53, 738, 279
7967, 56, 287, 57, 1463
7968, 178, 23, 663, 626
7969, 1157, 1362, 1095, 1394
7970, 689, 1111, 678, 1242
7971, 1264, 1270, 1095, 1409
7972, 682, 1095, 689, 1228
7973, 628, 128, 473, 477
7974, 245, 1461, 57, 1463
7975, 1096, 1273, 1406, 1407
7976, 547, 122, 12, 526
7977, 656, 803, 192, 191
7978, 556, 550, 493, 1538
7979, 54, 738, 279, 248
7980, 1361, 1362, 240, 1455
7981, 688, 681, 673, 1465
7982, 730, 1074, 1241, 1463
7983, 299, 730, 248, 1463
7984, 298, 1406, 41, 1592
7985, 707, 746, 703, 1372
7986, 524, 556, 525, 1329
7987, 250, 726, 1207, 1417
7988, 816, 799, 794, 1445
7989, 523, 518, 519, 1281
7990, 725, 3, 48, 740
7991, 526, 122, 12, 544
7992, 524, 519, 556, 1538
7993, 720, 751, 719, 1559
7994, 636, 169, 24, 687
7995, 300, 1231, 1241, 1581
7996, 103, 104, 414, 535
7997, 733, 1417, 301, 1581
7998, 810, 635, 17, 182
7999, 746, 721, 706, 1572
8000, 291, 1461, 1241, 1462
8001, 288, 49, 726, 732
8002, 733, 738, 731, 1581
8003, 173, 785, 601, 174
8004, 755, 299, 55, 737
8005, 1231, 1417, 732, 1581
8006, 1267, 1273, 1087, 1407
8007, 467, 151, 152, 800
8008, 300, 1241, 738, 1581
8009, 683, 1141, 673, 1466
8010, 103, 104, 534, 414
8011, 1404, 1406, 1273, 1407
8012, 682, 689, 1141, 1228
8013, 628, 473, 128, 612
8014, 679, 685, 676, 1273
8015, 658, 659, 649, 1398
8016, 706, 721, 720, 1572
8017, 726, 48, 3, 296
8018, 418, 105, 104, 533
8019, 1071, 1157, 1095, 1330
8020, 1273, 1404, 1096, 1406
8021, 152, 17, 476, 817
8022, 108, 528, 529, 427
8023, 689, 682, 669, 1095
8024, 488, 542, 561, 1439
8025, 695, 718, 725, 1198
8026, 712, 4, 56, 729
8027, 129, 130, 641, 474
8028, 1270, 1394, 1095, 1409
8029, 102, 103, 421, 554
8030, 499, 526, 496, 1256
8031, 177, 631, 17, 817
8032, 1071, 676, 1207, 1270
8033, 529, 122, 12, 427
8034, 131, 472, 616, 635
8035, 242, 52, 277, 1581
8036, 522, 102, 11, 426
8037, 147, 475, 21, 805
8038, 532, 105, 106, 416
8039, 743, 722, 748, 1432
8040, 761, 183, 568, 182
8041, 553, 102, 103, 421
8042, 544, 122, 12, 529
8043, 631, 131, 17, 476
8044, 277, 51, 243, 733
8045, 546, 122, 12, 547
8046, 731, 1231, 732, 1581
8047, 742, 48, 3, 740
8048, 242, 738, 53, 1581
8049, 498, 539, 511, 1450
8050, 546, 12, 122, 427
8051, 277, 52, 51, 733
8052, 1241, 1461, 291, 1463
8053, 105, 106, 416, 537
8054, 107, 528, 424, 530
8055, 794, 774, 816, 1445
8056, 784, 186, 600, 185
8057, 689, 1095, 669, 1111
8058, 683, 682, 673, 1141
8059, 4, 56, 299, 755
8060, 1095, 1157, 1111, 1362
8061, 147, 21, 475, 797
8062, 729, 196, 730, 1074
8063, 714, 728, 712, 1335
8064, 556, 519, 550, 1538
8065, 1095, 1330, 1157, 1394
8066, 711, 715, 708, 1585
8067, 299, 248, 55, 737
8068, 1071, 1095, 1270, 1330
8069, 537, 504, 530, 1389
8070, 1095, 1264, 1096, 1270
8071, 1095, 1111, 1228, 1362
8072, 52, 53, 242, 735
8073, 734, 52, 51, 277
8074, 48, 718, 725, 740
8075, 695, 1198, 725, 1500
8076, 48, 1207, 726, 1500
8077, 569, 762, 177, 176
8078, 554, 508, 535, 1427
8079, 526, 544, 500, 1323
8080, 1157, 1074, 1361, 1462
8081, 484, 545, 560, 1488
8082, 681, 683, 673, 1466
8083, 682, 1096, 1095, 1264
8084, 732, 1207, 726, 1417
8085, 689, 1111, 1242, 1307
8086, 755, 716, 752, 1434
8087, 621, 633, 586, 1355
8088, 796, 21, 475, 805
8089, 689, 1228, 1111, 1307
8090, 1111, 1157, 1074, 1361
8091, 729, 4, 56, 1463
8092, 1270, 1330, 1095, 1394
8093, 130, 131, 472, 616
8094, 794, 21, 147, 799
8095, 296, 48, 3, 742
8096, 635, 17, 131, 476
8097, 56, 4, 752, 755
8098, 418, 104, 105, 536
8099, 176, 175, 599, 783
8100, 794, 147, 21, 805
8101, 617, 173, 27, 808
8102, 1264, 1096, 1404, 1592
8103, 669, 1095, 1071, 1157
8104, 523, 519, 524, 1281
8105, 704, 715, 711, 1585
8106, 738, 248, 730, 1241
8107, 730, 1241, 248, 1463
8108, 627, 593, 603, 1386
8109, 175, 174, 564, 757
8110, 1096, 1264, 682, 1348
8111, 184, 563, 185, 756
8112, 511, 539, 486, 1450
8113, 763, 597, 183, 184
8114, 1228, 1095, 1394, 1409
8115, 523, 11, 102, 426
8116, 529, 528, 502, 1244
8117, 53, 738, 52, 1581
8118, 15, 128, 628, 477
8119, 1071, 1270, 1207, 1433
8120, 54, 55, 248, 737
8121, 1157, 1241, 1074, 1462
8122, 738, 55, 730, 248
8123, 1096, 1406, 1404, 1592
8124, 669, 1074, 1111, 1157
8125, 1348, 1406, 1096, 1592
8126, 669, 1111, 1095, 1157
8127, 473, 128, 129, 613
8128, 1071, 1231, 1157, 1330
8129, 1074, 1461, 1361, 1462
8130, 730, 55, 4, 299
8131, 106, 107, 531, 417
8132, 729, 712, 728, 1335
8133, 1111, 1307, 1228, 1362
8134, 1264, 1348, 1096, 1592
8135, 21, 147, 799, 797
8136, 1228, 1264, 1095, 1409
8137, 730, 299, 4, 1463
8138, 725, 48, 726, 1500
8139, 1111, 1307, 1362, 1455
8140, 288, 296, 49, 743
8141, 52, 733, 277, 1581
8142, 417, 106, 107, 530
8143, 733, 732, 1417, 1581
8144, 3, 49, 726, 296
8145, 1242, 1307, 1111, 1455
8146, 1231, 1241, 1157, 1462
8147, 544, 529, 502, 1244
8148, 731, 732, 733, 1581
8149, 51, 50, 243, 733
8150, 1241, 1461, 1074, 1462
8151, 528, 108, 107, 424
8152, 1074, 1461, 1241, 1463
8153, 1231, 1330, 1071, 1417
8154, 1071, 1417, 1330, 1433
8155, 743, 296, 49, 742
8156, 796, 475, 21, 151
8157, 614, 128, 15, 477
8158, 53, 54, 738, 279
8159, 725, 48, 3, 726
8160, 738, 730, 731, 1241
8161, 731, 1241, 1231, 1581
8162, 12, 108, 529, 427
8163, 738, 1241, 731, 1581
8164, 1071, 1330, 1270, 1433
8165, 1071, 1207, 1417, 1433
8166, 546, 108, 12, 427
8167, 1111, 1362, 1361, 1455
8168, 729, 730, 4, 1463
8169, 288, 49, 50, 743
8170, 151, 475, 21, 797
8171, 299, 55, 4, 755
8172, 296, 3, 49, 742
8173, 1366, 1102, 1359, 993
8174, 1366, 1359, 1102, 1171
8175, 115, 1305, 1075, 116
8176, 1075, 1305, 115, 1240
8177, 1256, 1255, 526, 123
8178, 1256, 526, 1255, 547
8179, 122, 526, 1255, 123
8180, 122, 1255, 526, 547
8181, 1271, 1443, 1311, 1079
8182, 1311, 1443, 1271, 1083
8183, 1305, 118, 1113, 117
8184, 1305, 1113, 118, 1304
8185, 1517, 483, 1203, 1101
8186, 1517, 1203, 483, 1439
8187, 1460, 1238, 1528, 996
8188, 1460, 1528, 1238, 1337
8189, 1577, 1254, 680, 1402
8190, 1577, 680, 1254, 674
8191, 1332, 273, 289, 249
8192, 1332, 289, 273, 1146
8193, 1525, 324, 326, 325
8194, 1525, 326, 324, 1289
8195, 1285, 1039, 1025, 1129
8196, 1285, 1025, 1039, 1169
8197, 1184, 993, 1536, 1054
8198, 1184, 1536, 993, 1024
8199, 244, 1185, 44, 284
8200, 44, 1185, 244, 1119
8201, 1578, 300, 302, 285
8202, 1578, 302, 300, 1168
8203, 1479, 1147, 1107, 1332
8204, 1479, 1107, 1147, 1010
8205, 1316, 1107, 1147, 1332
8206, 1316, 1147, 1107, 1010
8207, 1346, 86, 309, 85
8208, 1346, 309, 86, 1195
8209, 1525, 324, 322, 1481
8210, 1525, 322, 324, 325
8211, 1383, 1317, 76, 7
8212, 1383, 76, 1317, 1336
8213, 1378, 1051, 1008, 1360
8214, 1378, 1008, 1051, 1328
8215, 1302, 1354, 1183, 1301
8216, 1183, 1354, 1302, 1114
8217, 1408, 647, 1246, 648
8218, 1408, 1246, 647, 1203
8219, 1175, 1415, 1275, 1058
8220, 1275, 1415, 1175, 1016
8221, 1541, 264, 1578, 1243
8222, 1541, 1578, 264, 261
8223, 1481, 343, 349, 323
8224, 1481, 349, 343, 1453
8225, 1404, 45, 284, 44
8226, 1404, 284, 45, 1270
8227, 270, 1413, 280, 263
8228, 280, 1413, 270, 1143
8229, 1541, 1108, 1185, 1099
8230, 1541, 1185, 1108, 1451
8231, 1018, 1474, 990, 1085
8232, 990, 1474, 1018, 1236
8233, 1522, 1379, 1129, 999
8234, 1522, 1129, 1379, 1025
8235, 616, 1579, 472, 474
8236, 616, 472, 1579, 1468
8237, 470, 472, 1579, 474
8238, 470, 1579, 472, 1468
8239, 1473, 1478, 1172, 1080
8240, 1172, 1478, 1473, 1004
8241, 1172, 1089, 1473, 1080
8242, 1473, 1089, 1172, 1004
8243, 1367, 300, 266, 303
8244, 1367, 266, 300, 1168
8245, 1582, 358, 351, 343
8246, 1582, 351, 358, 1456
8247, 1123, 1465, 1065, 986
8248, 1065, 1465, 1123, 672
8249, 1402, 1577, 1431, 1115
8250, 1431, 1577, 1402, 1118
8251, 1412, 1550, 588, 1072
8252, 588, 1550, 1412, 1134
8253, 1544, 86, 1430, 87
8254, 1544, 1430, 86, 1150
8255, 1051, 1008, 1195, 1328
8256, 1195, 1008, 1051, 1589
8257, 1125, 48, 1499, 47
8258, 1125, 1499, 48, 740
8259, 1415, 1010, 1356, 1352
8260, 1415, 1356, 1010, 1232
8261, 1549, 83, 1220, 82
8262, 1549, 1220, 83, 1448
8263, 1324, 1206, 1099, 1108
8264, 1324, 1099, 1206, 1021
8265, 1565, 1426, 510, 555
8266, 1565, 510, 1426, 1054
8267, 1592, 39, 1248, 40
8268, 1592, 1248, 39, 1264
8269, 1318, 1314, 1163, 987
8270, 1318, 1163, 1314, 1056
8271, 1395, 1275, 1415, 1058
8272, 1395, 1415, 1275, 1041
8273, 1435, 1115, 1063, 1257
8274, 1435, 1063, 1115, 1015
8275, 1371, 332, 357, 331
8276, 1371, 357, 332, 1349
8277, 1549, 80, 1424, 81
8278, 1549, 1424, 80, 1526
8279, 1539, 1260, 1511, 1316
8280, 1539, 1511, 1260, 1066
8281, 1051, 991, 1347, 1360
8282, 1347, 991, 1051, 1533
8283, 1568, 1026, 1369, 1353
8284, 1568, 1369, 1026, 1193
8285, 1446, 1176, 1393, 1098
8286, 1446, 1393, 1176, 1358
8287, 1284, 1393, 1176, 1098
8288, 1284, 1176, 1393, 1358
8289, 1297, 345, 65, 1128
8290, 1297, 65, 345, 310
8291, 1155, 1544, 1327, 1178
8292, 1155, 1327, 1544, 88
8293, 89, 1327, 1544, 1178
8294, 89, 1544, 1327, 88
8295, 1583, 86, 1346, 85
8296, 1583, 1346, 86, 1164
8297, 1160, 114, 1329, 113
8298, 1160, 1329, 114, 525
8299, 68, 1496, 1524, 67
8300, 1524, 1496, 68, 1127
8301, 1247, 1410, 1292, 1128
8302, 1292, 1410, 1247, 1017
8303, 1481, 349, 324, 323
8304, 1481, 324, 349, 1289
8305, 1412, 473, 474, 471
8306, 1412, 474, 473, 612
8307, 1089, 1259, 1345, 1080
8308, 1345, 1259, 1089, 1002
8309, 1558, 1018, 1084, 1274
8310, 1558, 1084, 1018, 1085
8311, 1382, 43, 1273, 1267
8312, 1382, 1273, 43, 44
8313, 1257, 801, 1402, 1115
8314, 1257, 1402, 801, 815
8315, 1474, 1103, 1364, 1290
8316, 1474, 1364, 1103, 1421
8317, 1209, 1470, 1315, 1042
8318, 1315, 1470, 1209, 1339
8319, 1511, 1132, 1503, 62
8320, 1503, 1132, 1511, 1162
8321, 1503, 61, 1511, 62
8322, 1511, 61, 1503, 1162
8323, 1532, 1437, 72, 73
8324, 1532, 72, 1437, 1137
8325, 1575, 1552, 1237, 1038
8326, 1575, 1237, 1552, 1153
8327, 1445, 1468, 148, 147
8328, 148, 1468, 1445, 1200
8329, 1546, 1389, 1133, 1484
8330, 1546, 1133, 1389, 1244
8331, 341, 1534, 366, 308
8332, 366, 1534, 341, 1205
8333, 1406, 43, 286, 42
8334, 1406, 286, 43, 1404
8335, 1438, 1153, 241, 1237
8336, 1438, 241, 1153, 1295
8337, 1467, 369, 341, 315
8338, 1467, 341, 369, 1349
8339, 1536, 1471, 1054, 1100
8340, 1536, 1054, 1471, 1505
8341, 1367, 754, 746, 1168
8342, 1367, 746, 754, 717
8343, 1389, 116, 422, 413
8344, 1389, 422, 116, 1484
8345, 1250, 1449, 1507, 1075
8346, 1507, 1449, 1250, 1104
8347, 1562, 1358, 1278, 1452
8348, 1562, 1278, 1358, 1031
8349, 1509, 988, 1038, 1324
8350, 1509, 1038, 988, 1218
8351, 1562, 998, 1166, 1120
8352, 1562, 1166, 998, 1311
8353, 1364, 749, 697, 692
8354, 1364, 697, 749, 1103
8355, 1305, 1554, 1192, 1121
8356, 1192, 1554, 1305, 1303
8357, 1144, 1410, 1247, 1127
8358, 1247, 1410, 1144, 1017
8359, 1591, 1051, 1164, 1328
8360, 1591, 1164, 1051, 1363
8361, 1515, 116, 1192, 1484
8362, 1515, 1192, 116, 117
8363, 1574, 1047, 1036, 1182
8364, 1574, 1036, 1047, 1375
8365, 1496, 65, 1247, 66
8366, 1496, 1247, 65, 1128
8367, 1215, 77, 1253, 7
8368, 1215, 1253, 77, 1523
8369, 1229, 369, 1476, 315
8370, 1229, 1476, 369, 1205
8371, 1345, 540, 1488, 545
8372, 1345, 1488, 540, 1003
8373, 1472, 495, 1101, 699
8374, 1472, 1101, 495, 1426
8375, 1082, 1558, 1018, 990
8376, 1018, 1558, 1082, 1274
8377, 1549, 1016, 1201, 1156
8378, 1549, 1201, 1016, 1422
8379, 1516, 1201, 1016, 1156
8380, 1516, 1016, 1201, 1422
8381, 1129, 361, 1285, 1342
8382, 1129, 1285, 361, 1532
8383, 1584, 688, 677, 672
8384, 1584, 677, 688, 1234
8385, 1374, 1573, 363, 1513
8386, 1374, 363, 1573, 90
8387, 314, 363, 1573, 1513
8388, 314, 1573, 363, 90
8389, 1550, 588, 1567, 607
8390, 1550, 1567, 588, 1072
8391, 1376, 593, 609, 637
8392, 1376, 609, 593, 1047
8393, 1544, 1543, 1341, 1037
8394, 1544, 1341, 1543, 1150
8395, 426, 1159, 1427, 412
8396, 1427, 1159, 426, 522
8397, 1511, 297, 1332, 1147
8398, 1511, 1332, 297, 62
8399, 1520, 1061, 1523, 1215
8400, 1520, 1523, 1061, 1233
8401, 77, 1523, 1061, 1215
8402, 77, 1061, 1523, 1233
8403, 1349, 1012, 1496, 1149
8404, 1349, 1496, 1012, 1127
8405, 1128, 1496, 1012, 1149
8406, 1128, 1012, 1496, 1127
8407, 1503, 1335, 1361, 1105
8408, 1503, 1361, 1335, 59
8409, 1488, 1194, 1381, 1050
8410, 1550, 777, 780, 1046
8411, 1550, 780, 777, 795
8412, 333, 1519, 1343, 327
8413, 1343, 1519, 333, 1504
8414, 1343, 330, 333, 327
8415, 333, 330, 1343, 1504
8416, 1476, 71, 353, 312
8417, 1476, 353, 71, 1230
8418, 1563, 1144, 1385, 1017
8419, 1563, 1385, 1144, 1045
8420, 1527, 119, 420, 120
8421, 1527, 420, 119, 1300
8422, 1427, 536, 506, 535
8423, 1427, 506, 536, 1300
8424, 1365, 1007, 1280, 1122
8425, 1365, 1280, 1007, 1135
8426, 1551, 73, 1138, 1532
8427, 1551, 1138, 73, 1508
8428, 1499, 45, 1125, 46
8429, 1499, 1125, 45, 1382
8430, 1423, 1269, 1178, 1029
8431, 1423, 1178, 1269, 1327
8432, 1432, 743, 296, 288
8433, 296, 743, 1432, 1333
8434, 296, 250, 1432, 288
8435, 1432, 250, 296, 1333
8436, 1238, 1390, 1245, 986
8437, 1245, 1390, 1238, 1337
8438, 1476, 369, 332, 357
8439, 1476, 332, 369, 1205
8440, 491, 1538, 1345, 550
8441, 1345, 1538, 491, 1194
8442, 1496, 366, 367, 308
8443, 1496, 367, 366, 1349
8444, 1230, 1120, 6, 1166
8445, 1230, 6, 1120, 1229
8446, 790, 1364, 1214, 812
8447, 1214, 1364, 790, 1282
8448, 1504, 352, 314, 370
8449, 1504, 314, 352, 1351
8450, 1427, 507, 506, 1300
8451, 1427, 506, 507, 508
8452, 1045, 1524, 1385, 1144
8453, 1385, 1524, 1045, 1277
8454, 467, 817, 152, 476
8455, 152, 817, 467, 800
8456, 665, 1203, 1357, 647
8457, 1357, 1203, 665, 1173
8458, 1357, 1398, 665, 647
8459, 665, 1398, 1357, 1173
8460, 1522, 1398, 994, 1145
8461, 1522, 994, 1398, 1357
8462, 553, 426, 1281, 523
8463, 1281, 426, 553, 421
8464, 1489, 1547, 1419, 1014
8465, 1419, 1547, 1489, 1214
8466, 1376, 1548, 1047, 1375
8467, 1047, 1548, 1376, 1227
8468, 1482, 471, 478, 468
8469, 1482, 478, 471, 1412
8470, 1533, 1591, 1002, 1165
8471, 1002, 1591, 1533, 1363
8472, 1228, 1469, 1264, 38
8473, 1264, 1469, 1228, 1141
8474, 1104, 1584, 558, 1381
8475, 1104, 558, 1584, 486
8476, 549, 558, 1584, 1381
8477, 549, 1584, 558, 486
8478, 1577, 1177, 668, 1326
8479, 1577, 668, 1177, 1465
8480, 1448, 1549, 1422, 1201
8481, 1422, 1549, 1448, 1220
8482, 1567, 607, 624, 1550
8483, 1567, 624, 607, 587
8484, 1427, 507, 1159, 508
8485, 1427, 1159, 507, 1102
8486, 1427, 415, 418, 414
8487, 1427, 418, 415, 1300
8488, 1545, 567, 1564, 619
8489, 1545, 1564, 567, 1179
8490, 1537, 1490, 1223, 1238
8491, 1537, 1223, 1490, 1064
8492, 533, 414, 104, 418
8493, 104, 414, 533, 534
8494, 1488, 490, 1194, 560
8495, 1488, 1194, 490, 1381
8496, 155, 1094, 605, 565
8497, 605, 1094, 155, 497
8498, 1474, 1282, 1364, 990
8499, 1474, 1364, 1282, 1044
8500, 1323, 502, 544, 500
8501, 1323, 544, 502, 1244
8502, 1574, 1586, 1199, 1142
8503, 1199, 1586, 1574, 1019
8504, 1434, 707, 1367, 716
8505, 1434, 1367, 707, 1109
8506, 1473, 700, 1090, 701
8507, 1473, 1090, 700, 1472
8508, 1443, 644, 650, 657
8509, 1443, 650, 644, 1442
8510, 1498, 548, 559, 485
8511, 1498, 559, 548, 1246
8512, 1568, 1174, 80, 1454
8513, 1568, 80, 1174, 1353
8514, 531, 416, 106, 417
8515, 106, 416, 531, 532
8516, 1290, 758, 787, 753
8517, 787, 693, 1290, 753
8518, 1290, 693, 787, 1044
8519, 1417, 243, 288, 733
8520, 1417, 288, 243, 304
8521, 1461, 240, 59, 1361
8522, 1461, 59, 240, 293
8523, 1455, 289, 297, 1307
8524, 1455, 297, 289, 249
8525, 1455, 240, 60, 295
8526, 1455, 60, 240, 1361
8527, 1500, 676, 198, 685
8528, 1500, 198, 676, 1207
8529, 1241, 279, 248, 303
8530, 1241, 248, 279, 738
8531, 1463, 291, 248, 287
8532, 1463, 248, 291, 1241
8533, 196, 1241, 669, 731
8534, 669, 1241, 196, 1074
8535, 718, 1500, 48, 725
8536, 48, 1500, 718, 1499
8537, 1407, 1348, 1096, 1313
8538, 1407, 1096, 1348, 1406
8539, 787, 1290, 1364, 758
8540, 1364, 1290, 787, 1044
8541, 1364, 1282, 787, 758
8542, 787, 1282, 1364, 1044
*ELEMENT, type=C3D4, ELSET=Volume2
8543, 792, 1599, 786, 1621
8544, 1599, 1615, 786, 1621
8545, 1593, 1594, 1603, 1605
8546, 1595, 1617, 1614, 1646
8547, 811, 792, 786, 1621
8548, 811, 923, 931, 1621
8549, 958, 947, 811, 1621
8550, 781, 1602, 801, 1614
8551, 947, 1599, 792, 1621
8552, 811, 947, 792, 1621
8553, 931, 958, 811, 1621
8554, 923, 786, 1615, 1621
8555, 811, 786, 923, 1621
8556, 1593, 1603, 1594, 1609
8557, 1593, 1594, 1605, 1609
8558, 1595, 1614, 1610, 1628
8559, 1595, 1593, 1617, 1646
8560, 831, 1607, 853, 1629
8561, 801, 1614, 1602, 1628
8562, 789, 818, 760, 1614
8563, 1593, 1603, 1634, 1646
8564, 939, 1621, 914, 1632
8565, 961, 1608, 1609, 1619
8566, 1612, 1615, 927, 1624
8567, 918, 1621, 1601, 1632
8568, 1602, 1614, 1595, 1628
8569, 1593, 1603, 1595, 1605
8570, 1595, 1603, 1594, 1605
8571, 759, 1599, 938, 1611
8572, 1593, 1599, 1615, 1634
8573, 1593, 1595, 1603, 1646
8574, 953, 1596, 1609, 1637
8575, 1598, 927, 1615, 1624
8576, 1597, 1593, 1616, 1626
8577, 918, 1612, 1601, 1621
8578, 939, 914, 925, 1632
8579, 1593, 1598, 1612, 1624
8580, 953, 1630, 1596, 1637
8581, 1593, 1615, 1598, 1634
8582, 961, 945, 1608, 1619
8583, 1593, 1605, 1596, 1609
8584, 1593, 1597, 1617, 1626
8585, 1593, 1612, 1600, 1624
8586, 1600, 1616, 1593, 1626
8587, 781, 782, 801, 1602
8588, 1593, 1603, 1599, 1634
8589, 1593, 1596, 1605, 1620
8590, 928, 1600, 1612, 1624
8591, 1600, 1601, 1593, 1616
8592, 776, 778, 779, 1603
8593, 1598, 1593, 1617, 1624
8594, 1594, 1609, 1608, 1619
8595, 925, 941, 939, 1632
8596, 914, 1621, 918, 1632
8597, 1593, 1617, 1600, 1626
8598, 1600, 1617, 1593, 1624
8599, 1593, 1601, 1600, 1612
8600, 1599, 1603, 779, 1634
8601, 909, 1600, 1617, 1626
8602, 1598, 1615, 1612, 1624
8603, 1594, 1605, 1609, 1619
8604, 801, 1602, 782, 1628
8605, 928, 1612, 919, 1624
8606, 776, 779, 813, 1603
8607, 1593, 1596, 1601, 1609
8608, 977, 1600, 1616, 1622
8609, 1600, 1612, 1601, 1622
8610, 871, 1628, 808, 1648
8611, 842, 1605, 838, 1619
8612, 1601, 1616, 1600, 1622
8613, 1601, 1632, 1621, 1637
8614, 876, 852, 1610, 1642
8615, 931, 923, 916, 1621
8616, 1614, 1617, 1598, 1634
8617, 892, 909, 1600, 1617
8618, 961, 1609, 1608, 1611
8619, 961, 945, 1619, 1636
8620, 948, 958, 916, 1621
8621, 862, 1619, 945, 1636
8622, 852, 896, 1610, 1642
8623, 931, 916, 958, 1621
8624, 781, 1625, 1602, 1646
8625, 1608, 1609, 1594, 1611
8626, 759, 792, 938, 1599
8627, 778, 779, 1603, 1634
8628, 1595, 1594, 1606, 1607
8629, 789, 760, 897, 1614
8630, 1594, 1603, 1595, 1606
8631, 824, 876, 852, 1610
8632, 1599, 1612, 1593, 1615
8633, 805, 791, 796, 1629
8634, 1598, 1593, 1612, 1615
8635, 928, 1612, 1600, 1622
8636, 896, 1597, 904, 1610
8637, 824, 852, 896, 1610
8638, 953, 1609, 944, 1637
8639, 941, 942, 939, 1632
8640, 1593, 1609, 1601, 1637
8641, 897, 760, 889, 1614
8642, 948, 947, 958, 1621
8643, 1597, 1610, 896, 1642
8644, 880, 1619, 834, 1638
8645, 977, 1616, 1600, 1626
8646, 1593, 1598, 1617, 1634
8647, 914, 918, 925, 1632
8648, 1599, 779, 1615, 1634
8649, 927, 1624, 1598, 1639
8650, 918, 1601, 1612, 1622
8651, 824, 896, 887, 1610
8652, 961, 1619, 1609, 1636
8653, 978, 1616, 1601, 1622
8654, 813, 1599, 759, 1611
8655, 1595, 1593, 1605, 1610
8656, 904, 1597, 902, 1617
8657, 1594, 1609, 1603, 1611
8658, 831, 833, 853, 1607
8659, 1601, 1622, 918, 1632
8660, 954, 953, 1596, 1609
8661, 892, 1617, 1600, 1624
8662, 904, 1610, 1597, 1617
8663, 1601, 1609, 1596, 1637
8664, 928, 919, 929, 1624
8665, 976, 1601, 978, 1630
8666, 947, 938, 792, 1599
8667, 862, 1608, 945, 1619
8668, 786, 1599, 779, 1615
8669, 871, 860, 1628, 1648
8670, 1593, 1599, 1603, 1609
8671, 902, 1617, 1597, 1626
8672, 1598, 1615, 927, 1639
8673, 853, 1607, 1623, 1629
8674, 953, 959, 1630, 1637
8675, 853, 867, 881, 1623
8676, 976, 978, 1601, 1632
8677, 1601, 1630, 976, 1632
8678, 805, 796, 481, 1629
8679, 1595, 1605, 1594, 1607
8680, 1607, 1629, 831, 1638
8681, 938, 1599, 960, 1611
8682, 779, 1599, 813, 1603
8683, 824, 1610, 887, 1628
8684, 876, 855, 841, 1610
8685, 1596, 1605, 1620, 1636
8686, 810, 796, 761, 480
8687, 813, 807, 1603, 1611
8688, 813, 1603, 1599, 1611
8689, 1595, 1610, 1614, 1617
8690, 1605, 1610, 1593, 1620
8691, 904, 896, 902, 1597
8692, 818, 1614, 1598, 1634
8693, 887, 1610, 911, 1628
8694, 878, 874, 842, 1636
8695, 825, 810, 761, 480
8696, 859, 881, 867, 1641
8697, 984, 1597, 1616, 1626
8698, 771, 772, 770, 1606
8699, 940, 862, 945, 1636
8700, 887, 896, 904, 1610
8701, 977, 1616, 979, 1622
8702, 950, 976, 1630, 1632
8703, 854, 876, 1620, 1644
8704, 779, 786, 792, 1599
8705, 1596, 1593, 1601, 1616
8706, 788, 815, 818, 1614
8707, 830, 831, 828, 1618
8708, 947, 960, 938, 1599
8709, 797, 798, 799, 1641
8710, 970, 1626, 977, 1643
8711, 902, 1597, 896, 1642
8712, 961, 940, 945, 1636
8713, 954, 944, 953, 1609
8714, 924, 1615, 787, 1639
8715, 935, 1612, 928, 1622
8716, 1615, 1634, 790, 1639
8717, 759, 813, 792, 1599
8718, 909, 1617, 902, 1626
8719, 977, 984, 1616, 1626
8720, 936, 1600, 928, 1624
8721, 874, 1620, 842, 1636
8722, 854, 876, 841, 1620
8723, 791, 761, 796, 1629
8724, 785, 846, 808, 1648
8725, 924, 758, 787, 1615
8726, 936, 928, 929, 1624
8727, 1601, 1596, 1630, 1637
8728, 832, 880, 834, 1638
8729, 984, 1597, 968, 1616
8730, 915, 891, 920, 1624
8731, 1595, 1593, 1610, 1617
8732, 824, 887, 848, 1628
8733, 831, 832, 833, 1638
8734, 967, 1630, 1616, 1633
8735, 1597, 1610, 876, 1620
8736, 808, 1628, 782, 1648
8737, 893, 1617, 892, 1624
8738, 973, 1597, 984, 1626
8739, 935, 919, 928, 1612
8740, 1601, 1616, 978, 1630
8741, 924, 912, 758, 1615
8742, 481, 761, 796, 480
8743, 900, 1600, 909, 1626
8744, 978, 979, 1616, 1622
8745, 978, 1622, 1601, 1632
8746, 897, 910, 1598, 1614
8747, 1616, 1630, 1596, 1633
8748, 977, 969, 979, 1616
8749, 874, 1633, 1636, 1640
8750, 1597, 1593, 1610, 1620
8751, 902, 901, 1626, 1642
8752, 977, 1626, 1600, 1643
8753, 769, 770, 768, 1606
8754, 1599, 1609, 960, 1611
8755, 805, 773, 791, 1618
8756, 481, 797, 799, 1641
8757, 778, 812, 779, 1634
8758, 1603, 1609, 1599, 1611
8759, 1593, 1599, 1609, 1637
8760, 1599, 1593, 1612, 1637
8761, 902, 1626, 1597, 1642
8762, 1602, 1625, 1595, 1646
8763, 891, 920, 1624, 1643
8764, 768, 770, 807, 1635
8765, 790, 787, 1615, 1639
8766, 876, 1610, 841, 1620
8767, 985, 978, 1616, 1630
8768, 968, 1633, 1616, 1644
8769, 781, 1614, 815, 1646
8770, 954, 1596, 953, 1636
8771, 917, 923, 1615, 1621
8772, 924, 927, 1615, 1639
8773, 934, 927, 1612, 1615
8774, 770, 1603, 807, 1635
8775, 1601, 1612, 1593, 1637
8776, 1603, 1611, 807, 1635
8777, 876, 1610, 1597, 1642
8778, 812, 1615, 779, 1634
8779, 892, 909, 900, 1600
8780, 973, 968, 984, 1597
8781, 950, 976, 965, 1630
8782, 1597, 1620, 876, 1644
8783, 927, 921, 1624, 1639
8784, 842, 838, 863, 1619
8785, 794, 816, 22, 799
8786, 813, 807, 776, 1603
8787, 830, 831, 1618, 1638
8788, 799, 798, 1613, 1641
8789, 799, 798, 777, 1613
8790, 1598, 1634, 1615, 1639
8791, 880, 1605, 834, 1619
8792, 915, 888, 891, 1624
8793, 769, 1635, 1604, 1645
8794, 967, 1630, 1633, 1640
8795, 928, 1622, 1600, 1643
8796, 893, 1598, 1617, 1624
8797, 805, 1618, 791, 1629
8798, 892, 894, 909, 1617
8799, 898, 893, 1624, 1639
8800, 770, 1606, 1603, 1635
8801, 972, 1622, 978, 1632
8802, 953, 944, 959, 1637
8803, 904, 911, 1610, 1617
8804, 901, 973, 1626, 1642
8805, 1605, 1607, 834, 1638
8806, 918, 1612, 935, 1622
8807, 977, 984, 969, 1616
8808, 1601, 942, 1632, 1637
8809, 762, 783, 798, 1631
8810, 897, 889, 910, 1614
8811, 874, 878, 851, 1636
8812, 815, 1614, 788, 1646
8813, 959, 1601, 950, 1630
8814, 833, 867, 853, 1623
8815, 1604, 1629, 1607, 1638
8816, 836, 1610, 855, 1647
8817, 899, 1614, 801, 1628
8818, 928, 926, 1622, 1643
8819, 954, 1609, 1596, 1636
8820, 1596, 1636, 1633, 1640
8821, 22, 1623, 1607, 1629
8822, 909, 894, 902, 1617
8823, 784, 802, 869, 1627
8824, 22, 1607, 1604, 1629
8825, 953, 1596, 946, 1636
8826, 975, 1600, 977, 1622
8827, 779, 792, 813, 1599
8828, 917, 1615, 1612, 1621
8829, 769, 1604, 766, 1645
8830, 910, 893, 1598, 1617
8831, 789, 790, 818, 1639
8832, 768, 1606, 770, 1635
8833, 967, 1616, 968, 1633
8834, 950, 1630, 1601, 1632
8835, 961, 1608, 949, 1611
8836, 1600, 1626, 900, 1643
8837, 769, 766, 1604, 1635
8838, 976, 978, 965, 1630
8839, 1596, 1593, 1616, 1620
8840, 808, 846, 871, 1648
8841, 833, 853, 1607, 1623
8842, 970, 900, 1626, 1643
8843, 788, 1614, 818, 1634
8844, 825, 870, 479, 1629
8845, 943, 1599, 947, 1621
8846, 892, 1600, 900, 1643
8847, 1598, 1624, 893, 1639
8848, 903, 1614, 899, 1628
8849, 834, 835, 1607, 1647
8850, 893, 894, 892, 1617
8851, 1597, 1616, 1593, 1620
8852, 1597, 1626, 973, 1642
8853, 947, 943, 960, 1599
8854, 1598, 1614, 910, 1617
8855, 1601, 1621, 1612, 1637
8856, 968, 1597, 973, 1642
8857, 767, 765, 766, 1627
8858, 895, 848, 887, 1628
8859, 960, 1609, 1599, 1637
8860, 919, 934, 927, 1612
8861, 937, 950, 965, 1630
8862, 1610, 1628, 866, 1647
8863, 954, 953, 946, 1636
8864, 830, 1618, 828, 1627
8865, 874, 1636, 851, 1640
8866, 915, 898, 888, 1624
8867, 917, 923, 934, 1615
8868, 1608, 1619, 837, 1638
8869, 841, 1610, 1605, 1620
8870, 870, 825, 857, 1629
8871, 959, 942, 950, 1601
8872, 968, 1597, 1642, 1644
8873, 758, 790, 787, 1615
8874, 968, 1642, 971, 1644
8875, 946, 1596, 953, 1640
8876, 1593, 1597, 1610, 1617
8877, 834, 880, 838, 1605
8878, 861, 837, 1619, 1638
8879, 968, 1616, 1597, 1644
8880, 836, 1605, 1610, 1647
8881, 1596, 1633, 1630, 1640
8882, 924, 927, 912, 1615
8883, 842, 1619, 863, 1636
8884, 871, 846, 860, 1648
8885, 782, 1628, 1602, 1648
8886, 857, 479, 870, 1629
8887, 915, 920, 936, 1624
8888, 481, 825, 761, 480
8889, 772, 1606, 771, 1646
8890, 936, 1624, 920, 1643
8891, 945, 862, 875, 1608
8892, 815, 781, 801, 1614
8893, 769, 1606, 768, 1635
8894, 904, 911, 887, 1610
8895, 1601, 1630, 959, 1637
8896, 934, 1612, 917, 1615
8897, 836, 855, 866, 1647
8898, 985, 1616, 967, 1630
8899, 946, 1636, 1596, 1640
8900, 895, 887, 911, 1628
8901, 975, 1600, 1622, 1643
8902, 950, 1601, 942, 1632
8903, 928, 1600, 936, 1643
8904, 781, 780, 1602, 1625
8905, 975, 1622, 926, 1643
8906, 772, 1603, 770, 1606
8907, 479, 825, 481, 480
8908, 968, 973, 971, 1642
8909, 799, 1613, 22, 1641
8910, 970, 900, 964, 1626
8911, 892, 1624, 1600, 1643
8912, 922, 918, 935, 1622
8913, 892, 891, 1624, 1643
8914, 769, 1606, 1635, 1645
8915, 975, 977, 1600, 1643
8916, 890, 901, 973, 1626
8917, 897, 1598, 893, 1639
8918, 825, 761, 886, 1629
8919, 769, 768, 766, 1635
8920, 776, 772, 778, 1603
8921, 831, 833, 1607, 1638
8922, 921, 898, 1624, 1639
8923, 978, 979, 969, 1616
8924, 1605, 834, 1619, 1638
8925, 897, 910, 893, 1598
8926, 1596, 1630, 953, 1640
8927, 1616, 1633, 1620, 1644
8928, 761, 481, 796, 1629
8929, 918, 917, 1612, 1621
8930, 985, 978, 969, 1616
8931, 922, 918, 1622, 1632
8932, 1618, 1627, 830, 1638
8933, 1594, 1611, 1603, 1635
8934, 903, 899, 911, 1628
8935, 936, 1600, 1624, 1643
8936, 871, 908, 808, 1628
8937, 1595, 1606, 1603, 1646
8938, 915, 921, 898, 1624
8939, 819, 803, 793, 1611
8940, 1614, 1634, 788, 1646
8941, 815, 760, 818, 1614
8942, 802, 784, 804, 1627
8943, 1602, 1628, 856, 1648
8944, 975, 913, 926, 1622
8945, 898, 220, 915, 888
8946, 876, 1642, 1597, 1644
8947, 952, 960, 1609, 1611
8948, 967, 974, 1630, 1640
8949, 900, 890, 964, 1626
8950, 1612, 1615, 1599, 1621
8951, 973, 964, 890, 1626
8952, 1595, 1628, 1610, 1647
8953, 797, 1631, 798, 1641
8954, 786, 758, 912, 1615
8955, 834, 1607, 1605, 1647
8956, 941, 939, 233, 925
8957, 961, 952, 1609, 1611
8958, 929, 927, 921, 1624
8959, 960, 1599, 943, 1637
8960, 942, 1601, 959, 1637
8961, 939, 914, 233, 925
8962, 898, 897, 893, 1639
8963, 807, 770, 776, 1603
8964, 878, 842, 863, 1636
8965, 1596, 1616, 1601, 1630
8966, 945, 949, 961, 1608
8967, 918, 919, 935, 1612
8968, 913, 975, 963, 1622
8969, 968, 962, 1633, 1644
8970, 891, 915, 920, 221
8971, 904, 902, 894, 1617
8972, 1623, 1625, 1607, 1647
8973, 1604, 1635, 1606, 1645
8974, 963, 922, 913, 1622
8975, 923, 786, 912, 1615
8976, 856, 1602, 885, 1628
8977, 803, 1611, 1608, 1635
8978, 888, 892, 891, 1624
8979, 783, 798, 1631, 1641
8980, 940, 823, 862, 1636
8981, 886, 827, 761, 825
8982, 771, 1625, 775, 1646
8983, 819, 949, 803, 1611
8984, 899, 801, 782, 1628
8985, 1596, 1620, 1616, 1633
8986, 862, 837, 1608, 1619
8987, 831, 847, 828, 1629
8988, 837, 830, 829, 1627
8989, 808, 782, 785, 1648
8990, 943, 1599, 1621, 1637
8991, 855, 1610, 866, 1647
8992, 963, 972, 922, 1622
8993, 799, 1613, 777, 1625
8994, 928, 926, 913, 1622
8995, 1616, 1620, 1597, 1644
8996, 961, 1609, 954, 1636
8997, 805, 773, 1618, 1645
8998, 910, 894, 893, 1617
8999, 967, 968, 962, 1633
9000, 221, 891, 915, 888
9001, 1604, 1627, 1618, 1638
9002, 885, 856, 840, 1602
9003, 777, 816, 799, 1625
9004, 838, 1605, 880, 1619
9005, 772, 778, 1603, 1634
9006, 836, 838, 841, 1605
9007, 921, 220, 915, 898
9008, 910, 1614, 903, 1617
9009, 781, 775, 1625, 1646
9010, 803, 793, 1611, 1635
9011, 904, 903, 911, 1617
9012, 829, 830, 828, 1627
9013, 780, 777, 795, 1613
9014, 22, 799, 816, 1625
9015, 975, 970, 977, 1643
9016, 805, 481, 22, 1629
9017, 937, 959, 950, 1630
9018, 786, 779, 812, 1615
9019, 874, 849, 1633, 1640
9020, 843, 869, 802, 1627
9021, 938, 949, 819, 1611
9022, 969, 984, 968, 1616
9023, 922, 1622, 972, 1632
9024, 970, 964, 977, 1626
9025, 951, 937, 974, 1630
9026, 797, 481, 1631, 1641
9027, 799, 22, 1613, 1625
9028, 985, 967, 974, 1630
9029, 763, 886, 761, 1618
9030, 819, 759, 938, 1611
9031, 224, 890, 901, 973
9032, 766, 1627, 1604, 1635
9033, 871, 860, 908, 1628
9034, 837, 830, 1627, 1638
9035, 1603, 1606, 1594, 1635
9036, 834, 835, 833, 1607
9037, 771, 1606, 1625, 1646
9038, 1602, 1613, 864, 1623
9039, 842, 874, 884, 1620
9040, 808, 908, 782, 1628
9041, 890, 902, 901, 1626
9042, 760, 201, 897, 889
9043, 979, 975, 977, 1622
9044, 771, 775, 806, 1646
9045, 1603, 1606, 772, 1646
9046, 860, 856, 1628, 1648
9047, 974, 937, 965, 1630
9048, 237, 950, 976, 965
9049, 899, 782, 908, 1628
9050, 960, 944, 1609, 1637
9051, 236, 974, 951, 937
9052, 948, 943, 947, 1621
9053, 890, 224, 964, 973
9054, 782, 781, 780, 1602
9055, 874, 884, 1620, 1633
9056, 917, 916, 923, 1621
9057, 976, 972, 978, 1632
9058, 966, 967, 1633, 1640
9059, 844, 783, 1631, 1641
9060, 812, 790, 1615, 1634
9061, 972, 979, 978, 1622
9062, 193, 938, 759, 792
9063, 764, 1618, 1604, 1627
9064, 763, 886, 827, 761
9065, 760, 201, 789, 897
9066, 1612, 1621, 1599, 1637
9067, 950, 237, 937, 965
9068, 937, 236, 974, 965
9069, 900, 970, 964, 225
9070, 862, 861, 837, 1619
9071, 1607, 1623, 22, 1625
9072, 1607, 1625, 22, 1645
9073, 776, 770, 772, 1603
9074, 205, 786, 758, 912
9075, 1602, 1625, 1623, 1647
9076, 794, 22, 816, 1645
9077, 758, 812, 790, 1615
9078, 864, 840, 1602, 1623
9079, 781, 806, 775, 1646
9080, 801, 889, 760, 1614
9081, 964, 900, 225, 890
9082, 951, 953, 1630, 1640
9083, 217, 851, 823, 1636
9084, 825, 481, 761, 1629
9085, 938, 193, 947, 792
9086, 952, 960, 944, 1609
9087, 961, 949, 952, 1611
9088, 868, 843, 802, 1608
9089, 802, 804, 1608, 1627
9090, 854, 850, 876, 1644
9091, 795, 814, 1602, 1648
9092, 874, 851, 849, 1640
9093, 833, 1607, 835, 1623
9094, 866, 1628, 885, 1647
9095, 918, 914, 917, 1621
9096, 917, 919, 918, 1612
9097, 22, 1604, 1607, 1645
9098, 881, 877, 853, 1629
9099, 807, 1611, 793, 1635
9100, 806, 781, 815, 1646
9101, 1608, 1611, 1594, 1635
9102, 855, 876, 824, 1610
9103, 881, 1623, 867, 1641
9104, 767, 1627, 766, 1635
9105, 949, 1608, 803, 1611
9106, 886, 761, 1618, 1629
9107, 786, 205, 923, 912
9108, 946, 851, 1636, 1640
9109, 889, 801, 899, 1614
9110, 854, 841, 884, 1620
9111, 823, 940, 217, 1636
9112, 791, 1618, 761, 1629
9113, 934, 919, 917, 1612
9114, 875, 862, 837, 1608
9115, 481, 799, 22, 1641
9116, 204, 912, 758, 924
9117, 840, 885, 1602, 1647
9118, 1594, 1607, 1605, 1638
9119, 945, 940, 216, 862
9120, 756, 1618, 764, 1627
9121, 838, 836, 834, 1605
9122, 758, 787, 204, 924
9123, 885, 1628, 1602, 1647
9124, 866, 855, 824, 1610
9125, 772, 1634, 1603, 1646
9126, 860, 856, 885, 1628
9127, 948, 916, 232, 1621
9128, 764, 773, 766, 1604
9129, 767, 1608, 804, 1627
9130, 939, 232, 914, 1621
9131, 948, 232, 939, 1621
9132, 763, 761, 791, 1618
9133, 780, 814, 782, 1602
9134, 969, 968, 967, 1616
9135, 914, 232, 916, 1621
9136, 840, 856, 864, 1602
9137, 926, 928, 936, 1643
9138, 765, 756, 764, 1627
9139, 229, 963, 922, 913
9140, 795, 814, 780, 1602
9141, 902, 896, 901, 1642
9142, 898, 893, 888, 1624
9143, 773, 1604, 764, 1618
9144, 951, 1630, 974, 1640
9145, 803, 802, 804, 1608
9146, 803, 804, 767, 1608
9147, 813, 759, 807, 1611
9148, 966, 974, 967, 1640
9149, 985, 969, 967, 1616
9150, 814, 782, 1602, 1648
9151, 217, 946, 851, 1636
9152, 844, 821, 783, 1613
9153, 801, 760, 815, 1614
9154, 1620, 1633, 884, 1644
9155, 793, 759, 819, 1611
9156, 843, 802, 1608, 1627
9157, 765, 767, 804, 1627
9158, 848, 895, 887, 208
9159, 791, 773, 764, 1618
9160, 756, 827, 763, 1618
9161, 922, 972, 963, 229
9162, 904, 894, 903, 1617
9163, 805, 22, 794, 1645
9164, 837, 1627, 1608, 1638
9165, 774, 775, 771, 1625
9166, 838, 880, 863, 1619
9167, 940, 946, 217, 1636
9168, 943, 1621, 939, 1637
9169, 788, 1634, 772, 1646
9170, 961, 954, 940, 1636
9171, 868, 802, 957, 1608
9172, 850, 1642, 876, 1644
9173, 864, 839, 840, 1623
9174, 873, 971, 982, 1642
9175, 831, 828, 1618, 1629
9176, 894, 910, 903, 1617
9177, 825, 479, 481, 1629
9178, 924, 921, 927, 1639
9179, 1595, 1610, 1605, 1647
9180, 1594, 1619, 1608, 1638
9181, 1595, 1607, 1606, 1625
9182, 828, 1618, 820, 1627
9183, 832, 861, 880, 1638
9184, 176, 762, 826, 783
9185, 923, 912, 934, 1615
9186, 807, 759, 793, 1611
9187, 873, 850, 971, 1642
9188, 820, 756, 784, 1627
9189, 973, 984, 964, 1626
9190, 22, 1623, 881, 1641
9191, 900, 909, 890, 1626
9192, 839, 833, 835, 1623
9193, 963, 975, 979, 1622
9194, 862, 940, 216, 823
9195, 806, 772, 771, 1646
9196, 1608, 1627, 1604, 1638
9197, 941, 950, 942, 1632
9198, 933, 922, 983, 1632
9199, 769, 771, 770, 1606
9200, 854, 1620, 884, 1644
9201, 795, 1602, 1613, 1648
9202, 907, 809, 789, 1639
9203, 887, 824, 848, 208
9204, 772, 788, 778, 1634
9205, 971, 211, 873, 982
9206, 815, 788, 806, 1646
9207, 862, 863, 1619, 1636
9208, 780, 795, 1602, 1613
9209, 868, 957, 843, 1608
9210, 976, 956, 983, 1632
9211, 783, 1613, 798, 1641
9212, 892, 900, 891, 1643
9213, 774, 771, 1606, 1625
9214, 864, 1613, 1602, 1648
9215, 934, 912, 927, 1615
9216, 1594, 1608, 1604, 1638
9217, 973, 901, 982, 1642
9218, 849, 966, 1633, 1640
9219, 767, 803, 1608, 1635
9220, 885, 866, 848, 1628
9221, 942, 943, 939, 1637
9222, 786, 812, 758, 1615
9223, 1594, 1605, 1619, 1638
9224, 1602, 1628, 1595, 1647
9225, 780, 777, 1613, 1625
9226, 976, 950, 956, 1632
9227, 820, 1618, 756, 1627
9228, 211, 850, 971, 873
9229, 864, 821, 1613, 1648
9230, 864, 1602, 856, 1648
9231, 781, 775, 780, 1625
9232, 922, 972, 983, 1632
9233, 901, 905, 982, 1642
9234, 918, 922, 925, 1632
9235, 831, 830, 832, 1638
9236, 22, 1613, 1623, 1641
9237, 849, 872, 966, 1640
9238, 886, 763, 827, 1618
9239, 913, 228, 963, 975
9240, 965, 978, 985, 1630
9241, 935, 913, 922, 1622
9242, 951, 953, 937, 1630
9243, 1604, 1606, 1594, 1607
9244, 1594, 1606, 1604, 1635
9245, 1608, 1627, 767, 1635
9246, 980, 906, 970, 1643
9247, 980, 926, 932, 1643
9248, 851, 946, 955, 1640
9249, 970, 906, 900, 1643
9250, 1595, 1607, 1625, 1647
9251, 789, 897, 907, 1639
9252, 931, 811, 206, 923
9253, 952, 954, 961, 1609
9254, 762, 798, 797, 1631
9255, 962, 822, 213, 1633
9256, 782, 199, 899, 908
9257, 899, 801, 199, 782
9258, 1606, 1607, 1604, 1645
9259, 930, 907, 898, 1639
9260, 893, 892, 888, 1624
9261, 794, 21, 22, 805
9262, 822, 884, 1633, 1644
9263, 850, 971, 1642, 1644
9264, 962, 971, 212, 1644
9265, 930, 898, 921, 1639
9266, 820, 827, 756, 1618
9267, 788, 772, 806, 1646
9268, 757, 783, 821, 1613
9269, 946, 940, 954, 1636
9270, 884, 841, 842, 1620
9271, 809, 202, 907, 789
9272, 981, 966, 872, 1640
9273, 924, 787, 203, 1639
9274, 879, 839, 864, 1623
9275, 975, 913, 228, 926
9276, 766, 1604, 773, 1645
9277, 829, 828, 820, 1627
9278, 955, 872, 851, 1640
9279, 809, 203, 787, 1639
9280, 192, 819, 938, 949
9281, 946, 953, 951, 1640
9282, 1606, 1625, 1607, 1645
9283, 805, 794, 773, 1645
9284, 843, 868, 802, 869
9285, 874, 822, 884, 1633
9286, 790, 789, 787, 1639
9287, 769, 766, 773, 1645
9288, 983, 933, 230, 922
9289, 212, 971, 850, 1644
9290, 941, 925, 956, 1632
9291, 957, 802, 803, 1608
9292, 844, 1613, 783, 1641
9293, 213, 966, 962, 1633
9294, 1604, 1608, 1594, 1635
9295, 935, 928, 913, 1622
9296, 921, 915, 929, 1624
9297, 761, 827, 183, 825
9298, 795, 1613, 757, 1648
9299, 944, 954, 952, 1609
9300, 849, 966, 213, 1633
9301, 957, 945, 875, 1608
9302, 843, 957, 875, 1608
9303, 977, 964, 984, 1626
9304, 839, 867, 833, 1623
9305, 22, 21, 794, 799
9306, 849, 213, 822, 1633
9307, 22, 1625, 816, 1645
9308, 767, 793, 803, 1635
9309, 923, 811, 206, 786
9310, 769, 774, 771, 1606
9311, 924, 203, 930, 1639
9312, 952, 938, 960, 1611
9313, 951, 981, 955, 1640
9314, 951, 974, 981, 1640
9315, 835, 1623, 1607, 1647
9316, 922, 230, 983, 972
9317, 200, 760, 801, 889
9318, 862, 823, 863, 1636
9319, 864, 856, 821, 1648
9320, 809, 930, 203, 1639
9321, 889, 899, 903, 1614
9322, 1602, 1623, 840, 1647
9323, 857, 825, 886, 1629
9324, 234, 956, 941, 925
9325, 1604, 1629, 1618, 1645
9326, 795, 757, 814, 1648
9327, 933, 956, 925, 1632
9328, 845, 879, 864, 1641
9329, 822, 962, 212, 1644
9330, 831, 853, 847, 1629
9331, 1595, 1625, 1602, 1647
9332, 911, 899, 895, 1628
9333, 869, 820, 784, 1627
9334, 801, 200, 889, 899
9335, 202, 907, 789, 897
9336, 1604, 1627, 1608, 1635
9337, 902, 890, 909, 1626
9338, 216, 875, 945, 862
9339, 1595, 1625, 1606, 1646
9340, 861, 1619, 880, 1638
9341, 968, 971, 962, 1644
9342, 820, 185, 784, 756
9343, 949, 957, 803, 1608
9344, 844, 176, 826, 783
9345, 979, 972, 963, 1622
9346, 1604, 22, 1629, 1645
9347, 1604, 1618, 773, 1645
9348, 790, 788, 818, 1634
9349, 956, 234, 933, 925
9350, 774, 1606, 769, 1645
9351, 844, 821, 175, 783
9352, 768, 807, 793, 1635
9353, 822, 1633, 962, 1644
9354, 780, 1613, 1602, 1625
9355, 812, 778, 790, 1634
9356, 1605, 1607, 1595, 1647
9357, 908, 782, 199, 808
9358, 757, 795, 783, 1613
9359, 877, 881, 18, 1629
9360, 878, 823, 851, 1636
9361, 223, 982, 901, 905
9362, 889, 903, 910, 1614
9363, 207, 860, 848, 1628
9364, 901, 973, 982, 223
9365, 764, 756, 763, 1618
9366, 819, 192, 803, 949
9367, 837, 829, 843, 1627
9368, 784, 756, 765, 1627
9369, 906, 891, 920, 222
9370, 1604, 1607, 1594, 1638
9371, 946, 218, 851, 955
9372, 861, 830, 837, 1638
9373, 906, 226, 970, 900
9374, 955, 235, 981, 951
9375, 980, 975, 926, 1643
9376, 906, 226, 980, 970
9377, 18, 881, 859, 1641
9378, 956, 238, 976, 983
9379, 920, 891, 906, 1643
9380, 953, 959, 937, 1630
9381, 774, 1625, 1606, 1645
9382, 951, 235, 981, 974
9383, 926, 936, 920, 1643
9384, 212, 850, 822, 1644
9385, 976, 950, 238, 956
9386, 827, 183, 763, 761
9387, 756, 184, 763, 827
9388, 821, 757, 1613, 1648
9389, 194, 947, 811, 958
9390, 808, 785, 173, 846
9391, 843, 875, 837, 1608
9392, 784, 765, 804, 1627
9393, 876, 850, 852, 1642
9394, 218, 872, 851, 955
9395, 920, 932, 906, 222
9396, 839, 840, 1623, 1647
9397, 938, 819, 192, 759
9398, 944, 942, 959, 1637
9399, 811, 792, 947, 194
9400, 915, 936, 929, 1624
9401, 907, 219, 930, 898
9402, 851, 872, 849, 1640
9403, 920, 906, 932, 1643
9404, 873, 210, 852, 1642
9405, 805, 21, 22, 481
9406, 974, 965, 985, 1630
9407, 837, 843, 1608, 1627
9408, 921, 930, 219, 898
9409, 22, 1623, 1613, 1625
9410, 916, 917, 914, 1621
9411, 1613, 1623, 1602, 1625
9412, 976, 983, 972, 1632
9413, 820, 828, 827, 1618
9414, 839, 1623, 835, 1647
9415, 857, 870, 479, 133
9416, 948, 939, 943, 1621
9417, 960, 943, 944, 1637
9418, 908, 860, 207, 1628
9419, 767, 766, 768, 1635
9420, 952, 949, 938, 1611
9421, 846, 856, 860, 1648
9422, 777, 798, 795, 1613
9423, 816, 1625, 774, 1645
9424, 982, 971, 973, 1642
9425, 907, 897, 898, 1639
9426, 207, 848, 895, 1628
9427, 945, 957, 949, 1608
9428, 873, 905, 210, 1642
9429, 983, 956, 933, 1632
9430, 939, 914, 232, 233
9431, 185, 784, 869, 820
9432, 805, 796, 21, 481
9433, 845, 1613, 844, 1641
9434, 757, 175, 821, 783
9435, 854, 884, 822, 1644
9436, 864, 821, 844, 1613
9437, 972, 922, 230, 229
9438, 829, 820, 869, 1627
9439, 823, 878, 863, 1636
9440, 18, 22, 881, 1641
9441, 783, 795, 798, 1613
9442, 962, 966, 967, 1633
9443, 849, 822, 874, 1633
9444, 212, 213, 962, 822
9445, 18, 881, 22, 1629
9446, 217, 218, 851, 946
9447, 980, 970, 975, 1643
9448, 955, 981, 872, 1640
9449, 850, 971, 212, 211
9450, 907, 930, 809, 1639
9451, 790, 778, 788, 1634
9452, 868, 957, 215, 843
9453, 205, 923, 206, 786
9454, 193, 947, 792, 194
9455, 789, 201, 202, 897
9456, 763, 791, 764, 1618
9457, 774, 816, 775, 1625
9458, 802, 186, 784, 869
9459, 900, 226, 970, 225
9460, 836, 866, 835, 1647
9461, 794, 816, 774, 1645
9462, 873, 982, 905, 1642
9463, 973, 901, 224, 223
9464, 863, 880, 861, 1619
9465, 861, 832, 830, 1638
9466, 895, 908, 207, 1628
9467, 152, 800, 482, 817
9468, 980, 932, 906, 1643
9469, 916, 231, 948, 232
9470, 233, 234, 941, 925
9471, 797, 799, 21, 481
9472, 756, 820, 184, 827
9473, 132, 882, 870, 482
9474, 840, 866, 885, 1647
9475, 871, 808, 173, 846
9476, 887, 824, 208, 209
9477, 974, 951, 235, 236
9478, 943, 942, 944, 1637
9479, 976, 950, 237, 238
9480, 845, 864, 1613, 1641
9481, 787, 203, 204, 924
9482, 877, 847, 853, 1629
9483, 22, 21, 799, 481
9484, 957, 875, 215, 843
9485, 864, 844, 845, 1613
9486, 220, 221, 915, 888
9487, 186, 802, 868, 869
9488, 787, 789, 809, 1639
9489, 964, 225, 224, 890
9490, 222, 891, 920, 221
9491, 220, 921, 219, 898
9492, 236, 937, 237, 965
9493, 200, 801, 199, 899
9494, 912, 758, 205, 204
9495, 983, 956, 34, 933
9496, 980, 932, 33, 906
9497, 858, 826, 1631, 1641
9498, 814, 785, 782, 1648
9499, 941, 956, 950, 1632
9500, 871, 207, 908, 860
9501, 839, 835, 840, 1647
9502, 809, 30, 930, 907
9503, 31, 873, 982, 905
9504, 930, 921, 924, 1639
9505, 925, 922, 933, 1632
9506, 192, 193, 938, 759
9507, 481, 480, 797, 1631
9508, 872, 32, 981, 955
9509, 966, 849, 213, 214
9510, 957, 28, 802, 868
9511, 209, 896, 852, 210
9512, 905, 901, 896, 1642
9513, 869, 843, 829, 1627
9514, 858, 845, 826, 1641
9515, 886, 827, 828, 1618
9516, 793, 767, 768, 1635
9517, 808, 27, 908, 871
9518, 858, 1631, 479, 1641
9519, 981, 974, 966, 1640
9520, 957, 191, 803, 802
9521, 863, 861, 862, 1619
9522, 958, 811, 29, 931
9523, 479, 18, 857, 133
9524, 879, 867, 839, 1623
9525, 949, 192, 803, 191
9526, 228, 975, 926, 227
9527, 21, 796, 151, 480
9528, 946, 951, 955, 1640
9529, 875, 945, 957, 215
9530, 823, 940, 216, 217
9531, 883, 482, 132, 865
9532, 208, 848, 895, 207
9533, 775, 777, 780, 1625
9534, 850, 873, 852, 1642
9535, 803, 949, 191, 957
9536, 152, 810, 17, 482
9537, 800, 797, 480, 1631
9538, 201, 760, 200, 889
9539, 854, 822, 850, 1644
9540, 891, 900, 906, 1643
9541, 28, 957, 215, 868
9542, 895, 899, 908, 1628
9543, 860, 885, 848, 1628
9544, 882, 17, 810, 482
9545, 774, 769, 773, 1645
9546, 174, 846, 785, 1648
9547, 956, 234, 34, 933
9548, 906, 932, 33, 222
9549, 207, 908, 27, 871
9550, 214, 32, 981, 872
9551, 775, 816, 777, 1625
9552, 877, 857, 847, 1629
9553, 877, 18, 857, 1629
9554, 18, 479, 857, 1629
9555, 174, 785, 757, 1648
9556, 846, 174, 821, 1648
9557, 945, 875, 216, 215
9558, 203, 809, 30, 930
9559, 774, 773, 794, 1645
9560, 479, 858, 865, 1631
9561, 932, 33, 227, 980
9562, 926, 920, 932, 1643
9563, 908, 199, 27, 808
9564, 810, 882, 825, 182
9565, 223, 31, 982, 905
9566, 796, 21, 481, 480
9567, 174, 757, 821, 1648
9568, 231, 958, 29, 931
9569, 34, 983, 933, 230
9570, 34, 238, 956, 983
9571, 226, 980, 33, 906
9572, 873, 211, 31, 982
9573, 32, 872, 218, 955
9574, 228, 963, 229, 913
9575, 821, 856, 846, 1648
9576, 133, 479, 18, 858
9577, 22, 18, 481, 1641
9578, 797, 21, 151, 480
9579, 219, 930, 30, 907
9580, 479, 133, 865, 858
9581, 22, 481, 18, 1629
9582, 151, 796, 810, 480
9583, 811, 206, 29, 931
9584, 814, 757, 785, 1648
9585, 30, 809, 202, 907
9586, 957, 28, 191, 802
9587, 981, 32, 235, 955
9588, 800, 797, 151, 480
9589, 859, 879, 845, 1641
9590, 194, 811, 29, 958
9591, 835, 866, 840, 1647
9592, 797, 800, 762, 1631
9593, 859, 845, 858, 1641
9594, 905, 31, 873, 210
9595, 858, 18, 859, 1641
9596, 870, 479, 132, 482
9597, 480, 152, 800, 482
9598, 481, 479, 1631, 1641
9599, 886, 847, 857, 1629
9600, 817, 482, 17, 883
9601, 152, 151, 810, 480
9602, 21, 797, 481, 480
9603, 800, 482, 817, 1631
9604, 810, 152, 480, 482
9605, 825, 761, 810, 182
9606, 785, 173, 846, 174
9607, 883, 482, 865, 1631
9608, 18, 481, 479, 1629
9609, 177, 817, 883, 1631
9610, 482, 17, 152, 817
9611, 865, 858, 826, 1631
9612, 482, 479, 132, 865
9613, 28, 802, 868, 186
9614, 132, 17, 882, 482
9615, 882, 810, 17, 182
9616, 482, 132, 17, 883
9617, 175, 176, 844, 783
9618, 883, 817, 482, 1631
9619, 184, 183, 763, 827
9620, 186, 784, 869, 185
9621, 183, 761, 825, 182
9622, 175, 821, 174, 757
9623, 184, 185, 820, 756
9624, 826, 177, 762, 176
9625, 817, 177, 762, 1631
9626, 808, 173, 27, 871
9627, 800, 480, 482, 1631
9628, 177, 883, 826, 1631
9629, 17, 177, 817, 883
9630, 870, 132, 479, 133
9631, 479, 865, 482, 1631
9632, 177, 826, 762, 1631
9633, 133, 132, 479, 865
9634, 800, 151, 152, 480
9635, 817, 762, 800, 1631
9636, 865, 826, 883, 1631
9637, 481, 479, 480, 1631
9638, 482, 480, 479, 1631
9639, 1617, 1646, 1634, 1614
9640, 1634, 1646, 1617, 1593
9641, 1636, 1605, 1609, 1596
9642, 1636, 1609, 1605, 1619
9643, 1602, 1646, 1614, 781
9644, 1614, 1646, 1602, 1595
9645, 1638, 1629, 1618, 1604
9646, 1638, 1618, 1629, 831
9647, 825, 882, 482, 870
9648, 482, 882, 825, 810
9649, 482, 479, 825, 870
9650, 1610, 1628, 1617, 911
9651, 1610, 1617, 1628, 1614
9652, 903, 1617, 1628, 911
9653, 903, 1628, 1617, 1614
9654, 1610, 836, 841, 1605
9655, 1610, 841, 836, 855
9656, 1636, 1605, 842, 1619
9657, 1636, 842, 1605, 1620
9658, 939, 1637, 1632, 942
9659, 1632, 1637, 939, 1621
9660, 1639, 897, 1614, 789
9661, 1614, 897, 1639, 1598
9662, 1614, 818, 1639, 789
9663, 1639, 818, 1614, 1598
9664, 1624, 919, 927, 1612
9665, 1624, 927, 919, 929
9666, 480, 825, 482, 479
9667, 480, 482, 825, 810
9668, 1633, 1636, 1620, 874
9669, 1620, 1636, 1633, 1596
9670, 1623, 1629, 881, 853
9671, 881, 1629, 1623, 22
9672, 842, 1605, 841, 838
9673, 841, 1605, 842, 1620
9674, 1628, 824, 866, 848
9675, 1628, 866, 824, 1610
9676, 1639, 1634, 818, 1598
9677, 1639, 818, 1634, 790
9678, 896, 824, 209, 852
9679, 896, 209, 824, 887
9680, 1647, 834, 836, 1605
9681, 1647, 836, 834, 835
9682, 1638, 833, 834, 832
9683, 1638, 834, 833, 1607
9684, 1627, 766, 764, 765
9685, 1627, 764, 766, 1604
9686, 916, 958, 231, 931
9687, 916, 231, 958, 948
9688, 1641, 826, 844, 845
9689, 1641, 844, 826, 1631
9690, 1629, 828, 886, 847
9691, 1629, 886, 828, 1618
9692, 1629, 1645, 805, 1618
9693, 805, 1645, 1629, 22
9694, 966, 872, 214, 981
9695, 214, 872, 966, 849
9696, 826, 783, 1631, 844
9697, 1631, 783, 826, 762
9698, 867, 1641, 879, 859
9699, 879, 1641, 867, 1623
9700, 1641, 864, 1623, 879
9701, 1641, 1623, 864, 1613
9702, 980, 926, 227, 932
9703, 980, 227, 926, 975
9704, 210, 1642, 896, 852
9705, 896, 1642, 210, 905
9706, 1641, 479, 18, 481
9707, 1641, 18, 479, 858
