*Heading
 C:\GmshForms\Gmsh variant 2\ModelExamples\examples\boolean.inp
*NODE
1, -1.4, 0, 1.05
2, -1.4, 2.4002284534919e-16, 0.98
3, 1.05, -2.571673343027e-16, 1.4
4, 1.4, -3.4288977907027e-16, 1.05
5, 1.4, -3.4288977907027e-16, -1.05
6, 1.05, -2.571673343027e-16, -1.4
7, 0, 1.4, 1.05
8, 0, -1.4, 1.05
9, -0.98, 2.4002284534919e-16, 0.98
10, -0.69296464556281, -0.69296464556281, 0.69296464556282
11, -0.69296464556282, -0.69296464556282, -0.69296464556281
12, -0.69296464556281, 0.69296464556282, -0.69296464556282
13, -0.69296464556281, 0.69296464556281, 0.69296464556282
14, 0.98, -2.4002284534919e-16, 1.4
15, 1.4, 2.4002284534919e-16, 0.98
16, 0.98, -2.4002284534919e-16, -1.4
17, -2.4002284534919e-16, 1.4, 0.98
18, -2.4002284534919e-16, -1.4, 0.98
19, 0.98, 0, 0.98
20, 0.69296464556282, -0.69296464556282, 0.69296464556282
21, -2.4002284534919e-16, -0.98, 0.98
22, -2.4002284534919e-16, 0.98, 0.98
23, 0.69296464556282, 0.69296464556282, 0.69296464556282
24, 0.98, -0.98, 1.2001142267459e-16
25, 0.69296464556282, -0.69296464556281, -0.69296464556281
26, 0.98, -2.4002284534919e-16, -0.98
27, 0.69296464556282, 0.69296464556282, -0.69296464556282
28, 1.2001142267459e-16, 0.98, -0.98
29, 0.98, 0.98, -1.2001142267459e-16
30, -1.4, -0.37930374949651, 0.97909584087457
31, -1.4, -0.70738042582888, 0.77595936308169
32, -1.4, -0.93992145592282, 0.46802527356537
33, -1.4, -1.0455208851098, 0.096881777436468
34, -1.4, -1.0099169253315, -0.28734613957569
35, -1.4, -0.83791808864425, -0.63276636819822
36, -1.4, -0.55275377102123, -0.89272799251609
37, -1.4, -0.1929369937074, -1.0321217546681
38, -1.4, 0.1929369937074, -1.0321217546681
39, -1.4, 0.55275377102122, -0.8927279925161
40, -1.4, 0.83791808864425, -0.63276636819822
41, -1.4, 1.0099169253315, -0.28734613957569
42, -1.4, 1.0455208851098, 0.096881777436465
43, -1.4, 0.93992145592282, 0.46802527356536
44, -1.4, 0.70738042582889, 0.77595936308169
45, -1.4, 0.37930374949651, 0.97909584087457
46, -1.4, -0.37502976371779, 0.90540194186106
47, -1.4, -0.69296464556282, 0.69296464556282
48, -1.4, -0.90540194186106, 0.37502976371779
49, -1.4, -0.98, 3.3240614037353e-15
50, -1.4, -0.90540194186106, -0.37502976371778
51, -1.4, -0.69296464556282, -0.69296464556281
52, -1.4, -0.37502976371779, -0.90540194186106
53, -1.4, -7.0833302331236e-15, -0.98
54, -1.4, 0.37502976371778, -0.90540194186106
55, -1.4, 0.69296464556281, -0.69296464556282
56, -1.4, 0.90540194186106, -0.37502976371779
57, -1.4, 0.98, -3.6616765392364e-15
58, -1.4, 0.90540194186106, 0.37502976371778
59, -1.4, 0.69296464556282, 0.69296464556282
60, -1.4, 0.37502976371779, 0.90540194186106
61, 0.97909584087457, 0.37930374949651, 1.4
62, 0.77595936308169, 0.70738042582888, 1.4
63, 0.46802527356537, 0.93992145592282, 1.4
64, 0.096881777436468, 1.0455208851098, 1.4
65, -0.28734613957569, 1.0099169253315, 1.4
66, -0.63276636819822, 0.83791808864425, 1.4
67, -0.89272799251609, 0.55275377102123, 1.4
68, -1.0321217546681, 0.1929369937074, 1.4
69, -1.0321217546681, -0.1929369937074, 1.4
70, -0.8927279925161, -0.55275377102122, 1.4
71, -0.63276636819822, -0.83791808864425, 1.4
72, -0.28734613957569, -1.0099169253315, 1.4
73, 0.096881777436465, -1.0455208851098, 1.4
74, 0.46802527356536, -0.93992145592282, 1.4
75, 0.77595936308169, -0.70738042582889, 1.4
76, 0.97909584087457, -0.37930374949651, 1.4
77, 1.2374368670765, -3.0307460997518e-16, 1.2374368670765
78, 1.4, -0.35912115049195, 0.9866772518252
79, 1.4, -0.67492699017087, 0.80434666527493
80, 1.4, -0.90932667397366, 0.525
81, 1.4, -1.0340481406628, 0.18233058655028
82, 1.4, -1.0340481406628, -0.18233058655027
83, 1.4, -0.90932667397366, -0.525
84, 1.4, -0.67492699017087, -0.80434666527493
85, 1.4, -0.35912115049195, -0.9866772518252
86, 1.2374368670765, -3.0307460997518e-16, -1.2374368670765
87, 0.97909584087457, 0.37930374949651, -1.4
88, 0.77595936308169, 0.70738042582888, -1.4
89, 0.46802527356537, 0.93992145592282, -1.4
90, 0.096881777436468, 1.0455208851098, -1.4
91, -0.28734613957569, 1.0099169253315, -1.4
92, -0.63276636819822, 0.83791808864425, -1.4
93, -0.89272799251609, 0.55275377102123, -1.4
94, -1.0321217546681, 0.1929369937074, -1.4
95, -1.0321217546681, -0.1929369937074, -1.4
96, -0.8927279925161, -0.55275377102122, -1.4
97, -0.63276636819822, -0.83791808864425, -1.4
98, -0.28734613957569, -1.0099169253315, -1.4
99, 0.096881777436465, -1.0455208851098, -1.4
100, 0.46802527356536, -0.93992145592282, -1.4
101, 0.77595936308169, -0.70738042582889, -1.4
102, 0.97909584087457, -0.37930374949651, -1.4
103, 1.4, 0.35912115049195, -0.9866772518252
104, 1.4, 0.67492699017087, -0.80434666527493
105, 1.4, 0.90932667397366, -0.525
106, 1.4, 1.0340481406628, -0.18233058655028
107, 1.4, 1.0340481406628, 0.18233058655028
108, 1.4, 0.90932667397366, 0.525
109, 1.4, 0.67492699017087, 0.80434666527493
110, 1.4, 0.35912115049195, 0.9866772518252
111, 0.37930374949651, 1.4, 0.97909584087457
112, 0.70738042582888, 1.4, 0.77595936308169
113, 0.93992145592282, 1.4, 0.46802527356537
114, 1.0455208851098, 1.4, 0.096881777436468
115, 1.0099169253315, 1.4, -0.28734613957569
116, 0.83791808864425, 1.4, -0.63276636819822
117, 0.55275377102123, 1.4, -0.89272799251609
118, 0.1929369937074, 1.4, -1.0321217546681
119, -0.1929369937074, 1.4, -1.0321217546681
120, -0.55275377102122, 1.4, -0.8927279925161
121, -0.83791808864425, 1.4, -0.63276636819822
122, -1.0099169253315, 1.4, -0.28734613957569
123, -1.0455208851098, 1.4, 0.096881777436465
124, -0.93992145592282, 1.4, 0.46802527356536
125, -0.70738042582889, 1.4, 0.77595936308169
126, -0.37930374949651, 1.4, 0.97909584087457
127, 0.37930374949651, -1.4, 0.97909584087457
128, 0.70738042582888, -1.4, 0.77595936308169
129, 0.93992145592282, -1.4, 0.46802527356537
130, 1.0455208851098, -1.4, 0.096881777436468
131, 1.0099169253315, -1.4, -0.28734613957569
132, 0.83791808864425, -1.4, -0.63276636819822
133, 0.55275377102123, -1.4, -0.89272799251609
134, 0.1929369937074, -1.4, -1.0321217546681
135, -0.1929369937074, -1.4, -1.0321217546681
136, -0.55275377102122, -1.4, -0.8927279925161
137, -0.83791808864425, -1.4, -0.63276636819822
138, -1.0099169253315, -1.4, -0.28734613957569
139, -1.0455208851098, -1.4, 0.096881777436465
140, -0.93992145592282, -1.4, 0.46802527356536
141, -0.70738042582889, -1.4, 0.77595936308169
142, -0.37930374949651, -1.4, 0.97909584087457
143, -1.19, 2.4002284534919e-16, 0.98
144, -0.94171946012509, -0.27122768741724, 0.94171946012509
145, -0.8386852761562, -0.50695858564462, 0.8386852761562
146, -0.86339035570786, -0.86339035570786, 0.46363465538142
147, -0.96594001625155, -0.96594001625155, 0.16540823741265
148, -0.96594001625155, -0.96594001625155, -0.16540823741264
149, -0.86339035570787, -0.86339035570787, -0.46363465538141
150, -0.86339035570787, -0.46363465538141, -0.86339035570787
151, -0.96594001625155, -0.16540823741264, -0.96594001625155
152, -0.96594001625155, 0.16540823741265, -0.96594001625155
153, -0.86339035570786, 0.46363465538142, -0.86339035570786
154, -0.86339035570787, 0.86339035570787, -0.46363465538141
155, -0.96594001625155, 0.96594001625155, -0.16540823741264
156, -0.96594001625155, 0.96594001625155, 0.16540823741265
157, -0.86339035570786, 0.86339035570786, 0.46363465538142
158, -0.8386852761562, 0.50695858564463, 0.8386852761562
159, -0.94171946012509, 0.27122768741724, 0.94171946012509
160, 0.90540194186106, 0.37502976371779, 1.4
161, 0.69296464556282, 0.69296464556282, 1.4
162, 0.37502976371779, 0.90540194186106, 1.4
163, 3.3240614037353e-15, 0.98, 1.4
164, -0.37502976371778, 0.90540194186106, 1.4
165, -0.69296464556281, 0.69296464556282, 1.4
166, -0.90540194186106, 0.37502976371779, 1.4
167, -0.98, 7.0833302331236e-15, 1.4
168, -0.90540194186106, -0.37502976371778, 1.4
169, -0.69296464556282, -0.69296464556281, 1.4
170, -0.37502976371779, -0.90540194186106, 1.4
171, -3.6616765392364e-15, -0.98, 1.4
172, 0.37502976371778, -0.90540194186106, 1.4
173, 0.69296464556282, -0.69296464556282, 1.4
174, 0.90540194186106, -0.37502976371779, 1.4
175, 1.4, -0.37502976371779, 0.90540194186106
176, 1.4, -0.69296464556282, 0.69296464556282
177, 1.4, -0.90540194186106, 0.37502976371779
178, 1.4, -0.98, 3.3240614037353e-15
179, 1.4, -0.90540194186106, -0.37502976371778
180, 1.4, -0.69296464556282, -0.69296464556281
181, 1.4, -0.37502976371779, -0.90540194186106
182, 1.4, -7.0833302331236e-15, -0.98
183, 1.4, 0.37502976371778, -0.90540194186106
184, 1.4, 0.69296464556281, -0.69296464556282
185, 1.4, 0.90540194186106, -0.37502976371779
186, 1.4, 0.98, -3.6616765392364e-15
187, 1.4, 0.90540194186106, 0.37502976371778
188, 1.4, 0.69296464556282, 0.69296464556282
189, 1.4, 0.37502976371779, 0.90540194186106
190, 0.90540194186106, 0.37502976371779, -1.4
191, 0.69296464556282, 0.69296464556282, -1.4
192, 0.37502976371779, 0.90540194186106, -1.4
193, 3.3240614037353e-15, 0.98, -1.4
194, -0.37502976371778, 0.90540194186106, -1.4
195, -0.69296464556281, 0.69296464556282, -1.4
196, -0.90540194186106, 0.37502976371779, -1.4
197, -0.98, 7.0833302331236e-15, -1.4
198, -0.90540194186106, -0.37502976371778, -1.4
199, -0.69296464556282, -0.69296464556281, -1.4
200, -0.37502976371779, -0.90540194186106, -1.4
201, -3.6616765392364e-15, -0.98, -1.4
202, 0.37502976371778, -0.90540194186106, -1.4
203, 0.69296464556282, -0.69296464556282, -1.4
204, 0.90540194186106, -0.37502976371779, -1.4
205, 0.37502976371779, 1.4, 0.90540194186106
206, 0.69296464556282, 1.4, 0.69296464556282
207, 0.90540194186106, 1.4, 0.37502976371779
208, 0.98, 1.4, 3.3240614037353e-15
209, 0.90540194186106, 1.4, -0.37502976371778
210, 0.69296464556282, 1.4, -0.69296464556281
211, 0.37502976371779, 1.4, -0.90540194186106
212, 7.0833302331236e-15, 1.4, -0.98
213, -0.37502976371778, 1.4, -0.90540194186106
214, -0.69296464556281, 1.4, -0.69296464556282
215, -0.90540194186106, 1.4, -0.37502976371779
216, -0.98, 1.4, -3.6616765392364e-15
217, -0.90540194186106, 1.4, 0.37502976371778
218, -0.69296464556282, 1.4, 0.69296464556282
219, -0.37502976371779, 1.4, 0.90540194186106
220, 0.37502976371779, -1.4, 0.90540194186106
221, 0.69296464556282, -1.4, 0.69296464556282
222, 0.90540194186106, -1.4, 0.37502976371779
223, 0.98, -1.4, 3.3240614037353e-15
224, 0.90540194186106, -1.4, -0.37502976371778
225, 0.69296464556282, -1.4, -0.69296464556281
226, 0.37502976371779, -1.4, -0.90540194186106
227, 7.0833302331236e-15, -1.4, -0.98
228, -0.37502976371778, -1.4, -0.90540194186106
229, -0.69296464556281, -1.4, -0.69296464556282
230, -0.90540194186106, -1.4, -0.37502976371779
231, -0.98, -1.4, -3.6616765392364e-15
232, -0.90540194186106, -1.4, 0.37502976371778
233, -0.69296464556282, -1.4, 0.69296464556282
234, -0.37502976371779, -1.4, 0.90540194186106
235, 0.94171946012509, -0.27122768741724, 0.94171946012509
236, 0.8386852761562, -0.50695858564463, 0.8386852761562
237, 0.27122768741724, -0.94171946012509, 0.94171946012509
238, 0.50695858564463, -0.8386852761562, 0.8386852761562
239, -0.50695858564463, -0.8386852761562, 0.8386852761562
240, -0.27122768741724, -0.94171946012509, 0.94171946012509
241, -0.50695858564463, 0.8386852761562, 0.8386852761562
242, -0.27122768741724, 0.94171946012509, 0.94171946012509
243, 0.27122768741724, 0.94171946012509, 0.94171946012509
244, 0.50695858564463, 0.8386852761562, 0.8386852761562
245, 0.8386852761562, 0.50695858564463, 0.8386852761562
246, 0.94171946012509, 0.27122768741724, 0.94171946012509
247, 0.98, -2.4002284534919e-16, 1.19
248, -2.4002284534919e-16, -1.19, 0.98
249, 0.8386852761562, -0.8386852761562, 0.50695858564463
250, 0.94171946012509, -0.94171946012509, 0.27122768741724
251, 0.94171946012509, -0.94171946012509, -0.27122768741724
252, 0.8386852761562, -0.8386852761562, -0.50695858564462
253, 0.46363465538142, -0.86339035570786, -0.86339035570786
254, 0.16540823741265, -0.96594001625155, -0.96594001625155
255, -0.16540823741265, -0.96594001625155, -0.96594001625155
256, -0.46363465538142, -0.86339035570786, -0.86339035570786
257, 0.98, -2.4002284534919e-16, -1.19
258, 0.94171946012509, 0.27122768741724, -0.94171946012509
259, 0.8386852761562, 0.50695858564463, -0.8386852761562
260, 0.50695858564463, 0.8386852761562, -0.8386852761562
261, 0.27122768741724, 0.94171946012509, -0.94171946012509
262, -0.27122768741724, 0.94171946012509, -0.94171946012509
263, -0.50695858564462, 0.8386852761562, -0.8386852761562
264, 0.8386852761562, -0.50695858564463, -0.8386852761562
265, 0.94171946012509, -0.27122768741724, -0.94171946012509
266, 0.8386852761562, 0.8386852761562, -0.50695858564463
267, 0.94171946012509, 0.94171946012509, -0.27122768741724
268, 0.94171946012509, 0.94171946012509, 0.27122768741724
269, 0.8386852761562, 0.8386852761562, 0.50695858564463
270, -2.4002284534919e-16, 1.19, 0.98
271, 1.19, 2.4002284534919e-16, 0.98
272, -0.95173325362312, 0.86761949949248, -1.1848798327461
273, -1.2332187789133, -0.78757837616476, -0.95989152758699
274, 0.88007455676506, 1.196908781104, -0.92486655483423
275, 0.87875946957769, -1.1986474029694, -0.92386481585908
276, 1.2134732758235, -0.97513288152638, 0.79943634657688
277, 1.2134732782648, 0.97513288287883, 0.79943634122149
278, -0.95004903991698, 0.88291347452749, 1.1748917474604
279, -0.94908283671034, -0.88126934224304, 1.1769053128797
280, -1.2242729288973, -1.0399827722092, 0.69432818542616
281, -1.2260748744738, 1.0387176348081, 0.69304118010605
282, 0.80201116486245, 0.93427246948267, 1.2435485692978
283, 0.79986244565735, -0.9389820429424, 1.241383418231
284, 1.2139355315005, -0.70924720389224, 1.0420311555475
285, 1.2148783960892, 0.70413542665715, 1.0443963728595
286, 1.0949528510662, -0.67796610231907, -1.1848798327461
287, 1.0807901993599, 0.6304318789427, -1.223498341225
288, -0.82617897935041, -1.2113722919048, -0.95525151896488
289, -0.6198094309468, -1.1872052552168, 1.1264457160889
290, -0.61990196632394, 1.1873950872427, 1.1261946807456
291, -1.1891483439071, 1.1616279306509, -0.5468516863965
292, -1.1824393736259, -1.1906689728922, -0.49663318927677
293, 1.21381285329, -0.91092402103359, -0.87142170336292
294, 1.2270656557967, 0.94644291481275, -0.81305331028471
295, -0.94474712379602, 1.1662105792717, -0.89994764118467
296, -0.66024738652009, 1.1248060974339, -1.1667838839172
297, -0.5362906218266, -1.189675678963, -1.1660034939162
298, -1.1700262993653, 0.45327060317441, -1.2198705747298
299, -1.1848798327461, -0.4652253826619, -1.2008851424173
300, 1.1714220844076, 1.2003263318276, -0.49948673384135
301, 1.1715776717911, -1.1964819715494, -0.5082682861618
302, 1.1963028145979, -1.1859003487404, 0.47434158434884
303, 1.1963028085141, 1.1859003561599, 0.47434158114291
304, -1.1619463111985, 0.53074440099987, 1.1961150240255
305, -1.1606037851426, -0.52882067025918, 1.1982685644793
306, -1.2143409517773, 0.86356633178705, -0.9176760013428
307, -0.95759927399661, -0.90208784678421, -1.1540108955835
308, 0.44808238348271, 1.2262568283404, -1.165339593664
309, 0.50565865865332, -1.2185133308123, -1.1497976272204
310, -1.2091343876789, -1.2168117119392, 0.34621278171117
311, -1.2168117338512, 1.2091343638426, 0.34621278794567
312, 0.74841378449623, 0.99106001731059, -1.2329545203552
313, 0.7484137844962, -0.99106001731056, -1.2329545203553
314, -0.93207186617402, 1.1634529188758, 0.91658024299364
315, -0.93173106737601, -1.163408263682, 0.91698333140952
316, 0.97953761635726, -1.2290206820523, 0.76974945354249
317, 0.97953761570843, 1.2290206834712, 0.76974945210252
318, 0.33613732693511, 1.2207411611033, 1.2080160243263
319, 0.33613732693404, -1.2207411611035, 1.2080160243264
320, -1.2347525193187, 1.2347525193187, -0.1152060418225
321, -1.2348789213394, -1.2355175054338, -0.10521664981547
322, -1.2368774086975, -0.00074794370228649, -1.2379958466949
323, 1.1386383443325, 0.20590921932287, 1.3128610414715
324, 1.284147804757, -0.20523538454133, -1.1710434887185
325, 1.1517571411438, -0.20487248958707, -1.301530925808
326, 1.2928017027209, 0.20678634843155, -1.1612076315389
327, 1.1714872030055, 0.2127634642702, -1.2825168386677
328, 1.2923026912976, 0.20924971070436, 1.1613217954706
329, 1.1933254838668, 0.42421135033419, 1.207691607904
330, 1.2926187007738, -0.21045753592209, 1.1607517047083
331, 1.1617109525146, -0.2127591724853, 1.2913795713619
332, 1.1970156361901, -0.43135348428497, 1.2014939609967
333, -0.22706337671838, -1.2391490621043, 1.2146817792489
334, -0.22706337671838, 1.2391490621043, 1.2146817792489
335, 1.0201716241208, 0.91205541796655, -1.0908275628607
336, 0.99559267139402, -0.94473496048097, -1.0857122487619
337, 1.2240421333142, 1.2437409345183, -0.13164096503409
338, 1.2242701999404, -1.2433770872155, -0.13295072969089
339, 0.68822454753929, 1.2012074996319, 1.0704893810741
340, 0.68778676254865, -1.2017028303488, 1.070214780684
341, -1.2733940176164, 0.19883648455132, 1.1838208176536
342, -1.2583557924331, -0.15695964799033, 1.20598688573
343, -0.3715307133733, 1.2319154176067, -1.1861067965758
344, -0.12367015951578, -1.2241189374206, -1.2444832335928
345, 1.2214012573837, -0.41517929423766, -1.1824995230857
346, -0.017687811111525, 1.2672091550678, -1.2068007700737
347, -1.201438559742, 0.81280260374445, 0.97897768846452
348, -1.198544507371, -0.80440485221978, 0.9894058305751
349, 1.2176156470135, 0.41690817308292, -1.1857907536174
350, 1.2551910508603, 0.66777374594151, -1.0203301671868
351, 1.015912475619, -0.97772605907814, 1.0365681816848
352, 1.0188268254596, 0.97180745689755, 1.0392700161374
353, -1.0289601435633, -1.2426022044838, 0.67799762858735
354, -1.0338069777219, 1.2364125031001, 0.68192906888554
355, 1.0281177571384, -0.69524253317119, 1.2337389097886
356, 1.02310508961, 0.66118877628276, 1.2564176764642
357, 1.2901523909197, -0.60985034456321, -1.0129606929394
358, -1.1007789347802, -1.0865565718852, -0.81864555995699
359, -1.0092427531055, 0.69632895078425, 0.68958392694415
360, -1.0098764634073, -0.69421318740886, 0.6917138501054
361, -1.0189381683039, -0.69266020947266, -0.69326894796557
362, -1.0189381683039, 0.6932689479656, -0.69266020947263
363, -1.1127278665059, -0.46248797544078, 0.86400513457542
364, -1.1125635363168, 0.46290246284484, 0.86378313823099
365, -1.127935700981, -0.84809991077212, 0.49104637392849
366, -1.1278222018738, 0.84845138380143, 0.49043883341904
367, -1.1297627484318, 0.49130772667227, -0.84794853482516
368, -1.1297627484318, -0.84794853482518, -0.49130772667223
369, -1.1297634873186, 0.84803793992281, -0.49115338994196
370, -1.1297634873186, -0.49115338994199, -0.84803793992279
371, -1.1712065859336, 0.18879318741322, 0.96164293393461
372, -1.1712308170714, -0.1887182383735, 0.96165764516547
373, -1.1703262936493, 1.1856108542846e-15, -0.98
374, -1.1703262936493, -0.98, 1.0069776501358e-14
375, -1.1703262936493, 0.98, 1.5608125686004e-15
376, -0.46957759621415, 0.86017258799251, 1.1192120312092
377, -0.69256650083483, 0.69336256166698, 1.0004095679084
378, -0.86017258799256, -0.46957759621406, 1.1192120312092
379, -0.69336256166696, -0.69256650083485, 1.0004095679084
380, 0.86408192206196, 0.46234449490148, 1.1131872838278
381, 0.69431124195239, 0.69161542731386, 0.99940612143084
382, 0.4695775962139, -0.86017258799265, 1.1192120312091
383, 0.69256650083477, -0.69336256166705, 1.0004095679084
384, 0.86410184117404, -0.46230726587371, 1.111094076925
385, 0.46964362219594, 0.86013654039965, 1.1184099016285
386, -0.46838819550708, -0.86082082822712, 1.1207627004908
387, -0.86082082822712, 0.46838819550708, 1.1207627004908
388, -0.96641067305297, -0.1626358232657, 1.1715715232471
389, -0.16263582326571, 0.96641067305296, 1.1715715232472
390, 0.16263582326564, -0.96641067305298, 1.1715715232471
391, 0.16362639517151, 0.96624344903506, 1.1684255285762
392, -0.16339057740206, -0.9662833534819, 1.1688150314096
393, -0.9662833534819, 0.16339057740205, 1.1688150314096
394, 0.96166277697909, 0.18869208614265, 1.1713066668133
395, 0.96781399567623, -0.15406514782134, 1.084637804188
396, 0.69171385010545, -1.0098764634072, -0.6942131874088
397, -0.69632895078417, -1.0092427531056, 0.68958392694422
398, -0.69326894796563, -1.0189381683039, -0.6926602094726
399, 0.86014418032048, -1.119044528118, -0.46962962966662
400, 0.46234449490151, -1.1131872838278, 0.86408192206195
401, 0.69161542731386, -0.9994061214308, 0.69431124195238
402, 0.86013654039965, -1.1184099016285, 0.46964362219595
403, -0.46290246284483, -1.1125635363168, 0.863783138231
404, 0.96640901160346, -1.1715437888069, -0.16264569558284
405, 0.96624372681786, -1.168420946032, 0.16362475480544
406, 0.49104637392852, -1.127935700981, -0.8480999107721
407, -0.84845138380139, -1.1278222018739, 0.49043883341911
408, -0.49130772667227, -1.1297627484318, -0.84794853482515
409, -0.84803793992281, -1.1297634873185, -0.49115338994195
410, 0.18869208614266, -1.1713066668133, 0.96166277697909
411, -0.18879318741322, -1.1712065859336, 0.96164293393461
412, -0.98, -1.1703262936493, 5.0424719738248e-15
413, 1.8608411252868e-15, -1.1703262936493, -0.98
414, -0.69421318740882, 0.69171385010544, -1.0098764634072
415, 0.68958392694422, -0.69632895078418, -1.0092427531056
416, -0.69266020947255, -0.69326894796568, -1.018938168304
417, -0.46962962966662, 0.86014418032048, -1.119044528118
418, 0.86408192206195, 0.4623444949015, -1.1131872838278
419, 0.69431124195239, 0.69161542731386, -0.99940612143077
420, 0.86378313823099, -0.46290246284485, -1.1125635363168
421, 0.46964362219595, 0.86013654039965, -1.1184099016285
422, -0.16264569558284, 0.96640901160346, -1.1715437888069
423, 0.16362475480544, 0.96624372681786, -1.168420946032
424, -0.84809991077212, 0.4910463739285, -1.1279357009809
425, 0.49043883341911, -0.8484513838014, -1.1278222018739
426, -0.84794853482516, -0.49130772667226, -1.129762748432
427, -0.49115338994195, -0.84803793992282, -1.1297634873185
428, 0.96166277697909, 0.18869208614265, -1.1713066668133
429, 0.9616429339346, -0.18879318741324, -1.1712065859336
430, -0.98, 6.2129153818175e-15, -1.1703262936493
431, -1.9208468366241e-15, -0.98, -1.1703262936493
432, -0.69421318740882, 1.0098764634072, -0.69171385010544
433, -0.69632895078426, 1.0092427531054, 0.68958392694414
434, 0.86017258799251, 1.1192120312092, -0.46957759621416
435, 0.69336256166698, 1.0004095679083, -0.69256650083483
436, -0.46962962966652, 1.119044528118, -0.86014418032054
437, 0.46232192057714, 1.1131274747141, 0.86409400053112
438, 0.69161251511335, 0.99939618040322, 0.69431414283348
439, 0.86013641865497, 1.1184092993338, 0.46964384516717
440, -0.46290246284487, 1.1125635363168, 0.86378313823098
441, 0.46838819550708, 1.1207627004908, -0.86082082822712
442, -0.16264569558283, 1.1715437888069, -0.96640901160346
443, 0.96641067305296, 1.1715715232472, -0.16263582326571
444, 0.9662434418975, 1.168425428857, 0.16362643732009
445, 0.16338893696139, 1.1688104488157, -0.96628363086551
446, -0.84809991077212, 1.1279357009809, -0.49104637392849
447, -0.84845138380143, 1.1278222018737, 0.49043883341904
448, 0.18868673565146, 1.1712996878957, 0.96166382680706
449, -0.15406514782133, 1.084637804188, 0.96781399567623
450, -0.98, 1.1703262936493, 1.5608125686004e-15
451, 1.1192120312092, -0.86017258799251, -0.46957759621415
452, 1.0004095679084, -0.69336256166698, -0.69256650083484
453, 1.1192120312092, 0.46957759621406, -0.86017258799256
454, 1.0004095679084, 0.69256650083485, -0.69336256166696
455, 1.1192120312091, 0.86017258799264, 0.46957759621391
456, 1.0004095679084, 0.69336256166709, 0.69256650083472
457, 1.1131274747141, -0.46232192057714, 0.86409400053111
458, 0.99939618040321, -0.69161251511334, 0.69431414283349
459, 1.111094076925, 0.46230726587378, 0.86410184117401
460, 1.1184092993338, -0.86013641865497, 0.46964384516718
461, 1.1207627004908, 0.86082082822712, -0.46838819550708
462, 1.1207627004908, -0.46838819550708, -0.86082082822712
463, 1.1715715232471, 0.16263582326569, -0.96641067305297
464, 1.1715715232471, -0.96641067305297, -0.1626358232657
465, 1.1715715232471, 0.96641067305297, 0.16263582326566
466, 1.168425428857, -0.9662434418975, 0.16362643732009
467, 1.1688150314096, 0.9662833534819, -0.16339057740204
468, 1.1688150314096, -0.16339057740205, -0.9662833534819
469, 1.1712996878957, -0.18868673565146, 0.96166382680706
470, 1.1709639681568, 0.1886830760051, 0.961664544854
******* E L E M E N T S *************
*ELEMENT, type=T3D2, ELSET=Line1
30, 1, 30
31, 30, 31
32, 31, 32
33, 32, 33
34, 33, 34
35, 34, 35
36, 35, 36
37, 36, 37
38, 37, 38
39, 38, 39
40, 39, 40
41, 40, 41
42, 41, 42
43, 42, 43
44, 43, 44
45, 44, 45
46, 45, 1
*ELEMENT, type=T3D2, ELSET=Line2
47, 2, 46
48, 46, 47
49, 47, 48
50, 48, 49
51, 49, 50
52, 50, 51
53, 51, 52
54, 52, 53
55, 53, 54
56, 54, 55
57, 55, 56
58, 56, 57
59, 57, 58
60, 58, 59
61, 59, 60
62, 60, 2
*ELEMENT, type=T3D2, ELSET=Line3
63, 3, 61
64, 61, 62
65, 62, 63
66, 63, 64
67, 64, 65
68, 65, 66
69, 66, 67
70, 67, 68
71, 68, 69
72, 69, 70
73, 70, 71
74, 71, 72
75, 72, 73
76, 73, 74
77, 74, 75
78, 75, 76
79, 76, 3
*ELEMENT, type=T3D2, ELSET=Line4
80, 4, 77
81, 77, 3
*ELEMENT, type=T3D2, ELSET=Line5
82, 4, 78
83, 78, 79
84, 79, 80
85, 80, 81
86, 81, 82
87, 82, 83
88, 83, 84
89, 84, 85
90, 85, 5
*ELEMENT, type=T3D2, ELSET=Line6
91, 6, 86
92, 86, 5
*ELEMENT, type=T3D2, ELSET=Line7
93, 6, 87
94, 87, 88
95, 88, 89
96, 89, 90
97, 90, 91
98, 91, 92
99, 92, 93
100, 93, 94
101, 94, 95
102, 95, 96
103, 96, 97
104, 97, 98
105, 98, 99
106, 99, 100
107, 100, 101
108, 101, 102
109, 102, 6
*ELEMENT, type=T3D2, ELSET=Line8
110, 5, 103
111, 103, 104
112, 104, 105
113, 105, 106
114, 106, 107
115, 107, 108
116, 108, 109
117, 109, 110
118, 110, 4
*ELEMENT, type=T3D2, ELSET=Line9
119, 7, 111
120, 111, 112
121, 112, 113
122, 113, 114
123, 114, 115
124, 115, 116
125, 116, 117
126, 117, 118
127, 118, 119
128, 119, 120
129, 120, 121
130, 121, 122
131, 122, 123
132, 123, 124
133, 124, 125
134, 125, 126
135, 126, 7
*ELEMENT, type=T3D2, ELSET=Line10
136, 8, 127
137, 127, 128
138, 128, 129
139, 129, 130
140, 130, 131
141, 131, 132
142, 132, 133
143, 133, 134
144, 134, 135
145, 135, 136
146, 136, 137
147, 137, 138
148, 138, 139
149, 139, 140
150, 140, 141
151, 141, 142
152, 142, 8
*ELEMENT, type=T3D2, ELSET=Line11
153, 2, 143
154, 143, 9
*ELEMENT, type=T3D2, ELSET=Line12
155, 9, 144
156, 144, 145
157, 145, 10
*ELEMENT, type=T3D2, ELSET=Line13
158, 10, 146
159, 146, 147
160, 147, 148
161, 148, 149
162, 149, 11
*ELEMENT, type=T3D2, ELSET=Line14
163, 11, 150
164, 150, 151
165, 151, 152
166, 152, 153
167, 153, 12
*ELEMENT, type=T3D2, ELSET=Line15
168, 12, 154
169, 154, 155
170, 155, 156
171, 156, 157
172, 157, 13
*ELEMENT, type=T3D2, ELSET=Line16
173, 13, 158
174, 158, 159
175, 159, 9
*ELEMENT, type=T3D2, ELSET=Line17
176, 14, 160
177, 160, 161
178, 161, 162
179, 162, 163
180, 163, 164
181, 164, 165
182, 165, 166
183, 166, 167
184, 167, 168
185, 168, 169
186, 169, 170
187, 170, 171
188, 171, 172
189, 172, 173
190, 173, 174
191, 174, 14
*ELEMENT, type=T3D2, ELSET=Line18
192, 15, 175
193, 175, 176
194, 176, 177
195, 177, 178
196, 178, 179
197, 179, 180
198, 180, 181
199, 181, 182
200, 182, 183
201, 183, 184
202, 184, 185
203, 185, 186
204, 186, 187
205, 187, 188
206, 188, 189
207, 189, 15
*ELEMENT, type=T3D2, ELSET=Line19
208, 16, 190
209, 190, 191
210, 191, 192
211, 192, 193
212, 193, 194
213, 194, 195
214, 195, 196
215, 196, 197
216, 197, 198
217, 198, 199
218, 199, 200
219, 200, 201
220, 201, 202
221, 202, 203
222, 203, 204
223, 204, 16
*ELEMENT, type=T3D2, ELSET=Line20
224, 17, 205
225, 205, 206
226, 206, 207
227, 207, 208
228, 208, 209
229, 209, 210
230, 210, 211
231, 211, 212
232, 212, 213
233, 213, 214
234, 214, 215
235, 215, 216
236, 216, 217
237, 217, 218
238, 218, 219
239, 219, 17
*ELEMENT, type=T3D2, ELSET=Line21
240, 18, 220
241, 220, 221
242, 221, 222
243, 222, 223
244, 223, 224
245, 224, 225
246, 225, 226
247, 226, 227
248, 227, 228
249, 228, 229
250, 229, 230
251, 230, 231
252, 231, 232
253, 232, 233
254, 233, 234
255, 234, 18
*ELEMENT, type=T3D2, ELSET=Line22
256, 19, 235
257, 235, 236
258, 236, 20
*ELEMENT, type=T3D2, ELSET=Line23
259, 21, 237
260, 237, 238
261, 238, 20
*ELEMENT, type=T3D2, ELSET=Line24
262, 10, 239
263, 239, 240
264, 240, 21
*ELEMENT, type=T3D2, ELSET=Line25
265, 13, 241
266, 241, 242
267, 242, 22
*ELEMENT, type=T3D2, ELSET=Line26
268, 22, 243
269, 243, 244
270, 244, 23
*ELEMENT, type=T3D2, ELSET=Line27
271, 23, 245
272, 245, 246
273, 246, 19
*ELEMENT, type=T3D2, ELSET=Line28
274, 19, 247
275, 247, 14
*ELEMENT, type=T3D2, ELSET=Line29
276, 18, 248
277, 248, 21
*ELEMENT, type=T3D2, ELSET=Line30
278, 20, 249
279, 249, 250
280, 250, 24
*ELEMENT, type=T3D2, ELSET=Line31
281, 24, 251
282, 251, 252
283, 252, 25
*ELEMENT, type=T3D2, ELSET=Line32
284, 25, 253
285, 253, 254
286, 254, 255
287, 255, 256
288, 256, 11
*ELEMENT, type=T3D2, ELSET=Line33
289, 16, 257
290, 257, 26
*ELEMENT, type=T3D2, ELSET=Line34
291, 26, 258
292, 258, 259
293, 259, 27
*ELEMENT, type=T3D2, ELSET=Line35
294, 27, 260
295, 260, 261
296, 261, 28
*ELEMENT, type=T3D2, ELSET=Line36
297, 28, 262
298, 262, 263
299, 263, 12
*ELEMENT, type=T3D2, ELSET=Line37
300, 25, 264
301, 264, 265
302, 265, 26
*ELEMENT, type=T3D2, ELSET=Line38
303, 27, 266
304, 266, 267
305, 267, 29
*ELEMENT, type=T3D2, ELSET=Line39
306, 29, 268
307, 268, 269
308, 269, 23
*ELEMENT, type=T3D2, ELSET=Line40
309, 22, 270
310, 270, 17
*ELEMENT, type=T3D2, ELSET=Line41
311, 19, 271
312, 271, 15
*ELEMENT, type=CPS3, ELSET=Surface1
313, 32, 31, 47
314, 33, 32, 48
315, 32, 47, 48
316, 34, 33, 49
317, 33, 48, 49
318, 35, 34, 50
319, 34, 49, 50
320, 51, 36, 35
321, 35, 50, 51
322, 37, 36, 52
323, 36, 51, 52
324, 38, 37, 53
325, 37, 52, 53
326, 39, 38, 54
327, 38, 53, 54
328, 55, 40, 39
329, 39, 54, 55
330, 41, 40, 56
331, 40, 55, 56
332, 41, 57, 42
333, 57, 41, 56
334, 42, 58, 43
335, 57, 58, 42
336, 43, 59, 44
337, 58, 59, 43
338, 2, 30, 1
339, 2, 1, 45
340, 30, 2, 46
341, 60, 2, 45
342, 31, 30, 46
343, 31, 46, 47
344, 44, 60, 45
345, 59, 60, 44
*ELEMENT, type=CPS3, ELSET=Surface2
346, 114, 303, 107
347, 81, 302, 130
348, 274, 300, 294
349, 293, 301, 275
350, 107, 337, 114
351, 130, 338, 81
352, 99, 309, 134
353, 275, 301, 132
354, 116, 300, 274
355, 134, 344, 99
356, 298, 306, 272
357, 341, 342, 68
358, 68, 342, 69
359, 64, 318, 7
360, 8, 319, 73
361, 316, 351, 340
362, 339, 352, 317
363, 299, 307, 273
364, 7, 334, 64
365, 73, 333, 8
366, 288, 307, 297
367, 120, 296, 295
368, 286, 357, 293
369, 282, 339, 63
370, 74, 340, 283
371, 63, 339, 318
372, 319, 340, 74
373, 293, 336, 286
374, 39, 306, 298
375, 282, 356, 352
376, 307, 358, 273
377, 120, 295, 121
378, 297, 344, 135
379, 288, 358, 307
380, 142, 289, 141
381, 125, 290, 126
382, 6, 325, 102
383, 62, 356, 282
384, 65, 334, 290
385, 289, 333, 72
386, 71, 289, 72
387, 65, 290, 66
388, 136, 297, 135
389, 36, 299, 273
390, 295, 306, 291
391, 294, 350, 335
392, 90, 346, 308
393, 340, 351, 283
394, 282, 352, 339
395, 3, 323, 61
396, 291, 306, 40
397, 292, 321, 34
398, 142, 333, 289
399, 290, 334, 126
400, 274, 308, 117
401, 133, 309, 275
402, 76, 331, 3
403, 286, 336, 101
404, 297, 307, 97
405, 291, 320, 122
406, 78, 284, 79
407, 109, 285, 110
408, 32, 310, 280
409, 279, 348, 315
410, 87, 327, 6
411, 82, 338, 301
412, 300, 337, 106
413, 69, 305, 70
414, 67, 304, 68
415, 101, 336, 313
416, 105, 300, 106
417, 82, 301, 83
418, 45, 347, 44
419, 93, 298, 272
420, 37, 322, 299
421, 314, 347, 278
422, 304, 347, 45
423, 274, 312, 308
424, 309, 313, 275
425, 281, 311, 43
426, 35, 292, 34
427, 121, 291, 122
428, 138, 321, 292
429, 41, 320, 291
430, 276, 302, 80
431, 108, 303, 277
432, 92, 296, 91
433, 315, 348, 280
434, 78, 332, 284
435, 31, 348, 30
436, 121, 295, 291
437, 293, 357, 84
438, 351, 355, 283
439, 298, 322, 38
440, 30, 348, 305
441, 310, 353, 280
442, 299, 322, 95
443, 69, 342, 305
444, 304, 341, 68
445, 285, 329, 110
446, 281, 354, 311
447, 281, 347, 314
448, 88, 335, 287
449, 303, 317, 277
450, 276, 316, 302
451, 335, 350, 287
452, 125, 314, 290
453, 289, 315, 141
454, 96, 307, 299
455, 123, 320, 311
456, 296, 343, 91
457, 100, 309, 99
458, 90, 308, 89
459, 98, 344, 297
460, 308, 346, 118
461, 33, 321, 310
462, 311, 320, 42
463, 283, 355, 75
464, 310, 321, 139
465, 7, 318, 111
466, 127, 319, 8
467, 312, 335, 88
468, 5, 326, 103
469, 39, 298, 38
470, 316, 340, 128
471, 112, 339, 317
472, 35, 358, 292
473, 94, 322, 298
474, 104, 350, 294
475, 113, 303, 114
476, 130, 302, 129
477, 110, 328, 4
478, 85, 324, 5
479, 4, 330, 78
480, 295, 296, 272
481, 352, 356, 285
482, 137, 358, 288
483, 292, 358, 137
484, 1, 342, 341
485, 132, 301, 131
486, 115, 300, 116
487, 135, 344, 134
488, 88, 287, 87
489, 102, 286, 101
490, 81, 338, 82
491, 106, 337, 107
492, 133, 275, 132
493, 36, 273, 35
494, 32, 280, 31
495, 66, 290, 278
496, 37, 299, 36
497, 74, 283, 75
498, 66, 278, 67
499, 279, 289, 71
500, 70, 279, 71
501, 137, 288, 136
502, 62, 282, 63
503, 41, 291, 40
504, 138, 292, 137
505, 93, 272, 92
506, 288, 297, 136
507, 116, 274, 117
508, 44, 281, 43
509, 273, 358, 35
510, 79, 276, 80
511, 108, 277, 109
512, 98, 297, 97
513, 104, 294, 105
514, 83, 293, 84
515, 272, 296, 92
516, 301, 338, 131
517, 115, 337, 300
518, 79, 284, 276
519, 277, 285, 109
520, 279, 315, 289
521, 290, 314, 278
522, 91, 346, 90
523, 64, 334, 65
524, 72, 333, 73
525, 343, 346, 91
526, 120, 343, 296
527, 119, 343, 120
528, 294, 300, 105
529, 83, 301, 293
530, 96, 299, 95
531, 272, 306, 295
532, 80, 302, 81
533, 107, 303, 108
534, 40, 306, 39
535, 117, 308, 118
536, 134, 309, 133
537, 123, 311, 124
538, 33, 310, 32
539, 294, 335, 274
540, 113, 317, 303
541, 302, 316, 129
542, 70, 305, 279
543, 278, 304, 67
544, 284, 355, 351
545, 140, 310, 139
546, 43, 311, 42
547, 275, 336, 293
548, 94, 298, 93
549, 38, 322, 37
550, 129, 316, 128
551, 112, 317, 113
552, 97, 307, 96
553, 124, 354, 125
554, 45, 341, 304
555, 305, 342, 30
556, 102, 345, 286
557, 141, 353, 140
558, 89, 312, 88
559, 101, 313, 100
560, 276, 351, 316
561, 317, 352, 277
562, 139, 321, 138
563, 122, 320, 123
564, 42, 320, 41
565, 34, 321, 33
566, 6, 327, 86
567, 287, 349, 87
568, 8, 333, 142
569, 126, 334, 7
570, 85, 345, 324
571, 311, 354, 124
572, 127, 340, 319
573, 318, 339, 111
574, 86, 326, 5
575, 3, 331, 77
576, 77, 323, 3
577, 308, 312, 89
578, 100, 313, 309
579, 73, 319, 74
580, 63, 318, 64
581, 5, 324, 86
582, 4, 328, 77
583, 77, 330, 4
584, 128, 340, 127
585, 111, 339, 112
586, 30, 342, 1
587, 1, 341, 45
588, 119, 346, 343
589, 114, 337, 115
590, 131, 338, 130
591, 86, 325, 6
592, 280, 348, 31
593, 95, 322, 94
594, 140, 353, 310
595, 61, 356, 62
596, 118, 346, 119
597, 44, 347, 281
598, 75, 355, 76
599, 125, 354, 314
600, 99, 344, 98
601, 274, 335, 312
602, 315, 353, 141
603, 284, 351, 276
604, 277, 352, 285
605, 103, 350, 104
606, 84, 357, 85
607, 85, 357, 345
608, 278, 347, 304
609, 313, 336, 275
610, 305, 348, 279
611, 330, 332, 78
612, 86, 327, 326
613, 331, 332, 330
614, 110, 329, 328
615, 328, 329, 323
616, 324, 325, 86
617, 76, 332, 331
618, 324, 345, 325
619, 323, 329, 61
620, 77, 328, 323
621, 77, 331, 330
622, 280, 353, 315
623, 76, 355, 332
624, 87, 349, 327
625, 314, 354, 281
626, 326, 349, 103
627, 327, 349, 326
628, 285, 356, 329
629, 332, 355, 284
630, 349, 350, 103
631, 329, 356, 61
632, 345, 357, 286
633, 287, 350, 349
634, 325, 345, 102
*ELEMENT, type=CPS3, ELSET=Surface3
635, 52, 151, 373
636, 56, 155, 375
637, 148, 50, 374
638, 48, 147, 374
639, 152, 54, 373
640, 156, 58, 375
641, 147, 48, 365
642, 58, 156, 366
643, 155, 56, 369
644, 151, 52, 370
645, 50, 148, 368
646, 54, 152, 367
647, 360, 47, 363
648, 59, 359, 364
649, 60, 364, 371
650, 363, 46, 372
651, 47, 360, 365
652, 53, 52, 373
653, 50, 49, 374
654, 57, 56, 375
655, 49, 48, 374
656, 54, 53, 373
657, 58, 57, 375
658, 146, 147, 365
659, 359, 59, 366
660, 364, 159, 371
661, 156, 157, 366
662, 144, 363, 372
663, 148, 149, 368
664, 152, 153, 367
665, 150, 151, 370
666, 154, 155, 369
667, 60, 59, 364
668, 47, 46, 363
669, 157, 13, 359
670, 13, 158, 359
671, 10, 146, 360
672, 159, 9, 371
673, 9, 144, 372
674, 149, 11, 361
675, 153, 12, 362
676, 11, 150, 361
677, 12, 154, 362
678, 359, 158, 364
679, 55, 362, 369
680, 51, 361, 370
681, 362, 55, 367
682, 361, 51, 368
683, 145, 10, 360
684, 145, 360, 363
685, 158, 159, 364
686, 144, 145, 363
687, 59, 58, 366
688, 56, 55, 369
689, 52, 51, 370
690, 51, 50, 368
691, 55, 54, 367
692, 48, 47, 365
693, 360, 146, 365
694, 143, 9, 372
695, 9, 143, 371
696, 153, 362, 367
697, 149, 361, 368
698, 361, 150, 370
699, 362, 154, 369
700, 157, 359, 366
701, 155, 156, 375
702, 147, 148, 374
703, 151, 152, 373
704, 2, 60, 371
705, 143, 2, 371
706, 46, 2, 372
707, 2, 143, 372
*ELEMENT, type=CPS3, ELSET=Surface4
708, 14, 76, 3
709, 63, 161, 62
710, 64, 162, 63
711, 63, 162, 161
712, 65, 163, 64
713, 64, 163, 162
714, 66, 164, 65
715, 65, 164, 163
716, 165, 66, 67
717, 66, 165, 164
718, 68, 166, 67
719, 67, 166, 165
720, 69, 167, 68
721, 68, 167, 166
722, 70, 168, 69
723, 69, 168, 167
724, 169, 70, 71
725, 70, 169, 168
726, 72, 170, 71
727, 71, 170, 169
728, 72, 73, 171
729, 171, 170, 72
730, 73, 74, 172
731, 171, 73, 172
732, 74, 75, 173
733, 172, 74, 173
734, 61, 14, 3
735, 61, 160, 14
736, 174, 76, 14
737, 62, 160, 61
738, 62, 161, 160
739, 75, 76, 174
740, 173, 75, 174
*ELEMENT, type=CPS3, ELSET=Surface5
741, 79, 175, 78
742, 80, 176, 79
743, 79, 176, 175
744, 81, 177, 80
745, 80, 177, 176
746, 81, 82, 178
747, 178, 177, 81
748, 82, 83, 179
749, 178, 82, 179
750, 84, 180, 83
751, 83, 180, 179
752, 85, 181, 84
753, 84, 181, 180
754, 104, 183, 103
755, 105, 184, 104
756, 104, 184, 183
757, 185, 105, 106
758, 185, 184, 105
759, 186, 106, 107
760, 185, 106, 186
761, 107, 108, 187
762, 186, 107, 187
763, 188, 108, 109
764, 187, 108, 188
765, 189, 109, 110
766, 188, 109, 189
767, 15, 4, 78
768, 110, 4, 15
769, 5, 182, 85
770, 103, 182, 5
771, 78, 175, 15
772, 110, 15, 189
773, 85, 182, 181
774, 103, 183, 182
*ELEMENT, type=CPS3, ELSET=Surface6
775, 89, 88, 191
776, 90, 89, 192
777, 89, 191, 192
778, 91, 90, 193
779, 90, 192, 193
780, 92, 91, 194
781, 91, 193, 194
782, 195, 93, 92
783, 92, 194, 195
784, 94, 93, 196
785, 93, 195, 196
786, 95, 94, 197
787, 94, 196, 197
788, 96, 95, 198
789, 95, 197, 198
790, 199, 97, 96
791, 96, 198, 199
792, 98, 97, 200
793, 97, 199, 200
794, 98, 201, 99
795, 201, 98, 200
796, 99, 202, 100
797, 201, 202, 99
798, 100, 203, 101
799, 202, 203, 100
800, 87, 6, 16
801, 6, 102, 16
802, 190, 87, 16
803, 102, 204, 16
804, 88, 87, 190
805, 88, 190, 191
806, 101, 204, 102
807, 203, 204, 101
*ELEMENT, type=CPS3, ELSET=Surface7
808, 111, 17, 7
809, 206, 112, 113
810, 207, 113, 114
811, 206, 113, 207
812, 208, 114, 115
813, 207, 114, 208
814, 209, 115, 116
815, 208, 115, 209
816, 210, 116, 117
817, 116, 210, 209
818, 118, 211, 117
819, 117, 211, 210
820, 119, 212, 118
821, 118, 212, 211
822, 120, 213, 119
823, 119, 213, 212
824, 214, 120, 121
825, 120, 214, 213
826, 122, 215, 121
827, 121, 215, 214
828, 122, 123, 216
829, 216, 215, 122
830, 123, 124, 217
831, 216, 123, 217
832, 124, 125, 218
833, 217, 124, 218
834, 7, 17, 126
835, 205, 17, 111
836, 126, 17, 219
837, 205, 111, 112
838, 205, 112, 206
839, 125, 126, 219
840, 218, 125, 219
*ELEMENT, type=CPS3, ELSET=Surface8
841, 221, 129, 128
842, 222, 130, 129
843, 221, 222, 129
844, 223, 131, 130
845, 222, 223, 130
846, 224, 132, 131
847, 223, 224, 131
848, 225, 133, 132
849, 132, 224, 225
850, 134, 133, 226
851, 133, 225, 226
852, 135, 134, 227
853, 134, 226, 227
854, 136, 135, 228
855, 135, 227, 228
856, 229, 137, 136
857, 136, 228, 229
858, 138, 137, 230
859, 137, 229, 230
860, 138, 231, 139
861, 231, 138, 230
862, 139, 232, 140
863, 231, 232, 139
864, 140, 233, 141
865, 232, 233, 140
866, 18, 127, 8
867, 18, 8, 142
868, 18, 220, 127
869, 234, 18, 142
870, 220, 128, 127
871, 220, 221, 128
872, 141, 234, 142
873, 233, 234, 141
*ELEMENT, type=CPS3, ELSET=Surface9
874, 384, 174, 395
875, 160, 380, 394
876, 382, 173, 383
877, 378, 169, 379
878, 376, 165, 377
879, 380, 161, 381
880, 381, 161, 385
881, 377, 165, 387
882, 379, 169, 386
883, 383, 173, 384
884, 20, 238, 383
885, 10, 145, 379
886, 13, 241, 377
887, 23, 245, 381
888, 236, 20, 383
889, 239, 10, 379
890, 158, 13, 377
891, 244, 23, 381
892, 235, 384, 395
893, 380, 246, 394
894, 172, 173, 382
895, 168, 169, 378
896, 164, 165, 376
897, 160, 161, 380
898, 161, 162, 385
899, 165, 166, 387
900, 169, 170, 386
901, 173, 174, 384
902, 19, 235, 395
903, 246, 19, 394
904, 240, 386, 392
905, 159, 387, 393
906, 243, 385, 391
907, 376, 242, 389
908, 378, 144, 388
909, 382, 237, 390
910, 390, 21, 392
911, 388, 9, 393
912, 389, 22, 391
913, 238, 382, 383
914, 145, 378, 379
915, 241, 376, 377
916, 245, 380, 381
917, 236, 383, 384
918, 158, 377, 387
919, 244, 381, 385
920, 239, 379, 386
921, 235, 236, 384
922, 240, 239, 386
923, 159, 158, 387
924, 243, 244, 385
925, 245, 246, 380
926, 241, 242, 376
927, 145, 144, 378
928, 238, 237, 382
929, 22, 243, 391
930, 144, 9, 388
931, 237, 21, 390
932, 21, 240, 392
933, 9, 159, 393
934, 242, 22, 389
935, 163, 164, 389
936, 166, 167, 393
937, 170, 171, 392
938, 167, 168, 388
939, 171, 172, 390
940, 162, 163, 391
941, 386, 170, 392
942, 387, 166, 393
943, 385, 162, 391
944, 164, 376, 389
945, 168, 378, 388
946, 172, 382, 390
947, 19, 247, 394
948, 247, 19, 395
949, 163, 389, 391
950, 167, 388, 393
951, 171, 390, 392
952, 174, 14, 395
953, 14, 247, 395
954, 14, 160, 394
955, 247, 14, 394
*ELEMENT, type=CPS3, ELSET=Surface10
956, 230, 148, 412
957, 226, 254, 413
958, 255, 228, 413
959, 147, 232, 412
960, 254, 226, 406
961, 232, 147, 407
962, 148, 230, 409
963, 228, 255, 408
964, 396, 225, 399
965, 233, 397, 403
966, 400, 220, 410
967, 234, 403, 411
968, 221, 400, 401
969, 221, 401, 402
970, 225, 396, 406
971, 231, 230, 412
972, 227, 226, 413
973, 228, 227, 413
974, 232, 231, 412
975, 253, 254, 406
976, 238, 20, 401
977, 20, 249, 401
978, 397, 233, 407
979, 237, 400, 410
980, 403, 240, 411
981, 147, 146, 407
982, 255, 256, 408
983, 149, 148, 409
984, 221, 220, 400
985, 222, 221, 402
986, 234, 233, 403
987, 225, 224, 399
988, 146, 10, 397
989, 10, 239, 397
990, 25, 253, 396
991, 240, 21, 411
992, 21, 237, 410
993, 256, 11, 398
994, 11, 149, 398
995, 397, 239, 403
996, 229, 398, 409
997, 398, 229, 408
998, 252, 25, 396
999, 402, 250, 405
1000, 24, 404, 405
1001, 251, 399, 404
1002, 252, 396, 399
1003, 400, 238, 401
1004, 401, 249, 402
1005, 249, 250, 402
1006, 237, 238, 400
1007, 239, 240, 403
1008, 251, 252, 399
1009, 233, 232, 407
1010, 230, 229, 409
1011, 229, 228, 408
1012, 226, 225, 406
1013, 250, 24, 405
1014, 24, 251, 404
1015, 224, 223, 404
1016, 223, 222, 405
1017, 222, 402, 405
1018, 399, 224, 404
1019, 396, 253, 406
1020, 248, 21, 410
1021, 21, 248, 411
1022, 256, 398, 408
1023, 398, 149, 409
1024, 146, 397, 407
1025, 404, 223, 405
1026, 148, 147, 412
1027, 254, 255, 413
1028, 18, 234, 411
1029, 248, 18, 411
1030, 220, 18, 410
1031, 18, 248, 410
*ELEMENT, type=CPS3, ELSET=Surface11
1032, 196, 152, 430
1033, 200, 255, 431
1034, 151, 198, 430
1035, 254, 202, 431
1036, 152, 196, 424
1037, 202, 254, 425
1038, 255, 200, 427
1039, 198, 151, 426
1040, 414, 195, 417
1041, 203, 415, 420
1042, 418, 190, 428
1043, 204, 420, 429
1044, 191, 418, 419
1045, 191, 419, 421
1046, 195, 414, 424
1047, 201, 200, 431
1048, 197, 196, 430
1049, 202, 201, 431
1050, 198, 197, 430
1051, 153, 152, 424
1052, 259, 27, 419
1053, 27, 260, 419
1054, 415, 203, 425
1055, 258, 418, 428
1056, 420, 265, 429
1057, 254, 253, 425
1058, 151, 150, 426
1059, 256, 255, 427
1060, 191, 190, 418
1061, 192, 191, 421
1062, 204, 203, 420
1063, 195, 194, 417
1064, 253, 25, 415
1065, 25, 264, 415
1066, 12, 153, 414
1067, 265, 26, 429
1068, 26, 258, 428
1069, 150, 11, 416
1070, 11, 256, 416
1071, 415, 264, 420
1072, 199, 416, 427
1073, 416, 199, 426
1074, 263, 12, 414
1075, 421, 261, 423
1076, 28, 422, 423
1077, 262, 417, 422
1078, 263, 414, 417
1079, 418, 259, 419
1080, 419, 260, 421
1081, 260, 261, 421
1082, 258, 259, 418
1083, 264, 265, 420
1084, 262, 263, 417
1085, 203, 202, 425
1086, 200, 199, 427
1087, 199, 198, 426
1088, 196, 195, 424
1089, 261, 28, 423
1090, 28, 262, 422
1091, 194, 193, 422
1092, 193, 192, 423
1093, 192, 421, 423
1094, 417, 194, 422
1095, 414, 153, 424
1096, 257, 26, 428
1097, 26, 257, 429
1098, 150, 416, 426
1099, 416, 256, 427
1100, 253, 415, 425
1101, 422, 193, 423
1102, 152, 151, 430
1103, 255, 254, 431
1104, 16, 204, 429
1105, 257, 16, 429
1106, 190, 16, 428
1107, 16, 257, 428
*ELEMENT, type=CPS3, ELSET=Surface12
1108, 155, 215, 450
1109, 217, 156, 450
1110, 215, 155, 446
1111, 156, 217, 447
1112, 214, 432, 436
1113, 433, 218, 440
1114, 205, 437, 448
1115, 440, 219, 449
1116, 437, 206, 438
1117, 434, 210, 435
1118, 438, 206, 439
1119, 435, 210, 441
1120, 432, 214, 446
1121, 215, 216, 450
1122, 216, 217, 450
1123, 155, 154, 446
1124, 27, 266, 435
1125, 23, 244, 438
1126, 260, 27, 435
1127, 269, 23, 438
1128, 218, 433, 447
1129, 437, 243, 448
1130, 242, 440, 449
1131, 157, 156, 447
1132, 209, 210, 434
1133, 205, 206, 437
1134, 206, 207, 439
1135, 210, 211, 441
1136, 218, 219, 440
1137, 213, 214, 436
1138, 13, 157, 433
1139, 241, 13, 433
1140, 154, 12, 432
1141, 22, 242, 449
1142, 243, 22, 448
1143, 241, 433, 440
1144, 12, 263, 432
1145, 261, 441, 445
1146, 268, 439, 444
1147, 434, 267, 443
1148, 442, 28, 445
1149, 443, 29, 444
1150, 436, 262, 442
1151, 432, 263, 436
1152, 244, 437, 438
1153, 266, 434, 435
1154, 260, 435, 441
1155, 269, 438, 439
1156, 261, 260, 441
1157, 268, 269, 439
1158, 244, 243, 437
1159, 266, 267, 434
1160, 242, 241, 440
1161, 263, 262, 436
1162, 217, 218, 447
1163, 214, 215, 446
1164, 29, 268, 444
1165, 262, 28, 442
1166, 28, 261, 445
1167, 267, 29, 443
1168, 208, 209, 443
1169, 211, 212, 445
1170, 212, 213, 442
1171, 207, 208, 444
1172, 441, 211, 445
1173, 439, 207, 444
1174, 209, 434, 443
1175, 213, 436, 442
1176, 154, 432, 446
1177, 270, 22, 449
1178, 22, 270, 448
1179, 433, 157, 447
1180, 212, 442, 445
1181, 208, 443, 444
1182, 156, 155, 450
1183, 219, 17, 449
1184, 17, 270, 449
1185, 17, 205, 448
1186, 270, 17, 448
*ELEMENT, type=CPS3, ELSET=Surface13
1187, 459, 189, 470
1188, 175, 457, 469
1189, 453, 184, 454
1190, 455, 188, 456
1191, 451, 180, 452
1192, 457, 176, 458
1193, 458, 176, 460
1194, 452, 180, 462
1195, 454, 184, 461
1196, 456, 188, 459
1197, 23, 269, 456
1198, 27, 259, 454
1199, 25, 252, 452
1200, 20, 236, 458
1201, 245, 23, 456
1202, 266, 27, 454
1203, 264, 25, 452
1204, 249, 20, 458
1205, 246, 459, 470
1206, 457, 235, 469
1207, 187, 188, 455
1208, 183, 184, 453
1209, 179, 180, 451
1210, 175, 176, 457
1211, 176, 177, 460
1212, 180, 181, 462
1213, 184, 185, 461
1214, 188, 189, 459
1215, 19, 246, 470
1216, 235, 19, 469
1217, 267, 461, 467
1218, 265, 462, 468
1219, 250, 460, 466
1220, 451, 251, 464
1221, 453, 258, 463
1222, 455, 268, 465
1223, 465, 29, 467
1224, 463, 26, 468
1225, 464, 24, 466
1226, 259, 453, 454
1227, 269, 455, 456
1228, 252, 451, 452
1229, 236, 457, 458
1230, 245, 456, 459
1231, 264, 452, 462
1232, 249, 458, 460
1233, 266, 454, 461
1234, 246, 245, 459
1235, 267, 266, 461
1236, 265, 264, 462
1237, 250, 249, 460
1238, 236, 235, 457
1239, 252, 251, 451
1240, 259, 258, 453
1241, 269, 268, 455
1242, 251, 24, 464
1243, 258, 26, 463
1244, 268, 29, 465
1245, 29, 267, 467
1246, 26, 265, 468
1247, 24, 250, 466
1248, 177, 178, 466
1249, 181, 182, 468
1250, 185, 186, 467
1251, 186, 187, 465
1252, 182, 183, 463
1253, 178, 179, 464
1254, 461, 185, 467
1255, 462, 181, 468
1256, 460, 177, 466
1257, 179, 451, 464
1258, 183, 453, 463
1259, 187, 455, 465
1260, 271, 19, 470
1261, 19, 271, 469
1262, 186, 465, 467
1263, 182, 463, 468
1264, 178, 464, 466
1265, 189, 15, 470
1266, 15, 271, 470
1267, 15, 175, 469
1268, 271, 15, 469
