*Heading
 I:\Project\ModelExamples\Cilindr3D.inp
*NODE
1, 7.0495686524055, 19.144535820915, -2.463861849579
2, 10.631784447566, 2.2549619327931, 0
3, -14.214000242726, 14.634611955329, -2.463861849579
4, -10.631784447566, -2.254961932793, 2.3346814791118e-16
5, 7.7660118114376, 15.766621043291, -1.9710894796632
6, 8.4824549704696, 12.388706265666, -1.4783171097474
7, 9.1988981295017, 9.0107914880418, -0.98554473983161
8, 9.9153412885338, 5.6328767104174, -0.4927723699158
9, -13.681782347758, 15.284318369613, 1.2160300004336
10, -11.93140767282, 16.127642290478, 4.452072583915
11, -9.1739972364864, 17.062866406931, 6.8539514063955
12, -5.7421354324245, 17.977188888091, 8.1319644339276
13, -2.0497554430896, 18.760328948767, 8.1319644339276
14, 1.4577872110794, 19.317828339725, 6.8539514063955
15, 4.3574311201735, 19.5824444066, 4.452072583915
16, 6.2994364345696, 19.522260546411, 1.2160300004336
17, -11.348227606598, 1.1229528448313, -0.4927723699158
18, -12.06467076563, 4.5008676224557, -0.98554473983161
19, -12.781113924662, 7.8787824000801, -1.4783171097474
20, -13.497557083694, 11.256697177704, -1.9710894796632
21, -10.099566552598, -1.6052555185086, 3.6798918500126
22, -8.3491918776593, -0.76193159764377, 6.9159344334941
23, -5.5917814413261, 0.17329251880968, 9.3178132559745
24, -2.1599196372641, 1.0876149999695, 10.595826283507
25, 1.5324603520707, 1.8707550606451, 10.595826283507
26, 5.0400030062397, 2.4282544516027, 9.3178132559745
27, 7.9396469153339, 2.6928705184781, 6.9159344334941
28, 9.8816522297299, 2.6326866582889, 3.6798918500126
29, 10.099566552598, 1.6052555185086, -3.6798918500126
30, 8.3491918776593, 0.76193159764377, -6.9159344334941
31, 5.5917814413261, -0.17329251880968, -9.3178132559745
32, 2.1599196372641, -1.0876149999695, -10.595826283507
33, -1.5324603520707, -1.8707550606451, -10.595826283507
34, -5.0400030062397, -2.4282544516027, -9.3178132559745
35, -7.9396469153339, -2.6928705184781, -6.9159344334941
36, -9.8816522297299, -2.6326866582889, -3.6798918500126
37, 6.5173507574377, 18.49482940663, -6.1437536995916
38, 4.7669760824989, 17.651505485766, -9.3797962830731
39, 2.0095656461657, 16.716281369312, -11.781675105554
40, -1.4222961578962, 15.801958888152, -13.059688133086
41, -5.114676147231, 15.018818827477, -13.059688133086
42, -8.6222188014001, 14.461319436519, -11.781675105554
43, -11.521862710494, 14.196703369644, -9.3797962830731
44, -13.46386802489, 14.256887229833, -6.1437536995916
45, -12.165441239856, 6.5346143259827, 1.3857062906781
46, 8.4693836028728, 10.90621476874, 1.3741847989418
47, -6.8374599154851, 14.372332859788, 8.1113314162656
48, 2.6851254127725, 5.2961389124786, 9.6533967148028
49, -4.6015145553962, 3.7513479379393, 9.6542208442205
50, 0.4261062221736, 15.91052193037, 8.1075248409128
51, 8.3775508587064, 5.8654385457711, 4.9184283411749
52, -10.037239979598, 1.9597299090398, 4.9184283411749
53, 5.9672153540021, 16.432497454227, 3.6516420185105
54, -12.122532144149, 12.596709911865, 3.6541762894898
55, 3.5758988069989, 16.318876916916, 6.3231334719417
56, 2.7960387014524, 13.008186844067, 7.7744059464952
57, -0.70101929181457, 12.444197093367, 9.0520446391909
58, 1.7700315667253, 9.6250818245802, 9.0208748779315
59, 5.0138739962142, 10.031780255826, 7.1578081155359
60, -1.8696013899632, 8.9198326534305, 9.6778034778877
61, 5.2380105476145, 13.195200369746, 5.893198916024
62, -4.3811258138522, 11.661325375116, 9.0576754038251
63, -5.4948405663768, 8.1229088428892, 9.0296379150007
64, -3.2240606535504, 15.232126874998, 8.7565188152346
65, -7.8027224977921, 10.749316804405, 7.7942256253881
66, -8.6220577970816, 7.1283934929645, 7.1853395975722
67, -9.9959019742742, 9.9291283007318, 6.0470991917912
68, -9.8550979830547, 13.484138864816, 6.3549189819916
69, -7.8410261233903, 2.984937140897, 7.7054752086312
70, 5.9575309416569, 5.9123987362691, 7.7023267739996
71, -0.9702299161967, 4.5903030748299, 10.308859789346
72, 9.0909636042943, 7.711615708203, 2.0521223057734
73, 7.4412194584289, 9.3767150491501, 4.7161233161989
74, -11.436971120317, 3.3608120013864, 2.0605148371223
75, -10.5970470056, 5.5527084031853, 4.7327218194947
76, 7.7188254944063, 14.388988389408, 0.91257517196709
77, -12.892739753467, 10.019036313565, 0.92378501346743
78, 3.9388456199748, 7.7042314995646, 8.538469253054
79, -6.7214412503377, 5.4253606570349, 8.5421900073403
80, 0.42644478155531, 7.1598533167531, 9.8219550423302
81, -3.2664208003316, 6.3641084771046, 9.8286538679715
82, 9.746531747163, 4.9552311043242, 2.1824789409205
83, -10.918874104636, 0.57217539515783, 2.182478940921
84, 7.1865983437356, 17.024907203757, 0.42174686590445
85, -13.478807508064, 12.641851494592, 0.42174686590486
86, -11.83183386287, 8.8688362954968, 3.294191097203
87, 7.2348494029118, 12.877424405413, 3.2685317086718
88, -12.003278658928, 5.8062503934974, -3.8543317919234
89, 8.6092681774052, 10.179454089713, -3.8681859343728
90, -0.34450216833171, 1.6234926198607, -11.215238304631
91, -6.2504641915194, 11.54456495173, -12.112282304196
92, 1.0283083168813, 13.096309282702, -12.111921390417
93, -7.2605008180941, 0.56151901686062, -8.7033033576832
94, 6.4074578054126, 3.460442198289, -8.7033033576832
95, -11.789126420615, 11.016881017746, -7.6559749199648
96, 6.3035928805117, 14.857098468039, -7.6527810997056
97, -9.3997370376386, 11.137605645326, -10.328175113063
98, -7.2839673110271, 8.1516779408616, -10.861220565454
99, -3.7848941081073, 8.7000417073857, -12.136390675809
100, -4.9234749719716, 5.2422759696928, -11.189690777437
101, -8.1619463320785, 4.8357586529702, -9.330911135003
102, -1.2838684573635, 5.931641231552, -11.844442901063
103, -9.7035228532607, 7.8608989974049, -8.9652864910099
104, -0.09951665663085, 9.4725546682693, -12.140340945993
105, 2.334678987415, 6.7754580229315, -11.20312681035
106, -2.5939823312899, 12.228740510794, -12.762342990848
107, 3.3204758832761, 10.382509673457, -10.877107755685
108, 5.470377132734, 7.7014555048646, -9.3541161780482
109, 5.5661688100253, 11.018529425362, -9.0893999551854
110, 4.0328140884326, 13.994367159157, -10.358677128418
111, 9.2341478161866, 6.8213195200387, -3.7005757920475
112, -11.208910096407, 2.4877336379934, -3.6997013776299
113, -4.0115872419078, 0.94273149474956, -10.562460650889
114, 3.2827072180882, 2.4970594849639, -10.563222777295
115, -9.5810917897453, 0.3374908260664, -6.0075007153187
116, 8.6188054398992, 4.1968830948091, -6.0083176591564
117, 7.7407263522127, 7.8669338707883, -6.7065561568429
118, -12.738161927468, 9.2803280994022, -4.3687144735444
119, 7.872141673588, 13.649688472268, -4.3787459760712
120, -10.278513831639, 4.0475435934212, -6.6899075349149
121, -5.587992785931, 2.9438165685495, -10.398232215896
122, -2.6798943091269, 3.4187929694594, -11.363744662624
123, 3.9131663597378, 4.9244105635215, -10.396367557169
124, 1.0552969605213, 4.1718459573365, -11.360854523068
125, -13.328747542323, 11.934342783797, -4.6463407904998
126, 7.3366583094753, 16.317398492964, -4.6463407905014
127, -10.768578783067, -0.12593788185238, -2.895981685867
128, 9.8930174703681, 4.2552932087808, -2.8947849563411
129, 7.4947255527915, 11.571779360862, -6.2795731112482
130, -11.557719212788, 7.5042145682263, -6.2418182481481
131, -6.0716867833609, -1.8202063187576, -3.6497244418141
132, 5.8515796661623, 1.7684998528474, 3.6152951637912
133, 4.8416492234902, 0.20443220668617, -5.6379214059619
134, -4.9606065814799, -0.16515127643101, 6.0801414520517
135, -0.21954463372222, 1.0522237579267, 7.5321054076845
136, -2.2825925699066, -1.4930303351493, -6.9159344334941
137, 7.3433184453396, 1.3699760777718, -1.2853963925949
138, -7.1344243658904, -1.2862586931758, 1.5555605992652
139, 3.0613858465716, -0.49797127013679, -7.8645104631646
140, 1.1319134947342, -0.50066812528037, -5.0777318123903
141, 4.2184301355256, 0.58121570771122, -2.1490009364118
142, 0.39875662810977, -0.07906530970956, -1.1217397121672
143, 2.9059497679123, 0.82071257743222, 1.400949716188
144, -0.56638639882299, 0.19951374265825, 2.1911213907031
145, -3.8795461909422, -0.884172980071, -0.42045102233299
146, -2.5094651176409, -1.0842861699385, -3.7841755627741
147, 1.9198268760407, 1.1028820252537, 4.7689253754569
148, 4.592899267445, 1.9164287068092, 6.4593345386915
149, -4.3013616795236, -0.45420317015221, 3.1402360273989
150, -6.9690302114302, -0.85456005118228, 4.2743528724445
151, -3.0408811542594, 0.49817165750249, 7.836072271523
152, 0.43339601518407, -1.1123918512608, -8.2554719612386
153, -4.9437246981439, -1.9618980384624, -6.2609570352299
154, 7.1249875655928, 0.91940939708911, -4.0565626899597
155, 7.9757622020411, 1.8975343901287, 1.4114614215612
156, -7.5198188034979, -1.7756573166173, -1.2389013429789
157, -1.9812228091317, 0.34572539092952, 5.2504251315542
158, 2.422668976055, 1.6701964691715, 7.9267364785977
159, 5.6328538303431, 1.2923778667056, 0.66952354024862
160, 3.5420259982364, 18.587036429957, -1.1858488220469
161, -10.706457588557, 15.192111346286, -3.7418748771112
162, -5.960244228481, 17.365755953267, 4.2577500750025
163, -1.0300362712362, 16.428158890998, -9.3374454852003
164, -7.6251220375009, 15.192539440955, -8.2189028998223
165, -10.133966141289, 16.029614920741, 1.1667974980787
166, 0.97462165163845, 18.754744116628, 3.6965303465072
167, 2.9039853165822, 17.721552724326, -6.191020516051
168, 4.6052341450214, 18.414092822778, -3.917164642389
169, 1.4217915366291, 17.800250409089, -3.496588467108
170, 0.18861008475917, 18.077886665119, 0.19951167623928
171, -2.0315188087304, 17.128033177789, -3.0838054744286
172, -3.5072556642577, 17.288697669905, 0.16311467473598
173, -5.476685876816, 16.432000489428, -2.8461150496396
174, -4.003938819965, 16.22295197513, -6.4203568843721
175, -7.0877848949838, 16.616085073605, 0.75815137385629
176, -2.4252475931777, 18.01064049841, 3.5388397965589
177, -0.46307920494204, 17.001867575313, -6.2290193138022
178, -4.2973457883181, 15.6805637368, -9.7117991997206
179, -7.7988703556615, 15.624881599908, -5.0026191582486
180, 3.1820078730156, 18.929996216893, 1.6885441874563
181, 1.8490506216385, 17.117315189482, -8.799247419976
182, -8.9703564989609, 16.648577042205, 3.7179574364256
183, -11.519451300137, 15.399157963867, -1.1405731596474
184, -10.336710531354, 14.86225959794, -6.5405582633299
185, -8.6653222977747, 15.894031617791, -1.8978805755558
186, -0.89876578843204, 18.644802708071, 5.6666142357137
187, -3.7282446592603, 18.111573639284, 6.1251594852295
188, 0.30262293372205, 8.8270547685026, -1.2289222005985
189, -6.3098244139945, 9.5860461533516, -2.3396253583179
190, -2.6367749865133, 5.2007861891011, -5.3780872115939
191, -4.1099323312045, 6.0185986753292, 2.6236829463729
192, -2.5130693906098, 11.879359722016, 3.2480962849904
193, -0.54913690467545, 11.149754220319, -6.5423370223584
194, 4.758261143402, 6.115899689642, -1.1150665214919
195, -6.9463005187547, 3.7731724292976, -1.0705776497822
196, 1.8223427108971, 6.5066285205142, 3.5636494670369
197, 3.3199033172834, 13.033051363152, -1.9004068974874
198, 2.4648618236701, 4.740673644156, -5.4853033434543
199, -5.4864945860517, 10.845337629693, -7.0829044391458
200, -7.4117251365565, 11.761273536362, 2.0707237431339
201, 3.5292145700008, 9.3395014656012, -4.8917659095646
202, 2.2711225097005, 11.25228720822, 2.5200754568408
203, -2.6580353222015, 12.617477623664, -1.510725264296
204, -1.3243927000023, 4.3595616396736, -0.87221206449909
205, -1.4913981512825, 4.9457243675959, 5.9711728123876
206, -7.921001102148, 7.4280488662789, 1.074668057784
207, -9.4929742682042, 11.959724346059, -1.6694094193099
208, 0.069577630837874, 7.2387910392179, -7.7642203216606
209, -6.6759358891635, 6.851518722887, -5.7394230597307
210, -6.0762149525097, 2.6481637122353, -5.1190392269017
211, -6.6919857714092, 2.9223113081857, 2.8697123466074
212, -0.33372497658609, 2.6808166359031, -7.3941475150963
213, 0.4504238509946, 14.654542160668, 4.1441062332828
214, 2.4630137873278, 13.777234923755, -6.6863447010905
215, -0.66908113549371, 9.0663355240189, 5.6969207641317
216, -5.1076133140406, 9.2123559535993, 5.0571722753445
217, 5.4244871012936, 9.9379938972306, -0.8433066296963
218, -2.6724177849847, 8.9513400177513, -3.9303308645831
219, -8.8004310305522, 11.587867095524, -5.3843439484295
220, -3.7805069249787, 7.5498745819808, -8.267116367947
221, 3.1372980698998, 15.070059208776, 1.38731371575
222, 5.4876098311333, 6.631930913651, 2.5763340044181
223, -3.3584779392938, 9.1418624341596, 0.28424391885533
******* E L E M E N T S *************
*ELEMENT, type=T3D2, ELSET=Line1
5, 1, 5
6, 5, 6
7, 6, 7
8, 7, 8
9, 8, 2
*ELEMENT, type=T3D2, ELSET=Line2
10, 3, 9
11, 9, 10
12, 10, 11
13, 11, 12
14, 12, 13
15, 13, 14
16, 14, 15
17, 15, 16
18, 16, 1
*ELEMENT, type=T3D2, ELSET=Line3
19, 4, 17
20, 17, 18
21, 18, 19
22, 19, 20
23, 20, 3
*ELEMENT, type=T3D2, ELSET=Line4
24, 4, 21
25, 21, 22
26, 22, 23
27, 23, 24
28, 24, 25
29, 25, 26
30, 26, 27
31, 27, 28
32, 28, 2
*ELEMENT, type=T3D2, ELSET=Line5
33, 2, 29
34, 29, 30
35, 30, 31
36, 31, 32
37, 32, 33
38, 33, 34
39, 34, 35
40, 35, 36
41, 36, 4
*ELEMENT, type=T3D2, ELSET=Line6
42, 1, 37
43, 37, 38
44, 38, 39
45, 39, 40
46, 40, 41
47, 41, 42
48, 42, 43
49, 43, 44
50, 44, 3
*ELEMENT, type=CPS3, ELSET=Surface1
51, 1, 84, 5
52, 16, 84, 1
53, 8, 82, 2
54, 2, 82, 28
55, 3, 85, 9
56, 20, 85, 3
57, 4, 83, 17
58, 21, 83, 4
59, 5, 76, 6
60, 5, 84, 76
61, 6, 46, 7
62, 6, 76, 46
63, 7, 72, 8
64, 46, 72, 7
65, 72, 82, 8
66, 9, 54, 10
67, 9, 85, 54
68, 10, 68, 11
69, 54, 68, 10
70, 11, 47, 12
71, 11, 68, 47
72, 12, 64, 13
73, 47, 64, 12
74, 13, 50, 14
75, 13, 64, 50
76, 14, 55, 15
77, 50, 55, 14
78, 15, 53, 16
79, 15, 55, 53
80, 53, 84, 16
81, 17, 74, 18
82, 17, 83, 74
83, 18, 45, 19
84, 18, 74, 45
85, 19, 77, 20
86, 45, 77, 19
87, 77, 85, 20
88, 22, 52, 21
89, 52, 83, 21
90, 23, 69, 22
91, 22, 69, 52
92, 24, 49, 23
93, 49, 69, 23
94, 25, 71, 24
95, 24, 71, 49
96, 26, 48, 25
97, 48, 71, 25
98, 27, 70, 26
99, 26, 70, 48
100, 28, 51, 27
101, 51, 70, 27
102, 28, 82, 51
103, 74, 75, 45
104, 75, 86, 45
105, 45, 86, 77
106, 46, 73, 72
107, 46, 87, 73
108, 76, 87, 46
109, 62, 64, 47
110, 47, 65, 62
111, 47, 68, 65
112, 70, 78, 48
113, 48, 80, 71
114, 78, 80, 48
115, 49, 79, 69
116, 71, 81, 49
117, 49, 81, 79
118, 50, 56, 55
119, 50, 57, 56
120, 50, 64, 57
121, 51, 73, 70
122, 72, 73, 51
123, 51, 82, 72
124, 69, 75, 52
125, 52, 75, 74
126, 74, 83, 52
127, 55, 61, 53
128, 61, 87, 53
129, 76, 84, 53
130, 53, 87, 76
131, 67, 68, 54
132, 54, 86, 67
133, 54, 85, 77
134, 77, 86, 54
135, 56, 61, 55
136, 57, 58, 56
137, 58, 59, 56
138, 59, 61, 56
139, 57, 60, 58
140, 57, 62, 60
141, 57, 64, 62
142, 58, 78, 59
143, 60, 80, 58
144, 58, 80, 78
145, 59, 73, 61
146, 70, 73, 59
147, 59, 78, 70
148, 62, 63, 60
149, 63, 81, 60
150, 60, 81, 80
151, 73, 87, 61
152, 62, 65, 63
153, 65, 66, 63
154, 66, 79, 63
155, 79, 81, 63
156, 65, 67, 66
157, 65, 68, 67
158, 67, 75, 66
159, 66, 75, 69
160, 69, 79, 66
161, 67, 86, 75
162, 80, 81, 71
*ELEMENT, type=CPS3, ELSET=Surface2
163, 5, 126, 1
164, 1, 126, 37
165, 2, 128, 8
166, 29, 128, 2
167, 3, 125, 20
168, 44, 125, 3
169, 17, 127, 4
170, 4, 127, 36
171, 6, 119, 5
172, 119, 126, 5
173, 7, 89, 6
174, 89, 119, 6
175, 8, 111, 7
176, 7, 111, 89
177, 8, 128, 111
178, 18, 112, 17
179, 112, 127, 17
180, 19, 88, 18
181, 88, 112, 18
182, 20, 118, 19
183, 19, 118, 88
184, 20, 125, 118
185, 30, 116, 29
186, 116, 128, 29
187, 31, 94, 30
188, 94, 116, 30
189, 32, 114, 31
190, 31, 114, 94
191, 33, 90, 32
192, 90, 114, 32
193, 34, 113, 33
194, 33, 113, 90
195, 35, 93, 34
196, 93, 113, 34
197, 36, 115, 35
198, 35, 115, 93
199, 36, 127, 115
200, 37, 96, 38
201, 37, 126, 96
202, 38, 110, 39
203, 96, 110, 38
204, 39, 92, 40
205, 39, 110, 92
206, 40, 106, 41
207, 92, 106, 40
208, 41, 91, 42
209, 41, 106, 91
210, 42, 97, 43
211, 91, 97, 42
212, 43, 95, 44
213, 43, 97, 95
214, 95, 125, 44
215, 88, 120, 112
216, 118, 130, 88
217, 88, 130, 120
218, 111, 117, 89
219, 117, 129, 89
220, 89, 129, 119
221, 113, 122, 90
222, 90, 124, 114
223, 122, 124, 90
224, 91, 98, 97
225, 91, 99, 98
226, 91, 106, 99
227, 104, 106, 92
228, 92, 107, 104
229, 92, 110, 107
230, 93, 120, 101
231, 101, 121, 93
232, 93, 121, 113
233, 115, 120, 93
234, 108, 117, 94
235, 94, 123, 108
236, 114, 123, 94
237, 94, 117, 116
238, 97, 103, 95
239, 103, 130, 95
240, 118, 125, 95
241, 95, 130, 118
242, 109, 110, 96
243, 96, 129, 109
244, 96, 126, 119
245, 119, 129, 96
246, 98, 103, 97
247, 99, 100, 98
248, 100, 101, 98
249, 101, 103, 98
250, 99, 102, 100
251, 99, 104, 102
252, 99, 106, 104
253, 100, 121, 101
254, 102, 122, 100
255, 100, 122, 121
256, 101, 120, 103
257, 104, 105, 102
258, 105, 124, 102
259, 102, 124, 122
260, 120, 130, 103
261, 104, 107, 105
262, 107, 108, 105
263, 108, 123, 105
264, 123, 124, 105
265, 107, 109, 108
266, 107, 110, 109
267, 109, 117, 108
268, 109, 129, 117
269, 116, 117, 111
270, 111, 128, 116
271, 112, 120, 115
272, 115, 127, 112
273, 121, 122, 113
274, 114, 124, 123
*ELEMENT, type=CPS3, ELSET=Surface3
275, 2, 28, 155
276, 29, 2, 137
277, 137, 2, 155
278, 21, 4, 138
279, 4, 36, 156
280, 138, 4, 156
281, 22, 21, 150
282, 21, 138, 150
283, 23, 22, 134
284, 134, 22, 150
285, 24, 23, 151
286, 23, 134, 151
287, 25, 24, 135
288, 135, 24, 151
289, 26, 25, 158
290, 25, 135, 158
291, 27, 26, 148
292, 148, 26, 158
293, 28, 27, 132
294, 132, 27, 148
295, 28, 132, 155
296, 30, 29, 154
297, 29, 137, 154
298, 31, 30, 133
299, 133, 30, 154
300, 32, 31, 139
301, 31, 133, 139
302, 33, 32, 152
303, 32, 139, 152
304, 34, 33, 136
305, 136, 33, 152
306, 35, 34, 153
307, 34, 136, 153
308, 36, 35, 131
309, 131, 35, 153
310, 36, 131, 156
311, 145, 131, 146
312, 131, 145, 156
313, 146, 131, 153
314, 143, 132, 147
315, 132, 143, 159
316, 147, 132, 148
317, 155, 132, 159
318, 139, 133, 140
319, 140, 133, 141
320, 141, 133, 154
321, 149, 134, 150
322, 134, 149, 157
323, 151, 134, 157
324, 147, 135, 157
325, 135, 147, 158
326, 135, 151, 157
327, 136, 140, 146
328, 140, 136, 152
329, 136, 146, 153
330, 137, 141, 154
331, 141, 137, 159
332, 137, 155, 159
333, 138, 145, 149
334, 145, 138, 156
335, 138, 149, 150
336, 139, 140, 152
337, 140, 141, 142
338, 140, 142, 146
339, 142, 141, 143
340, 143, 141, 159
341, 142, 143, 144
342, 142, 144, 145
343, 142, 145, 146
344, 144, 143, 147
345, 145, 144, 149
346, 144, 147, 157
347, 149, 144, 157
348, 147, 148, 158
*ELEMENT, type=CPS3, ELSET=Surface4
349, 1, 160, 16
350, 37, 168, 1
351, 1, 168, 160
352, 9, 183, 3
353, 3, 161, 44
354, 3, 183, 161
355, 10, 165, 9
356, 165, 183, 9
357, 11, 182, 10
358, 10, 182, 165
359, 12, 162, 11
360, 162, 182, 11
361, 13, 187, 12
362, 12, 187, 162
363, 14, 186, 13
364, 186, 187, 13
365, 15, 166, 14
366, 166, 186, 14
367, 16, 180, 15
368, 15, 180, 166
369, 160, 180, 16
370, 38, 167, 37
371, 167, 168, 37
372, 39, 181, 38
373, 38, 181, 167
374, 40, 163, 39
375, 163, 181, 39
376, 41, 178, 40
377, 40, 178, 163
378, 42, 178, 41
379, 43, 164, 42
380, 164, 178, 42
381, 44, 184, 43
382, 43, 184, 164
383, 161, 184, 44
384, 168, 169, 160
385, 169, 170, 160
386, 170, 180, 160
387, 179, 184, 161
388, 161, 185, 179
389, 183, 185, 161
390, 172, 175, 162
391, 162, 176, 172
392, 175, 182, 162
393, 162, 187, 176
394, 174, 177, 163
395, 163, 178, 174
396, 177, 181, 163
397, 174, 178, 164
398, 164, 179, 174
399, 164, 184, 179
400, 165, 182, 175
401, 175, 185, 165
402, 165, 185, 183
403, 170, 176, 166
404, 166, 180, 170
405, 176, 186, 166
406, 167, 169, 168
407, 167, 177, 169
408, 167, 181, 177
409, 169, 171, 170
410, 169, 177, 171
411, 171, 172, 170
412, 172, 176, 170
413, 171, 173, 172
414, 171, 174, 173
415, 171, 177, 174
416, 173, 175, 172
417, 174, 179, 173
418, 173, 185, 175
419, 179, 185, 173
420, 176, 187, 186
*ELEMENT, type=C3D4, ELSET=Volume1
421, 154, 194, 116, 198
422, 88, 195, 189, 206
423, 177, 203, 193, 214
424, 187, 64, 192, 213
425, 134, 49, 151, 205
426, 88, 189, 19, 206
427, 177, 171, 203, 214
428, 197, 203, 171, 214
429, 189, 195, 218, 223
430, 88, 118, 19, 189
431, 88, 189, 195, 209
432, 190, 189, 195, 218
433, 190, 195, 204, 218
434, 193, 203, 197, 214
435, 173, 189, 199, 203
436, 19, 189, 118, 207
437, 204, 218, 195, 223
438, 169, 197, 171, 214
439, 143, 196, 194, 204
440, 179, 199, 189, 219
441, 177, 169, 171, 214
442, 173, 189, 179, 199
443, 190, 195, 189, 209
444, 173, 175, 185, 200
445, 99, 193, 106, 199
446, 194, 198, 141, 204
447, 190, 204, 146, 212
448, 130, 118, 88, 189
449, 99, 193, 199, 220
450, 128, 116, 154, 194
451, 189, 190, 209, 218
452, 48, 148, 158, 196
453, 191, 205, 79, 211
454, 47, 200, 192, 216
455, 128, 154, 137, 194
456, 99, 104, 106, 193
457, 149, 191, 204, 211
458, 187, 192, 176, 213
459, 198, 204, 190, 212
460, 88, 18, 195, 206
461, 159, 194, 143, 222
462, 173, 189, 203, 207
463, 140, 204, 198, 212
464, 143, 194, 141, 204
465, 118, 189, 130, 219
466, 64, 62, 47, 192
467, 130, 189, 88, 209
468, 19, 206, 189, 207
469, 190, 198, 208, 218
470, 200, 203, 189, 207
471, 104, 193, 99, 220
472, 179, 189, 207, 219
473, 170, 213, 203, 221
474, 179, 189, 173, 207
475, 203, 213, 202, 221
476, 62, 47, 192, 216
477, 197, 170, 203, 221
478, 82, 8, 155, 194
479, 158, 48, 196, 205
480, 141, 194, 154, 198
481, 88, 19, 18, 206
482, 190, 188, 198, 218
483, 188, 201, 198, 208
484, 69, 205, 134, 211
485, 173, 199, 174, 203
486, 188, 208, 198, 218
487, 194, 196, 143, 222
488, 187, 186, 50, 213
489, 118, 207, 189, 219
490, 175, 200, 173, 203
491, 168, 126, 197, 214
492, 192, 200, 175, 203
493, 174, 199, 193, 203
494, 140, 146, 204, 212
495, 190, 210, 121, 212
496, 92, 163, 106, 193
497, 47, 162, 192, 200
498, 113, 121, 210, 212
499, 188, 198, 194, 204
500, 197, 203, 202, 221
501, 194, 217, 196, 222
502, 157, 134, 205, 211
503, 196, 204, 144, 205
504, 65, 200, 47, 216
505, 170, 171, 197, 203
506, 116, 128, 111, 194
507, 122, 190, 121, 212
508, 190, 198, 188, 204
509, 188, 197, 193, 203
510, 145, 149, 204, 211
511, 155, 82, 194, 222
512, 130, 189, 209, 219
513, 157, 134, 151, 205
514, 188, 196, 194, 217
515, 145, 204, 195, 211
516, 8, 137, 155, 194
517, 69, 79, 205, 211
518, 116, 194, 117, 198
519, 149, 191, 144, 204
520, 69, 49, 134, 205
521, 170, 171, 169, 197
522, 188, 196, 215, 223
523, 192, 202, 203, 213
524, 191, 144, 204, 205
525, 106, 193, 178, 199
526, 66, 206, 191, 211
527, 158, 148, 147, 196
528, 159, 155, 194, 222
529, 174, 173, 179, 199
530, 179, 173, 185, 207
531, 92, 106, 104, 193
532, 117, 116, 111, 194
533, 144, 196, 143, 204
534, 191, 204, 196, 205
535, 188, 215, 202, 223
536, 196, 204, 191, 223
537, 191, 204, 195, 223
538, 66, 191, 79, 211
539, 190, 146, 204, 210
540, 194, 196, 188, 204
541, 195, 204, 191, 211
542, 201, 208, 188, 218
543, 121, 190, 122, 220
544, 196, 202, 188, 215
545, 157, 191, 149, 211
546, 196, 217, 202, 222
547, 168, 167, 126, 214
548, 187, 162, 176, 192
549, 193, 197, 188, 201
550, 145, 195, 204, 210
551, 194, 117, 198, 201
552, 168, 126, 5, 197
553, 79, 205, 191, 216
554, 188, 194, 198, 201
555, 188, 204, 196, 223
556, 113, 210, 136, 212
557, 191, 215, 196, 223
558, 64, 57, 62, 192
559, 157, 205, 191, 211
560, 160, 168, 5, 197
561, 142, 141, 198, 204
562, 189, 206, 195, 223
563, 64, 57, 192, 213
564, 159, 155, 137, 194
565, 193, 203, 199, 218
566, 147, 158, 196, 205
567, 121, 210, 190, 220
568, 107, 201, 193, 208
569, 140, 142, 198, 204
570, 157, 144, 149, 191
571, 144, 191, 157, 205
572, 188, 202, 196, 217
573, 159, 143, 132, 222
574, 65, 68, 47, 200
575, 192, 202, 215, 223
576, 172, 192, 175, 203
577, 99, 106, 91, 199
578, 8, 194, 82, 222
579, 69, 79, 49, 205
580, 145, 204, 146, 210
581, 187, 50, 64, 213
582, 147, 196, 144, 205
583, 162, 68, 182, 200
584, 100, 121, 122, 220
585, 188, 202, 197, 203
586, 141, 137, 154, 194
587, 107, 193, 201, 214
588, 119, 201, 129, 217
589, 178, 106, 163, 193
590, 119, 197, 201, 217
591, 77, 206, 19, 207
592, 66, 191, 206, 216
593, 83, 138, 17, 195
594, 143, 144, 147, 196
595, 126, 119, 197, 214
596, 195, 206, 191, 223
597, 175, 192, 162, 200
598, 146, 210, 190, 212
599, 129, 201, 89, 217
600, 170, 172, 203, 213
601, 80, 78, 48, 196
602, 142, 140, 146, 204
603, 80, 196, 48, 205
604, 122, 121, 113, 212
605, 62, 65, 47, 216
606, 143, 196, 132, 222
607, 121, 209, 210, 220
608, 119, 129, 89, 217
609, 192, 203, 172, 213
610, 139, 198, 114, 212
611, 47, 68, 162, 200
612, 176, 186, 187, 213
613, 143, 141, 142, 204
614, 159, 141, 143, 194
615, 128, 137, 8, 194
616, 104, 208, 193, 220
617, 79, 191, 66, 216
618, 88, 112, 120, 195
619, 127, 195, 156, 210
620, 74, 83, 17, 195
621, 193, 208, 201, 218
622, 138, 195, 83, 211
623, 148, 132, 196, 222
624, 76, 217, 87, 221
625, 198, 208, 123, 212
626, 48, 70, 148, 196
627, 190, 204, 195, 210
628, 199, 203, 189, 218
629, 5, 84, 160, 221
630, 88, 18, 112, 195
631, 122, 190, 212, 220
632, 122, 212, 208, 220
633, 104, 107, 92, 193
634, 80, 78, 196, 215
635, 5, 160, 197, 221
636, 92, 163, 193, 214
637, 149, 144, 145, 204
638, 66, 75, 206, 211
639, 92, 193, 107, 214
640, 196, 205, 80, 215
641, 62, 192, 57, 215
642, 146, 136, 210, 212
643, 136, 113, 153, 210
644, 83, 195, 74, 211
645, 76, 197, 217, 221
646, 57, 213, 56, 215
647, 117, 194, 111, 201
648, 87, 217, 202, 221
649, 138, 156, 17, 195
650, 124, 123, 208, 212
651, 127, 17, 156, 195
652, 197, 201, 193, 214
653, 200, 206, 77, 207
654, 18, 74, 195, 206
655, 133, 141, 154, 198
656, 108, 201, 107, 208
657, 112, 195, 127, 210
658, 107, 193, 104, 208
659, 148, 196, 70, 222
660, 81, 215, 205, 216
661, 190, 210, 209, 220
662, 88, 195, 120, 209
663, 106, 178, 91, 199
664, 85, 165, 54, 207
665, 208, 212, 190, 220
666, 196, 202, 59, 222
667, 57, 192, 213, 215
668, 56, 213, 202, 215
669, 7, 8, 72, 194
670, 102, 208, 122, 212
671, 122, 208, 102, 220
672, 188, 203, 193, 218
673, 107, 201, 109, 214
674, 195, 206, 74, 211
675, 175, 172, 162, 192
676, 7, 111, 194, 217
677, 85, 183, 165, 207
678, 195, 209, 190, 210
679, 101, 209, 121, 220
680, 64, 50, 57, 213
681, 163, 177, 174, 193
682, 123, 114, 198, 212
683, 127, 156, 131, 210
684, 148, 132, 147, 196
685, 190, 204, 188, 218
686, 169, 168, 160, 197
687, 140, 142, 141, 198
688, 108, 198, 201, 208
689, 132, 143, 147, 196
690, 158, 135, 71, 205
691, 170, 197, 169, 221
692, 178, 193, 174, 199
693, 158, 71, 48, 205
694, 192, 215, 62, 216
695, 193, 201, 188, 218
696, 108, 123, 198, 208
697, 56, 202, 59, 215
698, 19, 45, 18, 206
699, 59, 202, 196, 215
700, 59, 78, 196, 222
701, 159, 132, 155, 222
702, 111, 128, 8, 194
703, 72, 7, 194, 217
704, 165, 200, 54, 207
705, 86, 77, 200, 206
706, 202, 217, 197, 221
707, 134, 157, 149, 211
708, 7, 111, 8, 194
709, 58, 56, 59, 215
710, 87, 46, 73, 217
711, 151, 71, 135, 205
712, 185, 200, 165, 207
713, 191, 216, 215, 223
714, 127, 112, 17, 195
715, 59, 196, 78, 215
716, 5, 126, 119, 197
717, 89, 117, 111, 201
718, 191, 205, 196, 215
719, 139, 94, 114, 198
720, 7, 89, 111, 217
721, 120, 195, 112, 210
722, 126, 96, 119, 214
723, 74, 17, 18, 195
724, 119, 6, 197, 217
725, 8, 72, 194, 222
726, 78, 70, 48, 196
727, 139, 133, 94, 198
728, 121, 209, 101, 210
729, 5, 76, 84, 221
730, 77, 85, 54, 207
731, 73, 202, 217, 222
732, 110, 181, 92, 214
733, 87, 73, 202, 217
734, 151, 49, 71, 205
735, 5, 197, 76, 221
736, 119, 89, 6, 217
737, 215, 216, 192, 223
738, 18, 45, 74, 206
739, 72, 217, 194, 222
740, 188, 194, 201, 217
741, 90, 113, 152, 212
742, 163, 177, 193, 214
743, 77, 54, 200, 207
744, 189, 203, 200, 223
745, 127, 131, 115, 210
746, 140, 198, 139, 212
747, 92, 107, 110, 214
748, 169, 197, 160, 221
749, 155, 132, 82, 222
750, 59, 78, 58, 215
751, 163, 92, 181, 214
752, 69, 66, 79, 211
753, 112, 127, 115, 210
754, 18, 17, 112, 195
755, 123, 124, 114, 212
756, 172, 176, 192, 213
757, 163, 174, 178, 193
758, 120, 209, 195, 210
759, 100, 101, 121, 220
760, 77, 45, 19, 206
761, 136, 152, 113, 212
762, 200, 203, 192, 223
763, 175, 165, 185, 200
764, 126, 167, 96, 214
765, 172, 176, 162, 192
766, 141, 159, 137, 194
767, 50, 187, 13, 186
768, 93, 153, 113, 210
769, 54, 165, 182, 200
770, 145, 195, 138, 211
771, 140, 133, 139, 198
772, 70, 196, 78, 222
773, 66, 206, 67, 216
774, 80, 58, 78, 215
775, 5, 6, 76, 197
776, 91, 164, 97, 199
777, 6, 76, 197, 217
778, 54, 182, 68, 200
779, 188, 201, 197, 217
780, 91, 98, 99, 199
781, 67, 206, 200, 216
782, 8, 82, 72, 222
783, 152, 139, 114, 212
784, 173, 174, 171, 203
785, 147, 135, 158, 205
786, 124, 208, 102, 212
787, 60, 62, 215, 216
788, 6, 5, 119, 197
789, 73, 59, 202, 222
790, 200, 216, 206, 223
791, 180, 55, 166, 221
792, 172, 175, 173, 203
793, 108, 105, 123, 208
794, 151, 134, 23, 49
795, 79, 81, 49, 205
796, 104, 102, 208, 220
797, 188, 197, 202, 217
798, 99, 199, 98, 220
799, 108, 198, 117, 201
800, 147, 144, 157, 205
801, 164, 184, 97, 219
802, 119, 96, 129, 214
803, 175, 162, 182, 200
804, 108, 107, 105, 208
805, 59, 70, 78, 222
806, 33, 90, 113, 152
807, 148, 27, 132, 51
808, 138, 145, 156, 195
809, 97, 184, 95, 219
810, 191, 205, 215, 216
811, 104, 99, 102, 220
812, 145, 142, 146, 204
813, 107, 108, 109, 201
814, 73, 217, 46, 222
815, 170, 169, 160, 221
816, 19, 118, 20, 207
817, 71, 24, 151, 135
818, 188, 218, 204, 223
819, 74, 206, 75, 211
820, 206, 216, 191, 223
821, 60, 63, 62, 216
822, 202, 213, 192, 215
823, 90, 152, 114, 212
824, 131, 145, 146, 210
825, 116, 117, 94, 198
826, 124, 102, 122, 212
827, 153, 146, 136, 210
828, 20, 161, 183, 207
829, 57, 56, 58, 215
830, 82, 132, 51, 222
831, 77, 54, 86, 200
832, 164, 97, 199, 219
833, 67, 86, 200, 206
834, 170, 172, 171, 203
835, 60, 62, 57, 215
836, 189, 206, 200, 207
837, 12, 187, 64, 47
838, 55, 186, 166, 213
839, 33, 113, 136, 152
840, 76, 46, 87, 217
841, 180, 53, 55, 221
842, 107, 104, 105, 208
843, 49, 24, 151, 71
844, 113, 121, 93, 210
845, 46, 217, 72, 222
846, 129, 109, 201, 214
847, 141, 133, 140, 198
848, 178, 164, 91, 199
849, 55, 50, 186, 213
850, 174, 179, 164, 199
851, 124, 123, 105, 208
852, 20, 77, 19, 207
853, 52, 150, 83, 211
854, 32, 139, 114, 152
855, 94, 123, 114, 198
856, 186, 14, 55, 166
857, 172, 170, 176, 213
858, 83, 150, 138, 211
859, 200, 206, 189, 223
860, 123, 94, 108, 198
861, 130, 209, 103, 219
862, 55, 213, 166, 221
863, 180, 55, 15, 166
864, 64, 187, 13, 50
865, 80, 48, 71, 205
866, 56, 57, 50, 213
867, 150, 69, 134, 211
868, 192, 216, 200, 223
869, 182, 165, 175, 200
870, 97, 103, 199, 219
871, 86, 45, 77, 206
872, 50, 14, 55, 186
873, 199, 209, 98, 220
874, 8, 2, 155, 137
875, 91, 97, 98, 199
876, 103, 209, 199, 219
877, 125, 161, 20, 207
878, 67, 68, 65, 200
879, 161, 207, 125, 219
880, 145, 138, 149, 211
881, 3, 20, 161, 183
882, 191, 206, 195, 211
883, 27, 148, 70, 51
884, 125, 207, 118, 219
885, 199, 193, 218, 220
886, 183, 185, 165, 207
887, 190, 208, 198, 212
888, 1, 5, 160, 168
889, 69, 75, 66, 211
890, 144, 143, 142, 204
891, 132, 155, 82, 28
892, 43, 95, 97, 184
893, 114, 90, 32, 152
894, 67, 200, 65, 216
895, 161, 125, 184, 219
896, 208, 218, 193, 220
897, 85, 20, 183, 207
898, 66, 75, 67, 206
899, 53, 55, 15, 180
900, 117, 108, 94, 198
901, 181, 39, 110, 92
902, 164, 199, 179, 219
903, 67, 75, 86, 206
904, 71, 158, 25, 135
905, 97, 164, 43, 184
906, 6, 46, 76, 217
907, 150, 52, 69, 211
908, 199, 209, 189, 219
909, 163, 106, 40, 92
910, 103, 98, 199, 209
911, 48, 71, 158, 25
912, 131, 153, 115, 210
913, 61, 213, 55, 221
914, 151, 135, 157, 205
915, 125, 20, 118, 207
916, 189, 209, 199, 218
917, 61, 202, 213, 221
918, 72, 46, 7, 217
919, 87, 202, 61, 221
920, 122, 102, 100, 220
921, 34, 153, 136, 113
922, 59, 56, 61, 202
923, 103, 98, 97, 199
924, 180, 160, 84, 221
925, 61, 202, 56, 213
926, 187, 12, 162, 47
927, 185, 161, 179, 207
928, 83, 4, 17, 138
929, 39, 181, 163, 92
930, 61, 87, 73, 202
931, 144, 142, 145, 204
932, 190, 218, 208, 220
933, 146, 140, 136, 212
934, 1, 5, 84, 160
935, 20, 3, 161, 125
936, 147, 157, 135, 205
937, 148, 48, 158, 26
938, 156, 17, 4, 138
939, 184, 125, 95, 219
940, 167, 169, 177, 214
941, 52, 83, 74, 211
942, 179, 207, 161, 219
943, 199, 218, 209, 220
944, 113, 90, 122, 212
945, 75, 74, 45, 206
946, 2, 8, 128, 137
947, 82, 132, 28, 51
948, 166, 213, 170, 221
949, 35, 153, 115, 131
950, 63, 79, 66, 216
951, 98, 209, 101, 220
952, 38, 96, 167, 181
953, 130, 88, 120, 209
954, 153, 131, 146, 210
955, 181, 96, 167, 214
956, 180, 84, 53, 221
957, 178, 174, 164, 199
958, 54, 67, 86, 200
959, 167, 168, 126, 37
960, 102, 105, 104, 208
961, 61, 73, 59, 202
962, 209, 218, 190, 220
963, 115, 127, 36, 131
964, 10, 54, 165, 182
965, 61, 55, 53, 221
966, 181, 38, 96, 110
967, 134, 150, 22, 69
968, 10, 54, 182, 68
969, 181, 110, 96, 214
970, 107, 109, 110, 214
971, 49, 134, 23, 69
972, 97, 95, 103, 219
973, 59, 73, 70, 222
974, 166, 176, 170, 213
975, 163, 181, 177, 214
976, 129, 96, 109, 214
977, 67, 54, 68, 200
978, 100, 98, 101, 220
979, 150, 52, 22, 69
980, 73, 46, 72, 222
981, 154, 133, 94, 30
982, 130, 103, 95, 219
983, 94, 116, 154, 30
984, 53, 87, 61, 221
985, 75, 69, 52, 211
986, 83, 52, 21, 150
987, 164, 91, 97, 42
988, 139, 114, 94, 31
989, 49, 81, 71, 205
990, 90, 124, 122, 212
991, 133, 139, 94, 31
992, 37, 126, 167, 96
993, 183, 9, 85, 165
994, 81, 80, 71, 205
995, 41, 91, 106, 178
996, 129, 117, 89, 201
997, 52, 74, 75, 211
998, 85, 77, 20, 207
999, 189, 218, 203, 223
1000, 149, 150, 134, 211
1001, 153, 34, 93, 113
1002, 166, 170, 180, 221
1003, 153, 93, 115, 210
1004, 60, 57, 58, 215
1005, 54, 85, 9, 165
1006, 131, 127, 36, 156
1007, 95, 118, 130, 219
1008, 8, 2, 82, 155
1009, 61, 56, 55, 213
1010, 20, 3, 85, 183
1011, 65, 62, 63, 216
1012, 76, 87, 53, 221
1013, 188, 203, 218, 223
1014, 138, 83, 21, 150
1015, 124, 90, 114, 212
1016, 184, 44, 95, 125
1017, 40, 178, 106, 163
1018, 152, 140, 139, 212
1019, 124, 105, 102, 208
1020, 44, 184, 161, 125
1021, 26, 148, 48, 70
1022, 100, 102, 99, 220
1023, 56, 50, 55, 213
1024, 127, 17, 4, 156
1025, 121, 101, 93, 210
1026, 115, 153, 35, 93
1027, 115, 120, 112, 210
1028, 109, 117, 129, 201
1029, 84, 53, 16, 180
1030, 152, 136, 140, 212
1031, 186, 176, 166, 213
1032, 172, 173, 171, 203
1033, 16, 84, 180, 160
1034, 95, 125, 118, 219
1035, 1, 5, 168, 126
1036, 84, 76, 53, 221
1037, 86, 75, 45, 206
1038, 99, 98, 100, 220
1039, 103, 101, 98, 209
1040, 6, 89, 7, 217
1041, 116, 128, 154, 29
1042, 27, 28, 132, 51
1043, 70, 73, 51, 222
1044, 136, 34, 113, 33
1045, 137, 154, 128, 29
1046, 178, 91, 164, 42
1047, 65, 63, 66, 216
1048, 25, 24, 71, 135
1049, 167, 177, 181, 214
1050, 164, 179, 184, 219
1051, 82, 51, 72, 222
1052, 185, 183, 161, 207
1053, 115, 36, 35, 131
1054, 60, 58, 80, 215
1055, 180, 170, 160, 221
1056, 138, 150, 149, 211
1057, 108, 117, 109, 201
1058, 41, 91, 178, 42
1059, 67, 65, 66, 216
1060, 184, 179, 161, 219
1061, 167, 37, 96, 38
1062, 54, 9, 10, 165
1063, 120, 101, 209, 210
1064, 14, 15, 55, 166
1065, 110, 109, 96, 214
1066, 6, 7, 46, 217
1067, 120, 103, 130, 209
1068, 12, 11, 162, 47
1069, 52, 22, 21, 150
1070, 50, 13, 14, 186
1071, 39, 163, 40, 92
1072, 33, 32, 90, 152
1073, 106, 41, 178, 40
1074, 161, 3, 44, 125
1075, 84, 16, 1, 160
1076, 24, 151, 23, 49
1077, 128, 2, 137, 29
1078, 13, 12, 187, 64
1079, 21, 4, 83, 138
1080, 30, 133, 94, 31
1081, 114, 139, 32, 31
1082, 93, 120, 115, 210
1083, 120, 93, 101, 210
1084, 53, 15, 16, 180
1085, 29, 154, 116, 30
1086, 44, 95, 43, 184
1087, 43, 164, 97, 42
1088, 22, 23, 134, 69
1089, 25, 158, 48, 26
1090, 38, 181, 39, 110
1091, 182, 11, 10, 68
1092, 120, 101, 103, 209
1093, 27, 148, 26, 70
1094, 72, 51, 73, 222
1095, 85, 3, 9, 183
1096, 4, 36, 127, 156
1097, 2, 82, 155, 28
1098, 34, 35, 153, 93
1099, 126, 168, 1, 37
1100, 207, 173, 200, 203
1101, 207, 200, 173, 185
1102, 203, 177, 174, 171
1103, 203, 174, 177, 193
1104, 217, 111, 201, 89
1105, 217, 201, 111, 194
1106, 214, 168, 169, 197
1107, 214, 169, 168, 167
1108, 68, 162, 11, 47
1109, 68, 11, 162, 182
1110, 201, 119, 214, 197
1111, 201, 214, 119, 129
1112, 216, 81, 79, 205
1113, 216, 79, 81, 63
1114, 223, 202, 203, 192
1115, 223, 203, 202, 188
1116, 187, 47, 192, 64
1117, 192, 47, 187, 162
1118, 216, 60, 81, 215
1119, 216, 81, 60, 63
1120, 210, 156, 145, 195
1121, 210, 145, 156, 131
1122, 215, 81, 80, 60
1123, 215, 80, 81, 205
1124, 154, 94, 198, 116
1125, 154, 198, 94, 133
1126, 148, 51, 222, 70
1127, 222, 51, 148, 132
