*Heading
 I:\Project\ModelExamples\Korpus3D.inp
*NODE
1, -38.38, 252.33122906124, -35.639933745699
2, -32.476066406026, 260.4084827107, -30.335106885583
3, -47.19931166281, 249.94963534739, 7.5406261096367e-14
4, -44.44, 256.03416113822, 9.876488065595e-14
5, -50.403735322216, 245.76637713018, 7.0535039572601e-14
6, -38.38, 252.07226637578, -45.529316153373
7, -49.333118040016, 245.24179720534, -45.529316153373
8, -59.30987329611, 224.88019720535, -45.529316153373
9, -60.38049057831, 225.40477713018, 6.5506988634565e-14
10, -59.30987329611, 204.36980279465, -45.529316153373
11, -60.38049057831, 203.84522286982, -6.9388939039072e-15
12, -53.708087779673, 192.93709616373, -45.529316153373
13, -54.440099791761, 191.72155028357, -4.4471503601724e-11
14, -52.197438849472, 190.58855719329, -45.538878723883
15, -52.199165235615, 190.58717014061, -45.503795258885
16, -52.333386632385, 190.47058221964, -39.444164797124
17, -53.206760825006, 189.72194909544, 1.2519667352839e-07
18, -51.560863531437, 184.83519277061, 3.2585335775654e-13
19, -50.527323114255, 185.38109819697, -39.469316153385
20, -50.368636429546, 185.46770475237, -45.529316153382
21, -50.368636429546, 179.2615584199, -45.529316153373
22, -50.527323114255, 179.2615584199, -39.469316153373
23, -50.527323114255, 141.69392765784, -39.469316153373
24, -50.707611324416, 134.62635037026, -32.58438717791
25, -51.560863531437, 133.77309816324, 7.6775961306079e-14
26, -48.052932156647, 131.22310614868, -18.291114133517
27, -47.67864962974, 131.59738867558, -32.584387177909
28, -49.325445155993, 130.84987701335, 7.932246973518e-14
29, -43.269056227803, 129.36494445862, -16.572829662837
30, -46.450520369566, 129.4066679353, 8.2213904384156e-14
31, -46.348622170933, 123.13347598391, 4.8711849913746e-09
32, -43.236794394309, 123.16059016054, -16.606626725593
33, -41.367446591405, 109.74944940634, -38.571595220887
34, -56.559679142296, 110.84966361995, 4.3945248997985e-06
35, -61.609850469452, 105.7985456849, 1.6445318040885e-05
36, -45.062558538341, 104.70122509572, -41.881576591425
37, -84.234928444342, 105.79793277552, 4.7052241019717e-14
38, -73.518142926769, 104.86497248876, -35.62831593676
39, -83.827951436426, 105.19470746545, -23.036245200368
40, -87.264, 102.76829563946, 4.4226828786221e-14
41, -86.857478690986, 102.16574577078, -23.010451134763
42, -87.264, 63.881704360535, 0
43, -86.857478690986, 64.484254229222, -23.010451134763
44, -84.234928444342, 60.85206722448, 5.203957101315e-14
45, -83.827951436426, 61.455292534546, -23.036245200368
46, -73.518142926769, 61.785027511242, -35.62831593676
47, -45.062564673277, 61.948775053975, -41.881582307371
48, -61.609850468902, 60.851453603126, 1.6465034744611e-05
49, -56.559679215064, 55.80033869307, 4.3567781043079e-06
50, -41.367448067182, 56.900550548461, -38.571593638022
51, -46.613117184222, 243.90905405969, -48.48
52, -38.38, 249.04330468111, -48.48
53, -53.811389628137, 229.21807054831, -48.480000260316
54, -56.678683972166, 223.59096983613, -48.478393452012
55, -57.633831545406, 220.98893051195, -48.48
56, -56.589872440316, 205.70254594031, -48.48
57, -50.988086923879, 194.26983930939, -48.48
58, -47.33967473487, 190.38016342926, -48.48
59, -50.368370663553, 185.46814060192, -45.538887409684
60, -47.33967473487, 179.2615584199, -48.48
61, -49.67754747342, 176.72837339478, -45.518352205226
62, -49.992094739348, 172.63254284707, -41.111102591328
63, -47.498361419579, 167.58821992661, -42.42
64, -47.498361419579, 141.69392765784, -42.42
65, -39.951858247436, 131.59738867558, -32.584387177909
66, -35.529040310492, 129.17686426692, -29.090934041324
67, -38.952473461464, 129.24784245701, -24.583521059614
68, -39.087990083348, 123.22132923593, -24.710916737434
69, -32.275433398771, 63.754465185485, -47.414461218767
70, -30.517771086488, 61.587474666949, -47.62036589436
71, -27.02817555707, 65.114432502762, -49.68411547826
72, -32.34549086763, 101.59534050339, -47.699211948753
73, -27.02817555707, 101.53556749724, -49.68411547826
74, -32.34549086763, 65.054659496607, -47.699211948753
75, -30.517771086488, 105.06252533305, -47.62036589436
76, -32.275432640131, 102.89553588394, -47.414460863493
77, -74.168483602177, 101.83601079408, -38.508384348784
78, -74.168483602177, 64.813989205918, -38.508384348784
79, -35.618690965912, 123.38313969702, -29.203784652719
80, -25.33731300646, 127.08985367368, -36.509370983525
81, -29.944097189453, 133.5805532222, -38.335243575042
82, -56.638290113532, 223.57434009297, -48.48
83, -45.368999433663, 174.59266608512, -46.827272727273
84, -45.368999433663, 177.2915584199, -48.48
85, -46.207500627242, 174.66935437325, -46.826872148272
86, -32.32, 174.47780298412, -46.827272727273
87, -33.62073397524, 174.5493034907, -46.827272727273
88, -33.766722599978, 177.2915584199, -48.48
89, -32.32, 177.17669531889, -48.48
90, -34.40958432761, 174.59266608512, -46.827272727273
91, -45.368999433663, 167.39561985905, -42.42
92, -34.40958432761, 167.39561985905, -42.42
93, -23, 209.3865977817, 0
94, -23.000000000001, 195.89919091507, 8.6138783364696e-14
95, -18.346218433427, 190.86476346796, 1.1233818840476e-15
96, -14.292268939946, 190.54571494712, 2.1887573400047e-14
97, -11.500000000001, 187.52504611399, 0
98, -11.5, 162.76293597548, 9.7690990845246e-14
99, -15, 156.13270219379, 0
100, -15, 146.73770844575, 0
101, -17.792268939945, 143.71704892454, 0
102, -22.346218433426, 143.3586528241, 2.7545908705846e-14
103, 1.6187504850816, 143.35841697027, -22.290409063263
104, -12.820672478208, 160.26111675275, -1.2601418205886e-14
105, 16.159999999999, 217.32793268208, 0
106, 18.740971357408, 214.33138912689, 0
107, -18.740971357409, 214.33138912689, -1.8493727916081e-14
108, 16.159999999999, 273.20507692566, 0
109, -16.160000000001, 273.20507692566, 0
110, -0.54274411420264, 239.95644351897, 47.287891191305
111, -3.9600118500148, 248.03496554543, 47.3770743144
112, -5.6128048443173, 246.38219515843, 48.479976461784
113, -2.951695409612, 239.95641960193, 48.479981458409
114, -1.0526877860524e-14, 269.45180113372, 44.44
115, -44.439950699672, 270.17461524143, 6.7701537444388e-06
116, 1.6372728443827e-08, 272.48128911641, 41.462879512083
117, -41.409965826473, 273.20502540245, -8.8248494663825e-07
118, 41.40996582626, 273.20502538424, -8.8280257338834e-07
119, -52.37811706703, 190.43180852296, 37.424085759652
120, -52.199144247889, 190.58718728027, 45.503789046145
121, -52.198413910896, 190.58775702147, 45.538889280941
122, -53.708093200001, 192.9370935007, 45.529315937486
123, -32.476738827657, 260.40850489531, 30.334386941503
124, -21.83876679974, 260.1494977188, 38.703770677629
125, -25.809441031903, 252.07226637578, 45.529316153376
126, -38.38, 252.33122906124, 35.639933745699
127, -10.186491110163, 258.59655016315, 43.256779802276
128, -12.03858039775, 251.64873421606, 46.996812700895
129, 4.9758171768364, 239.95641959708, 44.16055755335
130, 4.9758171768365, 212.56527387394, 44.16055755335
131, -0.54291172037962, 212.56527387394, 47.288113591576
132, 7.2414817993356, 208.88245274939, 43.846032219003
133, 5.8981424478404, 202.81928499459, 47.186737657365
134, -2.8260012798605e-15, 168.60656113091, 44.44
135, -2.3375050108562e-15, 174.8393859949, 47.378181818182
136, 15.193569644442, 189.37499999998, 45.907479834989
137, -17.092307692308, 166.48786002219, 41.021538461538
138, -20.2, 174.26155841979, 46.276363636364
139, -20.2, 166.48786002219, 40.4
140, -32.32, 166.48786002219, 40.4
141, -32.32, 174.26155841979, 46.276363636364
142, -34.452724036979, 166.6027231232, 40.4
143, -33.617802520219, 174.33145476802, 46.276363636364
144, -50.580251880809, 185.35238419436, 37.449313972889
145, -2.9516953188927, 212.56527387394, 48.48
146, -50.988086580093, 194.26983947631, 48.479950758708
147, -47.339674632709, 190.38016362607, 48.47995101127
148, -47.339674351521, 179.26155841988, 48.479950561757
149, -45.368999438934, 177.29155881914, 48.479949213077
150, -33.766722599978, 177.2915584199, 48.48
151, -32.32, 177.17669531889, 48.48
152, -1.9616370045345e-15, 177.17669531889, 48.48
153, 4.9006527956205, 200.54559708654, 48.48
154, -12.038580395887, 249.0433045479, 48.479976181481
155, -38.38, 249.04330468111, 48.48
156, -46.613117184222, 243.90905405969, 48.48
157, -56.589872440316, 223.54745405969, 48.48
158, -56.589872440316, 205.70254594031, 48.48
159, -49.333118040016, 245.24179720534, 45.529316153373
160, -59.30987329611, 224.88019720535, 45.529316153373
161, 32.345490867522, 101.59534052304, 47.699211948777
162, 32.275433398771, 102.89553481452, 47.414461218767
163, 27.028175646904, 101.53556752209, 49.684115429391
164, 27.028175557072, 65.114432502916, 49.684115478259
165, 32.345490867626, 65.054659495938, 47.699211948754
166, 32.275433398771, 63.754465185486, 47.414461218767
167, -32.275433398771, 63.754465185486, 47.414461218767
168, -32.345490867522, 65.054659476963, 47.699211948777
169, -27.028175646904, 65.114432477913, 49.684115429391
170, -74.168483603933, 101.83601079445, 38.508384348398
171, -74.168483603936, 64.813989205556, 38.508384348397
172, -32.345490867626, 101.59534050406, 47.699211948754
173, -27.028175557072, 101.53556749708, 49.684115478259
174, -32.275433398771, 102.89553481452, 47.414461218767
175, 47.986954127143, 181.65106916518, 22.873930834823
176, 48.062460255745, 184.14327057947, 18.754672096802
177, 44.058070913183, 181.65106916474, 22.873930835255
178, 29.932908350385, 167.08322151002, 37.441778489984
179, 47.605481611007, 167.08322150952, 37.441778490482
180, 20.2, 159.94144302003, 40.4
181, 47.551256981503, 159.9414430207, 40.4
182, 20.2, 141.64103209627, 40.4
183, 47.551256981503, 141.64103209497, 40.4
184, 32.573615212103, 133.55704408372, 36.354679001648
185, 41.495167659881, 131.54449311401, 30.564387177909
186, 47.731545191644, 131.54449311405, 30.564387179282
187, -41.495167659881, 131.54449311401, 30.564387177909
188, -47.731545191644, 131.54449311405, 30.564387179282
189, -32.573615212103, 133.55704408372, 36.354679001648
190, -20.2, 141.64103209627, 40.4
191, -47.551256981503, 141.64103209497, 40.4
192, -45.368999433663, 166.6027231232, 40.4
193, -47.551256981149, 166.79222118041, 40.4
194, -59.30987329611, 204.36980279465, 45.529316153373
195, -49.567576746388, 170.3534937034, 39.631714969731
196, -50.580218675825, 179.2615584199, 37.449316153373
197, -50.580168781993, 141.64103209353, 37.449314456767
198, -50.760455656489, 134.57345521429, 30.564385828575
199, -48.052932156647, 131.22310614868, 18.291114133526
200, -45.062565162157, 104.70130889729, 41.881584945614
201, -73.518142846147, 104.86492211796, 35.628314230439
202, -83.827951025269, 105.19465576751, 23.036243843769
203, -86.857478690954, 102.1657457711, 23.010451136585
204, -86.857478690954, 64.484254228901, 23.010451136581
205, -73.518142846157, 61.785077881183, 35.628314230469
206, -83.827951025279, 61.455344231614, 23.036243843782
207, -45.06256516421, 61.948690861194, 41.881584953834
208, 45.062565162166, 61.948691102711, 41.881584945605
209, 73.518142846155, 61.785077882038, 35.628314230437
210, 74.16848360423, 64.813989205493, 38.508384348333
211, 83.827951025269, 61.455344232491, 23.036243843756
212, 86.857478690948, 64.484254228855, 23.010451136881
213, 86.857478690948, 102.16574577114, 23.010451136887
214, 74.168483604226, 101.83601079451, 38.508384348333
215, 83.827951025279, 105.19465576839, 23.036243843792
216, 73.51814284615, 104.86492211882, 35.628314230471
217, 45.062565164201, 104.70130913881, 41.881584953844
218, 30.517771086488, 105.06252533305, 47.62036589436
219, 41.367793120409, 109.74946008726, 38.571223595455
220, 30.517771086488, 61.587474666949, 47.62036589436
221, 41.367790041465, 56.90054000823, 38.571226897111
222, -30.517771086488, 61.587474666949, 47.62036589436
223, -41.367793104658, 56.90053991323, 38.571223612348
224, -30.517771086488, 105.06252533305, 47.62036589436
225, -41.367790042823, 109.74945999181, 38.571226895654
226, 48.052932156647, 131.22310614868, 18.291114133517
227, 50.760455647272, 134.5734552144, 30.56438582833
228, 50.580168773016, 141.64103209353, 37.449314456428
229, 50.580169299159, 159.94144302142, 37.449314476247
230, 50.634393531188, 164.94068768867, 35.378559519109
231, 51.015865508045, 179.50853533925, 20.810711845626
232, 48.566066360779, 184.55987905537, 16.270871605805
233, 51.137085256271, 181.56960108152, 16.181482349577
234, 37.068327640376, 123.32031383754, 27.45666326367
235, 27.562289794857, 127.08985367368, 34.86020340251
236, 39.087990083348, 123.22132923593, 24.710916737434
237, -39.087990083347, 123.22132923593, 24.710916737435
238, -37.068327640376, 123.32031383754, 27.45666326367
239, -27.562289794857, 127.08985367368, 34.86020340251
240, -50.368636429537, 179.26155841921, 45.529316153727
241, -50.368498610048, 185.46785572596, 45.534101983588
242, -32.319999999999, -0.60609231079461, 1.1093990280067e-13
243, 32.320000000001, -0.60609231079461, 0
244, 53.529973461435, -0.60603995301897, -8.7099537197007e-07
245, -53.529973461435, -0.60603995301896, -8.7099532431736e-07
246, 56.559936332752, 2.4243693710341, 6.9969925171685e-06
247, -56.559936331388, 2.4243693711224, 7.0017435214157e-06
248, 61.609850469461, 60.851454314945, 1.6457952095704e-05
249, 56.559679142237, 55.800336380047, 4.3945743006208e-06
250, 84.234928444342, 60.85206722448, 0
251, 87.264, 63.881704360535, -1.068675782808e-14
252, 87.264, 102.76829563946, -1.068675782808e-14
253, 84.234928444342, 105.79793277552, 0
254, 61.60985046891, 105.79854639696, 1.647766740943e-05
255, 56.559679214976, 110.84966130709, 4.3537112118572e-06
256, 49.325445155993, 130.84987701335, -2.7178996900301e-13
257, 51.560863531437, 133.77309816324, 0
258, 51.560863531437, 182.41763711218, 0
259, 49.620839296742, 185.24576038565, 1.5681032861092e-13
260, 44.439950699673, 270.17461524143, 6.7701544827649e-06
261, -38.38, 252.07226637578, 45.529316153373
262, 42.127635138338, 192.53455799339, 14.148355298447
263, 44.44, 192.80243098581, 0
264, 40.668221937043, 191.85562173365, 17.916733086124
265, 37.279906157308, 187.36449195673, 24.189299223051
266, 25.327845527249, 172.796644302, 36.515939546283
267, 17.092307692308, 159.94144302003, 41.021538461538
268, 46.450520293715, 129.40666802815, 0
269, 43.269056227803, 129.36494445862, 16.572829662837
270, 17.092307692308, 141.64103209627, 41.021538461538
271, 38.952473461464, 129.24784245701, 24.583521059614
272, 36.962150486044, 129.2046294847, 27.337762422649
273, -17.092307692308, 141.64103209627, 41.021538461538
274, -36.962150486044, 129.2046294847, 27.337762422649
275, -38.952473461465, 129.24784245701, 24.583521059614
276, -43.269056227801, 129.36494445862, 16.572829662845
277, -45.368999446729, 174.37651756372, 46.276336502714
278, -34.452724036979, 174.3764215208, 46.276363636364
279, -49.029889990792, 175.85638414801, 45.508077519425
280, -46.211098807039, 174.45065767178, 46.276049750053
281, 46.348621588169, 123.13347632931, 0
282, 43.23679439431, 123.16059016054, 16.606626725589
283, -43.236794394308, 123.16059016054, 16.606626725596
284, 32.34549086763, 101.59534050339, -47.699211948753
285, 74.168483602177, 101.83601079408, -38.508384348784
286, 74.168483602177, 64.813989205918, -38.508384348784
287, 32.34549086763, 65.054659496607, -47.699211948753
288, 86.857478690986, 102.16574577078, -23.010451134763
289, 86.857478690986, 64.484254229222, -23.010451134763
290, 45.062558086454, 61.948774916975, -41.881577076102
291, 73.518142926769, 61.785027511242, -35.62831593676
292, 32.275432279938, 63.754463921111, -47.414460846869
293, 27.02817555707, 101.53556749724, -49.68411547826
294, 27.02817555707, 65.114432502762, -49.68411547826
295, 32.275433398771, 102.89553481452, -47.414461218767
296, 45.062564673277, 104.70122494602, -41.881582307371
297, 73.518142926769, 104.86497248876, -35.62831593676
298, 41.367446602713, 56.90055059331, -38.57159520876
299, 83.827951436426, 61.455292534546, -23.036245200368
300, 83.827951436426, 105.19470746545, -23.036245200368
301, 41.367448070133, 109.74944945163, -38.571593634857
302, 43.236794394308, 123.16059016054, -16.606626725596
303, 43.269056227802, 129.36494445862, -16.572829662845
304, 48.052932156647, 131.22310614868, -18.291114133526
305, 47.73154519131, 131.54449311401, -30.564387177909
306, 50.760506885985, 134.57345480869, -30.564387177909
307, 50.580218675825, 141.64103209627, -37.449316153373
308, 50.580218675825, 159.94144302003, -37.449316153373
309, 50.634443305336, 164.94068796302, -35.378561096362
310, 51.015915821455, 179.50853561775, -20.810713441633
311, 51.137136468152, 181.56960148548, -16.181483709281
312, 48.566090055841, 184.56004453015, -16.270880302247
313, 42.127635138338, 192.53455799339, -14.148355298447
314, 30.517771086488, 61.587474666949, -47.62036589436
315, 30.517771086488, 105.06252533305, -47.62036589436
316, 48.062450527787, 184.1444807407, -18.755054766591
317, 40.668221937043, 191.85562173365, -17.916733086124
318, 44.058070913182, 181.65106916474, -22.873930835255
319, 37.279906157308, 187.36449195673, -24.189299223051
320, 29.932908350385, 167.08322151002, -37.441778489984
321, 25.327845527249, 172.796644302, -36.515939546283
322, 20.2, 159.94144302003, -40.4
323, 17.092307692308, 159.94144302003, -41.021538461538
324, 20.2, 141.64103209627, -40.4
325, 17.092307692308, 141.64103209627, -41.021538461538
326, 32.573615212103, 133.55704408372, -36.354679001648
327, 27.562289794857, 127.08985367368, -34.86020340251
328, -12.206349206325, 141.69392765784, -42.730769230769
329, -14.425685425656, 141.69392765784, -42.42
330, -12.206349206325, 167.28075675805, -42.730769230769
331, -14.425685425656, 167.28075675805, -42.42
332, -10.186491110163, 167.62344983685, -43.256779802276
333, -12.038581143104, 174.57235102789, -46.996169515769
334, -14.425685425656, 174.47780298412, -46.827272727273
335, -0.54291172037966, 186.26358040292, -47.288113591576
336, 4.9758171768363, 186.26358040292, -44.16055755335
337, 4.9758171768364, 239.95641959708, -44.160557553349
338, -0.54291172037964, 239.95641959708, -47.288113591576
339, -12.038580402921, 251.64873526712, -46.9968133247
340, -10.186491110163, 258.59655016315, -43.256779802276
341, -25.809441031902, 252.07226637578, -45.529316153373
342, -21.836100820461, 260.14945096173, -38.705274726116
343, 39.087990083347, 123.22132923593, -24.710916737435
344, 38.952473461465, 129.24784245701, -24.583521059615
345, 36.962150486044, 129.2046294847, -27.337762422649
346, 41.495167659881, 131.54449311401, -30.564387177909
347, 47.551256981149, 141.64103209627, -40.4
348, 47.551256981149, 159.94144302003, -40.4
349, 47.605481610661, 167.08322151002, -37.441778489984
350, 47.986954126779, 181.65106916474, -22.873930835255
351, 37.068327640376, 123.32031383754, -27.45666326367
352, -2.9516953188927, 186.26358040292, -48.48
353, -12.038580402921, 177.17669531889, -48.48
354, -2.9516953188927, 239.95641959708, -48.48
355, -12.038580402921, 249.04330468111, -48.48
356, 0.41356991989197, 97.934126576543, -30.838100353925
357, 0.5570518019438, 97.934110755009, -30.835858066735
358, 0.72914341205248, 97.934118536006, -30.832276582345
359, 0.65931812638033, 100.887533547, -27.87967153278
360, 0.73350634269548, 103.03006709399, -26.990034613635
361, 0.63833656034217, 103.03006709399, -26.99245313853
362, 0.73350634269523, 138.32421279126, -26.990034613635
363, 1.955615429071, 138.32421279126, -26.929084059685
364, 0.43340471028201, 94.363221510017, -32.31709393428
365, -32.32, 94.363221510016, 1.2471852543772e-13
366, 0.97057276454018, 123.22133141879, -46.233738034819
367, 1.1643711771387, 115.47331492857, -55.465426133841
368, -26.51094879099, 115.47332434017, -48.733331572283
369, 27.028175536048, 113.15220026592, -49.684115441382
370, -27.028175536048, 113.15220026592, -49.684115441382
371, 27.028175536048, 3.2442382598493, -49.684115441382
372, -32.852983920111, 141.69392669515, -42.42
373, -24.268831769315, 141.69392677069, -42.42
374, -32.86844461995, 167.2886479445, -42.42
375, -32.321861724081, 167.46016986896, -42.420991667535
376, -24.229861836277, 167.28075675805, -42.42
377, -34.241911805412, 254.74740359836, -31.837271960141
378, -44.984409620953, 250.96551151598, -18.385748782885
379, -45.161911396314, 252.69353757186, 9.7825338989823e-08
380, -41.334110820442, 258.04125789605, -16.321914215643
381, -44.834186701026, 250.22472371951, -45.529316153373
382, -49.868426681116, 245.50408716776, -22.764658076686
383, -59.84518193721, 225.14248716776, -22.764658076686
384, -59.84518193721, 204.10751283224, -22.764658076686
385, -54.074280978239, 192.32965746139, -22.764652164286
386, -53.020977249715, 191.71892046754, -45.536355115042
387, -52.19870998628, 190.58752875854, -45.521352480098
388, -52.266275318721, 190.52887718141, -42.473979995544
389, -52.771281379065, 190.09532563313, -19.722126917573
390, -53.871929607268, 190.69183497513, 0.0015792931170374
391, -51.987591286748, 187.4118585614, -2.3384414990945e-05
392, -51.04409190145, 185.1040496678, -19.734712357609
393, -50.997719295564, 188.0791574991, -39.443290816471
394, -50.447979739623, 185.42431516694, -42.499317385998
395, -50.527323114255, 160.47774303887, -39.469316153373
396, -50.579857436217, 136.76007733152, -37.463111337432
397, -51.560863531437, 159.30414546693, 0
398, -48.926392734581, 131.04069035968, -9.1617806972358
399, -50.938075066055, 131.93300195734, -8.4646916212461e-14
400, -49.81899282763, 132.4867242482, -32.617819338109
401, -45.547145904294, 129.35972762539, -8.4252042433096
402, -47.816115624163, 130.27142232104, 1.0742237196918e-08
403, -44.905921912402, 126.29434948203, -0.022201501044219
404, -41.901821731583, 126.26689546314, -16.057831337688
405, -45.54352475993, 123.15743683066, -8.4460849221864
406, -52.625342237786, 110.26387769926, -20.726211148973
407, -58.037891534969, 107.27860280496, -1.0361127804407e-06
408, -57.300163635717, 105.20859500572, -22.505901434045
409, -42.47336254498, 106.21103007651, -39.507276738829
410, -80.859779455645, 104.98298724709, -31.121514141848
411, -86.376990401862, 104.91055756288, -1.686368059084e-14
412, -85.968267686005, 104.3063247865, -23.051144984965
413, -87.264, 83.325, 0
414, -86.857478690986, 83.325, -23.010451134763
415, -86.376990401862, 61.739442437124, 5.9132386487359e-15
416, -85.968267686007, 62.343675213501, -23.051144984965
417, -57.30017574887, 61.441404192639, -22.505870820747
418, -80.8597140878, 61.667014840897, -31.121593878753
419, -58.038464536184, 59.370814791823, -0.00064304895914542
420, -52.625342237786, 56.386122300737, -20.726211148973
421, -42.473364732314, 60.438972912734, -39.507278700066
422, -48.511758449098, 244.83934830075, -47.620394888577
423, -38.38, 251.15760977443, -47.620394888577
424, -43.231410826056, 247.65456449439, -48.48
425, -55.32064104335, 226.44303216302, -48.478217907357
426, -58.520072866972, 224.49321162549, -47.58559568731
427, -57.19856123945, 222.30547839877, -48.47963219204
428, -58.488513705192, 204.77225169925, -47.620394888577
429, -52.886886038201, 193.33945292974, -47.62060206538
430, -49.454607669317, 192.05230629034, -48.48
431, -50.415581171926, 190.57948297423, -47.946353894961
432, -50.368507348501, 185.46793957078, -45.534101117843
433, -50.840156289018, 188.18615231407, -45.502644926706
434, -49.039319654654, 187.34808153285, -47.958406960944
435, -49.45397982819, 179.2615584199, -47.620394888577
436, -50.190126835765, 177.94938557076, -45.523847486814
437, -50.287002657351, 177.99177574949, -42.518908447206
438, -50.391001176001, 175.9385485085, -40.29948438092
439, -49.230460155899, 169.87376190366, -41.871452932671
440, -49.612666512899, 141.69392765784, -41.560394888577
441, -47.555761466253, 134.64607671239, -39.553962726599
442, -44.583563883055, 131.41886658393, -25.766903547247
443, -37.308161135092, 129.21144492344, -26.888391329317
444, -41.303362991538, 129.30644586348, -20.681989099239
445, -37.883966382093, 126.19362852388, -23.918410822418
446, -41.360322764126, 123.19255635505, -20.760087242097
447, -35.957559207562, 58.211229270705, -43.658762419584
448, -38.700132272846, 62.452056579184, -44.85313080408
449, -29.600338834403, 64.427332891205, -48.434765936816
450, -28.767562605696, 63.318870966798, -48.697648213562
451, -29.61682789146, 101.57109637679, -48.504295289437
452, -32.34549086763, 83.325, -47.699211948753
453, -29.61682789146, 65.078903623205, -48.504295289437
454, -27.028175536048, 83.325, -49.684115441382
455, -28.767564653782, 103.33113112554, -48.697647005696
456, -29.600336720432, 102.22266456596, -48.4347755425
457, -35.957541968772, 108.43876510784, -43.658776925869
458, -38.699834544074, 104.19790309062, -44.8532589348
459, -32.325849651147, 102.26167887313, -47.627205815116
460, -53.256987234903, 101.71567564874, -43.103798148769
461, -73.972235005, 103.95094464772, -37.670733786326
462, -83.203733054067, 101.96009804489, -32.961799357079
463, -74.168483602177, 83.325, -38.508384348784
464, -83.203733054067, 64.689901955107, -32.961799357079
465, -73.972235005, 62.699055352282, -37.670733786326
466, -32.325849682563, 64.388321706056, -47.627205943043
467, -53.256987234903, 64.934324351263, -43.103798148769
468, -34.631108910176, 126.2501913521, -28.365832166553
469, -38.685389952125, 123.24227274485, -25.29125888347
470, -38.273022336053, 123.26306330067, -25.867674377674
471, -37.850880910136, 123.28369359172, -26.439970060828
472, -37.418959349382, 123.30415630632, -27.007952773717
473, -36.983198703207, 123.32417510327, -27.563954946281
474, -36.537904474317, 123.34401661629, -28.115384679355
475, -36.083070587093, 123.36367382201, -28.662056429361
476, -30.590721002788, 128.53915853328, -33.107629090135
477, -34.507737459071, 123.49239818435, -30.335451020183
478, -33.183590867194, 123.74900776863, -31.426341765566
479, -31.953480770017, 124.08571937399, -32.294368660075
480, -30.522059712826, 124.57795872878, -33.214885632522
481, -29.35299566518, 125.05435108214, -33.934489269882
482, -28.091529707407, 125.63334440208, -34.710462945321
483, -26.749115722842, 126.31262842896, -35.562285799565
484, -27.274818484817, 130.85071708617, -36.512888142131
485, -35.050637545853, 132.20187750534, -35.771900901897
486, -55.266483264999, 226.41795753619, -48.48
487, -56.658206685192, 223.58340872761, -48.479145488476
488, -57.179033319257, 222.29818484576, -48.48
489, -45.368999433663, 175.71508237729, -48.024374597408
490, -45.78992572014, 174.61276444626, -46.826737825651
491, -48.239776866973, 175.38605500007, -46.4630273748
492, -46.762347835844, 177.86864764569, -48.480157702186
493, -46.7412245026, 171.73937963183, -43.609352948326
494, -33.649772078484, 175.68892023931, -48.041026385686
495, -32.32, 175.59432942625, -48.03399268223
496, -34.168402961256, 175.72834965363, -48.032513755334
497, -46.438017877763, 167.44396559276, -42.42
498, -45.368999433663, 171.61526223942, -43.609352847387
499, -34.40958432761, 171.61526223942, -43.609352847387
500, -34.014563847086, 174.58181453746, -46.827272727273
501, -33.947079811997, 171.58983866489, -43.609352847387
502, -14.340265442751, 209.3865977817, -17.982124096765
503, 5.1179814809949, 209.3865977817, -22.423341980182
504, 20.722283961755, 209.3865977817, -9.9793259997038
505, 20.722283961755, 209.3865977817, 9.9793259997038
506, 5.1179814809948, 209.3865977817, 22.423341980182
507, -14.340265442751, 209.3865977817, 17.982124096765
508, -23.000000000001, 202.64289434839, -5.6331892275829e-15
509, -14.340265442752, 195.89919091507, 17.982124096765
510, 5.1179814809939, 195.89919091507, 22.423341980182
511, 20.722283961754, 195.89919091507, 9.9793259997038
512, 20.722283961754, 195.89919091507, -9.9793259997038
513, 5.1179814809939, 195.89919091507, -22.423341980182
514, -14.340265442752, 195.89919091507, -17.982124096765
515, 1.8830234285785e-07, 190.86475837972, -18.346218433426
516, 18.346218433424, 190.86475837972, 1.6956929131799e-10
517, -1.8824255457335e-07, 190.86475837972, 18.346218433426
518, -16.31924143505, 190.70526061874, -3.9969293501846e-15
519, 7.8754037321185e-08, 190.5457056352, 14.292268939946
520, 14.292268939944, 190.5457056352, -1.5336596140896e-07
521, -2.2794441769706e-07, 190.5457056352, -14.292268939946
522, -7.1701327213768, 187.52504611399, -8.9910620483823
523, 2.5589907404962, 187.52504611399, -11.211670990091
524, 10.361141980876, 187.52504611399, -4.9896629998519
525, 10.361141980876, 187.52504611399, 4.9896629998519
526, 2.5589907404962, 187.52504611399, 11.211670990091
527, -7.1701327213768, 187.52504611399, 8.9910620483824
528, -11.5, 175.14399104474, -2.8165946137915e-15
529, -7.1701327213758, 162.76293597548, 8.9910620483823
530, 2.5589907404972, 162.76293597549, 11.211670990091
531, 10.361141980877, 162.76293597549, 4.9896629998519
532, 10.361141980877, 162.76293597549, -4.9896629998519
533, 2.5589907404972, 162.76293597549, -11.211670990091
534, -7.1701327213758, 162.76293597548, -8.9910620483824
535, -9.3523470278814, 156.13270219378, -11.72747223702
536, 3.3378140093443, 156.13270219379, -14.623918682727
537, 13.514533018536, 156.13270219379, -6.5082560867635
538, 13.514533018536, 156.13270219379, 6.5082560867632
539, 3.3378140093445, 156.13270219379, 14.623918682727
540, -9.3523470278813, 156.13270219378, 11.727472237021
541, -15, 151.43520531977, -3.6738190614671e-15
542, -13.514533018537, 146.73770844575, 6.5082560867634
543, -9.3523470278814, 146.73770844575, 11.72747223702
544, -3.3378140093451, 146.73770844575, 14.623918682727
545, 3.3378140093443, 146.73770844575, 14.623918682727
546, 9.3523470278805, 146.73770844575, 11.72747223702
547, 13.514533018536, 146.73770844575, 6.5082560867635
548, 15, 146.73770844575, 1.2174099619025e-13
549, 13.514533018536, 146.73770844575, -6.5082560867632
550, 9.3523470278807, 146.73770844575, -11.72747223702
551, 3.3378140093445, 146.73770844575, -14.623918682727
552, -3.337814009345, 146.73770844575, -14.623918682727
553, -9.3523470278813, 146.73770844575, -11.727472237021
554, -13.514533018537, 146.73770844575, -6.5082560867634
555, -16.421791606669, 143.71704892454, -6.8021288019468
556, -12.58103402013, 143.71704892454, -12.58103402013
557, -6.8021288019472, 143.71704892454, -16.421791606669
558, -3.9195581705276e-13, 143.71704892454, -17.792268939945
559, 6.8021288019464, 143.71704892454, -16.421791606669
560, 12.581034020129, 143.71704892454, -12.58103402013
561, 16.421791606668, 143.71704892454, -6.8021288019468
562, 17.792268939944, 143.71704892454, 6.1799499882257e-14
563, 16.421791606668, 143.71704892454, 6.8021288019469
564, 12.581034020129, 143.71704892454, 12.58103402013
565, 6.8021288019464, 143.71704892454, 16.421791606669
566, -4.3955600172334e-13, 143.71704892454, 17.792268939945
567, -6.8021288019472, 143.71704892454, 16.421791606669
568, -12.58103402013, 143.71704892454, 12.58103402013
569, -16.421791606669, 143.71704892454, 6.8021288019468
570, -18.930757545147, 143.62746367779, 2.3182725972458e-15
571, -20.069245289455, 143.53786749177, 2.4576925297886e-15
572, -21.207733033763, 143.44827130575, 2.5971124623315e-15
573, -15.977102027726, 143.35865474709, 15.624110423157
574, -0.54000958684994, 143.35868288686, 22.34152653497
575, 15.229181767248, 143.35871815196, 16.356899939549
576, 22.323428927016, 143.35876485076, 1.0797307706231
577, 16.722830955795, 143.35881373853, -14.827350159926
578, -7.1439335322215, 143.36020759842, -21.15272567391
579, -15.220035822218, 143.35872006208, -16.365458971037
580, -20.421349192106, 143.36029903919, -9.0202251067302
581, -15.208418714599, 145.63336291564, -3.7248652378977e-15
582, -15.80500279641, 144.68094218678, -3.8709813693328e-15
583, -16.707680082429, 144.01147110546, -4.0920662373148e-15
584, -11.8504326477, 161.34843295163, 4.3536345347751e-15
585, -7.9935585431334, 160.26111675275, 10.023605369874
586, 2.8528680137983, 160.26111675275, 12.499231451945
587, 11.551026768437, 160.26111675275, 5.562681312846
588, 11.551026768437, 160.26111675275, -5.5626813128461
589, 2.8528680137982, 160.26111675275, -12.499231451945
590, -7.9935585431335, 160.26111675275, -10.023605369874
591, -12.305002796412, 189.58181237296, -3.0137569216573e-15
592, 10.075595198036, 217.32793268208, -12.634396756683
593, -3.5959382927355, 217.32793268208, -15.754835060858
594, -14.559656905305, 217.32793268208, -7.0115612241397
595, -14.559656905304, 217.32793268208, 7.0115612241398
596, -3.5959382927354, 217.32793268208, 15.754835060858
597, 10.075595198036, 217.32793268208, 12.634396756683
598, 16.894193302229, 215.35051729666, -4.137747292123e-15
599, -9.3704856787064, 214.33138912689, 16.230157287114
600, 9.3704856787037, 214.33138912689, 16.230157287114
601, 9.3704856787036, 214.33138912689, -16.230157287114
602, -9.3704856787064, 214.33138912689, -16.230157287114
603, -14.421728304127, 158.46686559948, -3.5321880228668e-15
604, -21.788459897311, 212.6496594738, -5.33645728605e-15
605, -21.658328672652, 192.47124715013, 2.6522926905701e-15
606, -8.0804613428345, 272.96079845592, 13.994704158609
607, 8.0804613428322, 272.96079845592, 13.994704158609
608, -8.0804613428345, 272.96079845592, -13.994704158609
609, 8.0804613428322, 272.96079845592, -13.994704158609
610, 16.159999999999, 245.26650480387, 5.9368916033309e-15
611, -1.4428824760804, 244.33617388052, 47.326559715259
612, -4.7005622702735, 247.29437122955, 48.185521370739
613, -3.6493309327462, 243.43141957371, 48.48
614, -1.6106474903969, 239.95642844415, 48.159882244488
615, -31.425282370785, 269.66353222059, 31.422368312756
616, -7.9041967094185e-05, 271.57504196477, 43.570623724779
617, -29.300996159072, 272.69339121108, 29.314454955551
618, -43.551410820049, 272.31645070335, 0.0095363806083505
619, 29.301199398848, 272.69339476248, 29.314251496065
620, -52.288565878015, 190.50955096133, 41.464037771491
621, -52.198593541719, 190.58762426743, 45.521334699506
622, -53.020959834783, 191.71893693726, 45.536352744548
623, -54.074112525879, 192.32931403954, 22.764658436114
624, -52.792469249991, 190.07473942568, 18.712059580324
625, -27.477180131334, 260.26639886428, 34.926307529258
626, -23.033211995976, 254.50204536836, 40.672765510766
627, -32.473549380344, 252.1891468061, 41.065832597537
628, -34.241617147189, 254.74735051998, 31.837464776365
629, -16.150004764938, 259.59449762342, 41.401581401647
630, -18.938673771323, 251.91569750544, 46.414499592074
631, 0.70745006212282, 252.04881554395, 44.434368603828
632, -7.6760601681127, 250.57625540535, 47.305729379392
633, 5.5508233695153, 210.36246984442, 44.091971603849
634, 1.202213276554, 206.71605579988, 47.263670938244
635, 19.343932803389, 185.69078503214, 40.00907230245
636, 10.69510619457, 178.91768515798, 46.701068558669
637, 12.657101452268, 197.56617504285, 46.397360570509
638, -8.747503251092, 167.85358634666, 43.570572529399
639, -18.235895827654, 171.40094405548, 42.373421573251
640, -10.117931636498, 174.64179087282, 47.109867299145
641, -20.2, 171.36028335057, 42.034389795443
642, -32.32, 171.36028335057, 42.034389795443
643, -33.929409281562, 171.4469620477, 42.034389795443
644, -51.070539943024, 185.09008328747, 18.724702398448
645, -51.047702986407, 188.04474573958, 37.4233262841
646, -41.334200474885, 258.04120495254, 16.321687171689
647, -44.984483163777, 250.96547713303, 18.385440081275
648, -1.6104693393083, 212.56527453215, 48.160652954131
649, -49.454024657642, 192.05285374898, 48.48
650, -46.762323636764, 177.8684043837, 48.48
651, 9.6260311326833, 181.88245959465, 48.48
652, 11.825155886858, 192.36904832036, 48.48
653, -0.81480339011215, 205.38657546223, 48.48
654, -8.5635822501557, 248.34566982262, 48.48
655, -43.231410826056, 247.65456449439, 48.48
656, -48.511758449098, 244.83934830075, 47.620394888577
657, -58.488513705192, 224.47774830075, 47.620394888577
658, -49.868426681116, 245.50408716776, 22.764658076686
659, -59.84518193721, 225.14248716776, 22.764658076686
660, -33.64019983786, 175.44258433392, 47.87653659144
661, -32.32, 175.34953657075, 47.867103826709
662, 32.32584968205, 102.26167830353, 47.627205940959
663, 29.600298545493, 102.22279236615, 48.434759685108
664, 29.616827939911, 101.57109637734, 48.504295271326
665, 29.616827891459, 65.078903623205, 48.504295289437
666, 29.600300149893, 64.427205239833, 48.434749979795
667, 32.325849682546, 64.38832170573, 47.62720594297
668, -32.32584427219, 64.388310608977, 47.627258794301
669, -29.600298545493, 64.427207633842, 48.434759685112
670, -29.616827939911, 65.078903622661, 48.504295271326
671, -74.168483602177, 83.325, 38.508384348784
672, -53.256987235784, 64.934324351258, 43.103798148575
673, -32.34549086763, 83.324999990513, 47.699211948754
674, -53.256987235782, 101.71567564874, 43.103798148575
675, -29.616827891459, 101.57109637679, 48.504295289437
676, -29.60030014989, 102.22279476017, 48.434749979794
677, -32.32584427219, 102.26168939102, 47.627258794301
678, 48.024699117097, 183.14642065958, 20.964892195976
679, 46.087031544584, 183.13627319193, 20.98430033631
680, 37.930016886329, 173.91123987062, 30.613760129385
681, 24.321187008129, 164.4710137156, 39.327346751751
682, 47.578369295905, 163.80275498264, 39.62203170867
683, 25.598682476787, 136.41684866993, 38.943948028247
684, 37.149309668372, 132.15724870959, 33.773881550308
685, 47.608657027822, 134.59318115082, 37.533962726599
686, -37.149304234923, 132.15724977816, 33.773885584289
687, -25.598458263209, 136.4169593965, 38.944019014243
688, -47.608657027822, 134.59318115082, 37.533962726599
689, -46.464242014868, 166.65009759971, 40.4
690, -58.488513705192, 204.77225169925, 47.620394888577
691, -52.886815220722, 193.33955021497, 47.620161541176
692, -50.417473377445, 190.57722603366, 47.946282701133
693, -48.86187544445, 168.40617294312, 40.101881912693
694, -50.335272479252, 174.7828926378, 38.565892012873
695, -50.580218675825, 160.45129525671, 37.449316153373
696, -49.664621632616, 141.64002928694, 39.538907091097
697, -50.632761477317, 136.70684963311, 35.44278751724
698, -49.872611107085, 132.43238889291, 30.597202592826
699, -45.194688444683, 131.38968077385, 24.652342426867
700, -38.699901261476, 104.19791212464, 44.853230213557
701, -73.972503181135, 103.95003487826, 37.669280177324
702, -80.860046310833, 104.98299578701, 31.121188015234
703, -85.969655606705, 104.30705012225, 23.050838159249
704, -83.203733054067, 101.96009804489, 32.961799357079
705, -86.857478690986, 83.324999999999, 23.010451134763
706, -83.203733054067, 64.689901955107, 32.961799357079
707, -73.97250318102, 62.699965120979, 37.669280176825
708, -85.969655606705, 62.342949877746, 23.050838159249
709, -80.859446444262, 61.667023403638, 31.121920876639
710, -38.699872177605, 62.452091814761, 44.853242731168
711, 38.699901261475, 62.452087875363, 44.853230213558
712, 73.972235005, 62.699055352282, 37.670733786326
713, 53.256987235931, 64.934324351257, 43.103798148543
714, 85.968000660884, 62.34406038798, 23.051155928027
715, 83.203733054067, 64.689901955107, 32.961799357079
716, 80.860046310839, 61.667004212987, 31.121188015227
717, 86.857478690986, 83.325, 23.010451134763
718, 83.203733054067, 101.96009804489, 32.961799357079
719, 74.168483602177, 83.325, 38.508384348784
720, 85.968000660334, 104.30593961279, 23.051155928038
721, 80.859446444257, 104.98297659636, 31.121920876646
722, 73.972235004999, 103.95094464772, 37.670733786326
723, 38.699872177607, 104.19790818524, 44.853242731166
724, 53.256987235929, 101.71567564874, 43.103798148543
725, 35.958460747705, 108.43914804736, 43.658019894703
726, 42.473558971144, 106.21157559468, 39.507475378802
727, 28.767564686435, 103.33113115876, 48.697646986406
728, 32.34549086763, 83.325000009487, 47.699211948754
729, 27.028175536048, 83.325000012501, 49.684115441383
730, 28.767562598396, 63.318870975493, 48.697648217874
731, 42.473559083293, 60.438424625438, 39.507475477967
732, 35.95843066698, 58.210864863135, 43.658044666145
733, -35.958460739225, 58.210851956194, 43.658019901688
734, -42.473762459447, 60.438731680164, 39.507472035975
735, -28.76756468637, 63.318868841147, 48.697646986445
736, -27.028175536048, 83.324999987499, 49.684115441383
737, -28.76756259831, 103.33112902462, 48.697648217924
738, -35.95843066772, 108.43913513718, 43.658044665535
739, -42.473762461788, 106.21126831664, 39.507472038074
740, 45.194688400032, 131.38968077401, 24.652342432869
741, 49.871483348444, 132.43414320064, 30.597868628409
742, 50.632742005587, 136.70761270342, 35.443531112602
743, 49.665562074469, 141.64103209627, 39.540394888577
744, 49.665891214965, 159.94143960376, 39.541041010253
745, 50.594438710892, 162.64513662689, 36.906274922989
746, 49.727729725247, 166.44185840982, 36.855988412472
747, 50.109411278934, 181.00994921821, 22.288396974444
748, 50.404826209454, 183.53927245457, 16.265533571691
749, 48.3144890764, 184.43606224881, 17.526838233906
750, 51.071569662792, 180.96448897066, 18.685378987025
751, 36.582215721565, 123.35808622434, 28.032097955187
752, 36.041799135585, 123.43086047238, 28.598210944214
753, 35.448976119326, 123.54079150838, 29.153780432696
754, 34.80570785738, 123.69140818679, 29.699291159471
755, 34.259036891171, 123.84295456989, 30.127999740016
756, 33.663662445912, 124.03024157787, 30.569513141971
757, 33.022279062414, 124.25623789951, 31.024463937773
758, 32.33622994871, 124.52481015562, 31.495748029884
759, 31.764144463108, 124.76933820193, 31.882016001746
760, 31.163332035891, 125.04551335511, 32.285753124698
761, 30.536106801633, 125.35451522373, 32.709125320672
762, 29.884589250686, 125.6972201283, 33.155205956229
763, 29.291084091231, 126.02814960122, 33.570741374618
764, 28.705871999801, 126.37154803595, 33.992055926177
765, 28.129442146116, 126.72594170436, 34.421195896442
766, 38.967447766655, 123.22766915673, 24.886562590856
767, 38.846133675454, 123.23398949241, 25.061692976707
768, 38.724050037398, 123.2402900883, 25.23630387625
769, 38.601199080142, 123.24657078972, 25.410391270745
770, 38.477583031339, 123.25283144199, 25.583951141452
771, 38.353204118643, 123.25907189043, 25.756979469633
772, 38.228064569709, 123.26529198038, 25.929472236547
773, 38.102166612191, 123.27149155714, 26.101425423456
774, 37.975558107625, 123.2776682501, 26.272773533688
775, 37.848196190575, 123.28382413554, 26.443574421252
776, 37.720083086297, 123.28995905894, 26.613824071738
777, 37.591221020045, 123.2960728658, 26.783518470738
778, 37.461612217072, 123.3021654016, 26.952653603841
779, 37.331258902634, 123.30823651183, 27.121225456637
780, 37.200163301984, 123.31428604198, 27.289230014717
781, 36.879111113629, 123.22132923593, 27.900385987096
782, 34.410658080415, 123.22132923593, 30.89347803717
783, 31.700005219825, 123.22132923593, 33.669125973559
784, 28.766231494354, 123.22132923593, 36.207793365152
785, 25.629986305364, 123.22132923593, 38.491611771231
786, 22.313344152031, 123.22132923593, 40.5045065087
787, 18.839649259713, 123.22132923593, 42.23230979394
788, 15.233351271346, 123.22132923593, 43.662860462916
789, 11.519833158342, 123.22132923593, 44.78608956768
790, 7.7252325622348, 123.22132923593, 45.59409124678
791, 3.8762578245862, 123.22132923593, 46.081178370758
792, 2.5210018456014e-13, 123.22132923593, 46.243922571083
793, -3.8762578245857, 123.22132923593, 46.081178370758
794, -7.7252325622343, 123.22132923593, 45.59409124678
795, -11.519833158341, 123.22132923593, 44.786089567681
796, -15.233351271346, 123.22132923593, 43.662860462916
797, -18.839649259712, 123.22132923593, 42.23230979394
798, -22.31334415203, 123.22132923593, 40.504506508701
799, -25.629986305364, 123.22132923593, 38.491611771231
800, -28.766231494353, 123.22132923593, 36.207793365153
801, -31.700005219825, 123.22132923593, 33.669125973559
802, -34.410658080414, 123.22132923593, 30.893478037171
803, -36.879111113628, 123.22132923593, 27.900385987096
804, -37.200641054113, 123.31426410723, 27.288620775096
805, -37.332072629338, 123.308198823, 27.120178811537
806, -37.462622824608, 123.30211818373, 26.951342529998
807, -37.592292098481, 123.29602238825, 26.782117087483
808, -37.721080909516, 123.28991163543, 26.612507640997
809, -37.848989716269, 123.28378612412, 26.442519347545
810, -37.9760189773, 123.27764605318, 26.27215736413
811, -38.102169151166, 123.27149162146, 26.101426847757
812, -38.228520457684, 123.26526960858, 25.928851431371
813, -38.353978340226, 123.25903339177, 25.755911617464
814, -38.47854326935, 123.2527831751, 25.582612698024
815, -38.602215715619, 123.24651916263, 25.408959965039
816, -38.724996149592, 123.24024155842, 25.234958710499
817, -38.846885041831, 123.23395056653, 25.060614226392
818, -38.967882862896, 123.22764639101, 24.885931804708
819, -28.129102565119, 126.72604662989, 34.421419086709
820, -28.705218418177, 126.37172857467, 33.992470327646
821, -29.290233573407, 126.02852135046, 33.571312619964
822, -29.883958931791, 125.69756203329, 33.155641953146
823, -30.534741376485, 125.35523387977, 32.710026382001
824, -31.161782674384, 125.04625104, 32.28679477068
825, -31.762506080381, 124.7700564316, 31.88314411331
826, -32.33622703424, 124.52481019857, 31.495750372449
827, -33.020459611121, 124.25691272752, 31.025677401372
828, -33.662170704646, 124.03073945262, 30.570591920296
829, -34.257910614094, 123.84330675223, 30.128898795327
830, -34.805755194076, 123.6913955584, 29.699253327111
831, -35.447906128209, 123.5405952531, 29.154111462401
832, -36.040713266359, 123.430307072, 28.598147790637
833, -36.581684479942, 123.35779270389, 28.03208937125
834, -24.55411549886, 127.08985367368, 37.040640006197
835, -21.374323224224, 127.08985367368, 38.962185599712
836, -18.045137739041, 127.08985367368, 40.611409775814
837, -14.589827976924, 127.08985367368, 41.976785484405
838, -11.032544401651, 127.08985367368, 43.048769599439
839, -7.3981502104592, 127.08985367368, 43.819869619426
840, -3.712047555778, 127.08985367368, 44.284696035353
841, -5.4421506363866e-15, 127.08985367368, 44.44
842, 3.712047555778, 127.08985367368, 44.284696035353
843, 7.3981502104592, 127.08985367368, 43.819869619426
844, 11.032544401651, 127.08985367368, 43.048769599439
845, 14.589827976924, 127.08985367368, 41.976785484405
846, 18.045137739041, 127.08985367368, 40.611409775814
847, 21.374323224224, 127.08985367368, 38.962185599712
848, 24.55411549886, 127.08985367368, 37.040640006197
849, -59.84518193721, 204.10751283224, 22.764658076686
850, -50.47442755257, 185.41004449503, 41.489316157765
851, -48.930091420942, 131.05198526773, 9.1618138880133
852, -52.625341432278, 110.2638776412, 20.726213195281
853, -57.300208921143, 105.20859800597, 22.50578685928
854, -57.300206777859, 61.441402134726, 22.505792232222
855, -52.625341427112, 56.386122359174, 20.726213208404
856, 16.160922965011, -0.11753537413055, 27.989408155926
857, -16.16092296501, -0.11753537413054, 27.989408155926
858, 43.324408062373, -0.056461085674072, 31.488351798223
859, 16.552609508707, 0.28338722075427, 50.958248233781
860, -16.552628942576, 0.2833863395296, 50.958197748453
861, -43.324443554545, -0.056461311928486, 31.488338836116
862, 55.67064623418, 0.28296071123882, 0.0097773840009367
863, -48.982445742811, 2.8722638858483, 28.279145151907
864, -28.280139471473, 3.210141057843, 48.98097001309
865, 1.9082103598104e-06, 3.358738868787, 56.56
866, 28.280139825606, 3.2101495259993, 48.980970695511
867, 48.982445981043, 2.872266647542, 28.279145361256
868, -55.670646234202, 0.28296071126146, 0.0097773840004809
869, 57.300208918827, 61.441401994184, 22.50578686514
870, 58.03760789448, 59.371956128899, 1.0784121845924e-05
871, 52.625341432268, 56.386122358803, 20.726213195304
872, 86.376990401862, 61.739442437124, 2.041170693523e-13
873, 87.264, 83.325, -1.068675782808e-14
874, 86.376990401862, 104.91055756288, 2.3872046588935e-13
875, 57.300206775537, 105.20859786512, 22.505792238098
876, 52.625341427674, 110.26387764087, 20.726213206977
877, 58.03853497388, 107.27772925556, 0.0097177347846486
878, 48.930091343047, 131.05198528703, 9.1618150249031
879, 50.938075066055, 131.93300195734, -2.7178996900301e-13
880, 51.560863531437, 158.09536763771, 0
881, 51.029633529781, 184.13277498368, 1.5681032861092e-13
882, 49.273378477126, 184.87265158495, 8.1458347990309
883, 31.425282313859, 269.66353222011, 31.422368369681
884, 43.551410831328, 272.31645068726, 0.0095363803139601
885, -38.38, 251.15760977443, 47.620394888577
886, -44.834186701026, 250.22472371951, 45.529316153373
887, -12.038580402921, 250.53791296076, 48.075494275958
888, 43.959240628833, 187.30126899645, 14.737373426318
889, 43.858635693712, 192.52542457576, 7.1647522707964
890, 45.86279524937, 188.22012758427, -0.014163677516585
891, 43.123491893888, 186.70608457428, 17.382828064007
892, 41.430837992448, 192.35897232188, 16.074803284716
893, 39.985301565843, 183.93148994901, 22.511709870541
894, 38.978924480336, 190.01439671225, 21.343782383831
895, 32.138236502988, 179.67855221103, 30.692786345637
896, 20.010995774773, 167.36758892224, 39.679637405249
897, 47.81611562312, 130.27142232052, 1.074231754905e-08
898, 45.54713846077, 129.35972798138, 8.4252466133282
899, 45.514298484147, 130.73199706049, 17.366320609984
900, 41.303552796825, 129.30635839106, 20.682078297469
901, 37.982713575773, 129.22669845299, 25.978999425856
902, 39.051814320348, 130.91350474349, 28.808692712707
903, 29.651195940316, 130.86127945728, 34.677516348816
904, 20.980260439059, 133.00648657249, 39.175788501796
905, 32.403671089823, 128.56026122774, 31.370213865507
906, -20.981564576568, 133.00496667299, 39.175087108368
907, -29.651195940316, 130.86127945728, 34.677516348816
908, -32.403683835873, 128.56026383059, 31.370204654821
909, -39.051706854915, 130.91344320715, 28.808616377068
910, -37.982713575767, 129.22669845298, 25.978999425852
911, -41.303552796773, 129.30635839112, 20.682078297447
912, -45.514397038359, 130.73212104887, 17.366353760082
913, -45.547140288442, 129.35972793702, 8.4252359355514
914, -34.2230012256, 175.49335912744, 47.862023021042
915, -45.370484169605, 175.47810030157, 47.849172092019
916, -50.171572720298, 177.55243599921, 41.549297853617
917, -50.018074611674, 177.43357087434, 45.527045058181
918, -49.039898993762, 187.34719074946, 47.958014698283
919, -49.453184296821, 179.25923226394, 47.619802378791
920, -47.768846089103, 174.95056773319, 46.065500654899
921, -45.791568438402, 174.39643182242, 46.275895986516
922, -50.844931101911, 188.18440534668, 45.502432676104
923, -46.711387771689, 171.59171423414, 42.034390165533
924, -45.368999433663, 171.47514648686, 42.034389822119
925, -34.452724036979, 171.47514645157, 42.034389795443
926, -34.034969749506, 174.35939069652, 46.274791139722
927, 45.536101971829, 123.16379409664, 8.4445592438325
928, 41.901821731584, 126.26689546314, 16.057831337688
929, 44.905587806186, 126.294123883, -1.026015803616e-05
930, 35.997484299757, 126.22868749033, 26.634102848197
931, 41.360322764126, 123.19255635505, 20.760087242095
932, 37.883966382093, 126.19362852388, 23.918410822419
933, -41.901821731581, 126.26689546314, 16.057831337695
934, -45.536106343695, 123.16379416364, 8.4445379720392
935, -37.883966382093, 126.19362852388, 23.918410822419
936, -41.360322764125, 123.19255635505, 20.760087242099
937, -35.997484299757, 126.22868749033, 26.634102848197
938, 53.256987234903, 101.71567564874, -43.103798148769
939, 74.168483602177, 83.325, -38.508384348784
940, 53.256987234903, 64.934324351263, -43.103798148769
941, 32.34549086763, 83.325, -47.699211948753
942, 86.857478690986, 83.325, -23.010451134763
943, 83.203733054067, 64.689901955107, -32.961799357079
944, 83.203733054067, 101.96009804489, -32.961799357079
945, 38.699834260886, 62.452096947747, -44.853259056668
946, 32.325844234976, 64.38830992351, -47.627258642906
947, 73.972519749944, 62.699626981342, -37.669504572452
948, 29.61682789146, 101.57109637679, -48.504295289437
949, 27.028175536048, 83.325, -49.684115441382
950, 29.61682789146, 65.078903623205, -48.504295289437
951, 38.700132272846, 104.19794342082, -44.85313080408
952, 73.972519749945, 103.95037301866, -37.669504572454
953, 32.32584427219, 102.26168939102, -47.627258794301
954, 57.300163516307, 61.441405002191, -22.505901736287
955, 42.473760518694, 60.438729027656, -39.507470295986
956, 52.625342237786, 56.386122300737, -20.726211148973
957, 80.859779455642, 61.667012752913, -31.121514141851
958, 85.969655606705, 62.342949877746, -23.050838159249
959, 85.969655606705, 104.30705012225, -23.050838159249
960, 57.300175751194, 105.20859580752, -22.505870814866
961, 80.859714087798, 104.9829851591, -31.121593878754
962, 52.625342237786, 110.26387769926, -20.726211148973
963, 42.473762706024, 106.21126798283, -39.507472257045
964, 45.543158207512, 123.15783712364, -8.4454451324855
965, 41.901821731581, 126.26689546314, -16.057831337695
966, 45.547145814278, 129.35972762461, -8.4252047372948
967, 48.926392734582, 131.04069035968, -9.1617806972403
968, 49.8718883892, 132.43382868663, -30.597819338109
969, 50.632750509059, 136.70727944665, -35.443206378088
970, 50.594438754325, 162.64513280797, -36.90627326438
971, 51.071569676476, 180.96448189337, -18.685378464463
972, 50.404825512251, 183.53927326551, -16.265533595934
973, 49.273378491742, 184.8726515933, -8.1458345722285
974, 43.95924009411, 187.30126965875, -14.737373250039
975, 43.858563953794, 192.54583291722, -7.1651914073192
976, 35.957541974865, 58.211234889615, -43.658776920851
977, 29.600336593727, 64.427335466957, -48.434775597128
978, 29.600338834397, 102.22266710881, -48.434765936812
979, 35.957559209152, 108.43877072996, -43.658762418275
980, 48.326646079163, 184.43634156715, -17.52947789405
981, 43.123489183458, 186.70608740027, -17.382827756518
982, 41.430837992448, 192.35897232188, -16.074803284716
983, 39.985301565843, 183.93148994901, -22.511709870541
984, 38.977102963197, 190.02177489633, -21.347853578789
985, 46.085761378337, 183.13787351851, -20.984016761467
986, 32.136603062078, 179.67937225004, -30.692092821022
987, 20.011385515388, 167.36810996062, -39.679441327031
988, 24.32204737351, 164.47150863547, -39.327096487103
989, 29.651195940316, 130.86127945728, -34.677516348816
990, 20.980683780507, 133.00600411488, -39.175556536899
991, 25.600166380637, 136.41608274198, -38.943489131557
992, -11.199508603519, 167.45210329745, -43.005634014281
993, -10.968335052785, 171.6361022468, -44.198202620236
994, -13.232133246831, 174.52317956283, -46.912789573036
995, -13.116404476575, 171.52537590321, -43.75052655043
996, -3.9808088519748, 178.16927402991, -47.374482682542
997, 0.70824803264327, 174.17164002273, -44.43435590593
998, 4.9758171768364, 213.11, -44.160557553349
999, -0.54291172037964, 213.11, -47.288113591576
1000, -3.9810488849974, 248.05084623281, -47.374472441799
1001, 0.70732669576747, 252.04897007591, -44.434370578958
1002, -18.938677440987, 251.91569658576, -46.414502330773
1003, -23.033213286502, 254.50204274315, -40.672767729159
1004, -16.148806364021, 259.60139527931, -41.404959462028
1005, 41.360322764125, 123.19255635505, -20.760087242099
1006, 37.883966382093, 126.19362852388, -23.918410822419
1007, 41.303598808081, 129.30641893119, -20.682113473172
1008, 28.767562605595, 103.33112903334, -48.697648213622
1009, 28.767564653756, 63.318868874432, -48.697647005711
1010, 37.982715790891, 129.22666749895, -25.978999762678
1011, 45.196209961792, 131.38970204744, -24.653154832397
1012, 47.608657027822, 134.59318115082, -37.533962726599
1013, 49.665562074469, 141.64103209627, -39.540394888577
1014, 49.66597637768, 159.94143874563, -39.5406975656
1015, 47.565509693655, 163.80323759706, -39.622444097986
1016, 49.727729725247, 166.44185840982, -36.855988412472
1017, 50.109564518775, 181.00982875714, -22.288279227827
1018, 48.024699117097, 183.14642065958, -20.964892195977
1019, 32.403645813747, 128.56024633149, -31.37024547054
1020, 37.14801798885, 132.15651608792, -33.771880772722
1021, 28.805575893506, 126.31051742337, -33.919520305156
1022, 30.023852989062, 125.61939228566, -33.060232625861
1023, 31.204753811472, 125.02458805075, -32.258689365431
1024, 32.336101652581, 124.52486173737, -31.495835546059
1025, 33.670061709819, 124.0282078189, -30.564770262196
1026, 34.818847544545, 123.68839510244, -29.688113998727
1027, 36.048275476151, 123.42941944989, -28.590156667646
1028, 35.997484299757, 126.22868749033, -26.634102848197
1029, 37.332072629353, 123.308198823, -27.120178811517
1030, 37.592292098501, 123.29602238825, -26.782117087457
1031, 37.848989716284, 123.28378612412, -26.442519347525
1032, 38.102169151166, 123.27149162146, -26.101426847757
1033, 38.353978340241, 123.25903339177, -25.755911617443
1034, 38.602215715639, 123.24651916263, -25.408959965011
1035, 38.846885041846, 123.23395056653, -25.060614226371
1036, -14.425685425656, 171.50039913842, -43.609352847387
1037, -1.6111184606266, 186.2633659918, -48.159874854071
1038, -12.038580402921, 175.68208744812, -48.075494521095
1039, -5.6128544986818, 179.8377549956, -48.48
1040, -1.611118460627, 239.9566340082, -48.15987485407
1041, -2.9516953188927, 213.11, -48.48
1042, -12.038308584781, 250.53700104085, -48.074567486546
1043, -5.6127549955961, 246.38214550132, -48.48
1044, 0.48530770784445, 97.934110755009, -30.837069598943
1045, -26.471629009183, 97.934110755009, -15.821590558691
1046, -26.963291980389, 97.934110755009, 14.968224454005
1047, -0.57135917783787, 97.934110755009, 30.835596240816
1048, 26.390265663368, 97.934110755009, 15.956819481163
1049, 27.039589935583, 97.934110755009, -14.830075263063
1050, 0.69423078512114, 99.410826714233, -29.355974730104
1051, 22.208283053174, 100.887533547, -16.867215211693
1052, 27.033957874511, 100.887533547, 6.8465981922853
1053, 11.502511024099, 100.887533547, 25.404783512322
1054, -12.690561235925, 100.887533547, 24.832648684438
1055, -27.327382045025, 100.887533547, 5.5610229034535
1056, -21.386126797216, 100.887533547, -17.898166548026
1057, 0.6430995293209, 97.934110755009, -30.834182006071
1058, -23.048721838745, 103.03006709399, -14.062589434389
1059, -23.710514630883, 103.03006709399, 12.915552482906
1060, -0.68592251746854, 103.03006709399, 26.991285821539
1061, 23.023894063532, 103.03006709399, 14.103201840406
1062, 23.733247546056, 103.03006709399, -12.873731429449
1063, 0.73350634269536, 120.67713994262, -26.990034613635
1064, 24.209469693957, 138.32421279126, -11.954144768128
1065, 22.569911168938, 138.32421279126, 14.818876807175
1066, -1.3449062117322, 138.32421279126, 26.966483405918
1067, -23.932375257769, 138.32421279125, 12.499656576135
1068, -22.899908456161, 138.32421279125, -14.303642637435
1069, 0.64378949169354, 101.87053629392, -27.223033686651
1070, 26.349725890497, 94.363221510017, -18.715617689399
1071, 30.656792423312, 94.363221510017, 10.234426135059
1072, 9.8224044719003, 94.363221510017, 30.791277505008
1073, -19.06727940043, 94.363221510017, 26.096383969162
1074, -22.699942288073, 94.363221510017, -23.006412586888
1075, 0.42824981393967, 96.295783179394, -31.932715856781
1076, 1.8585091826116, 141.75109167111, -25.591918155412
1077, 16.160922965011, -0.11753537413054, -27.989408155926
1078, -16.16092296501, -0.11753537413055, -27.989408155926
1079, -32.32, 62.706783569746, 1.2471852543772e-13
1080, -32.32, 31.050345629476, 1.2471852543772e-13
1081, 29.301092249067, 272.69339289067, -29.314358731915
1082, -1.8187770593749e-05, 272.48133964933, -41.462880791743
1083, -29.301117980526, 272.69339333938, -29.314333025331
1084, -31.42505805772, 269.66352857242, -31.422592633826
1085, 0.00064345479946221, 269.45180113309, -44.43999999528
1086, 31.42553984236, 269.66353640955, -31.422110778841
1087, 44.44, 244.38388724306, 7.6220222624754e-14
1088, 44.44, 218.59315911444, 7.6220222624754e-14
1089, 21.677238742851, 127.08985367368, -38.794470230761
1090, 15.242140394092, 127.08985367368, -41.744349991427
1091, 8.4202816179573, 127.08985367368, -43.634991205159
1092, 1.3847631042144, 127.08985367368, -44.418419953272
1093, -5.6858929660758, 127.08985367368, -44.074757187968
1094, -12.612272816838, 127.08985367368, -42.612723151585
1095, -19.218623596965, 127.08985367368, -40.069416105531
1096, -17.529578685433, 132.95417847277, -40.83659481011
1097, -27.47717606773, 260.26639876529, -34.926310723103
1098, -35.598967324633, 123.22132923593, -29.516332769841
1099, -31.522893758737, 123.22132923593, -33.835004711625
1100, -26.926986567978, 123.22132923593, -37.595714770812
1101, -21.887035339213, 123.22132923593, -40.736446320468
1102, -16.486152242803, 123.22132923593, -43.2054065944
1103, -10.813401457277, 123.22132923593, -44.96188078455
1104, -4.9623304413926, 123.22132923593, -45.976903455439
1105, 1.0674719707425, 119.34733455761, -50.849582079713
1106, -13.112095712738, 115.47333770744, -53.903035261902
1107, -48.786324393306, 115.47333770743, -26.4101690666
1108, -55.297240046922, 115.47333770743, 4.4455048400167
1109, -43.939867209986, 115.47333770744, 33.864682021123
1110, -18.384568640422, 115.47333770743, 52.341471829668
1111, 13.112095713308, 115.47333770743, 53.903035261763
1112, 40.372499709967, 115.47333770743, 38.049367868478
1113, 54.584320278283, 115.47333770743, 9.8979320509408
1114, 51.162447299424, 115.47333770743, -21.451138673746
1115, 31.203347566753, 115.47333770743, -45.866581508442
1116, 6.6474222825426, 123.22132923593, -45.76365535835
1117, 12.223410094416, 123.22132923593, -44.59919977336
1118, 17.613931357853, 123.22132923593, -42.758037804384
1119, 22.737195364266, 123.22132923593, -40.268105514508
1120, 27.51546651576, 123.22132923593, -37.167182798544
1121, 31.876243812114, 123.22132923593, -33.502320146387
1122, 35.753360912887, 123.22132923593, -29.329124743046
1123, 50.033098953503, 113.15220026592, -26.376554155328
1124, 56.264536988985, 113.15220026592, 5.7736883718458
1125, 43.633413870992, 113.15220026592, 35.988314686336
1126, 16.374285591639, 113.15220026592, 54.137938373782
1127, -16.374285591638, 113.15220026592, 54.137938373782
1128, -43.633413870992, 113.15220026592, 35.988314686336
1129, -56.264536988985, 113.15220026592, 5.7736883718464
1130, -50.033098953503, 113.15220026592, -26.376554155328
1131, -2.4259236064765e-13, 113.15220026592, -56.56
1132, -26.892513544415, 114.43274023402, -49.434736934708
1133, 48.620527111669, 2.8985335336173, -28.898243305753
1134, 27.028175536048, 34.179335381331, -49.684115441382
1135, 27.028175536048, 107.34388388155, -49.684115441382
1136, -1.0781935588869, 3.3585589543942, -56.549600857787
1137, -28.902229474333, 3.2267294878765, -48.617726591961
1138, -49.163440528943, 2.8830162283559, -27.967650785485
1139, -43.324407448933, -0.056461070909655, -31.488352644076
1140, -16.552609177485, 0.28338722263599, -50.958248341585
1141, 16.552628611329, 0.28338634141008, -50.958197856186
1142, 43.324442941146, -0.056461297163749, -31.488339681988
1143, -32.473549371536, 252.18914680599, -41.065832601735
1144, -21.543789083334, 136.4871196913, -40.97442650938
1145, -28.560912764096, 140.97046455854, -42.42
1146, -32.596255799744, 167.3779308811, -42.42
1147, -28.261722422794, 168.00974608792, -42.42
1148, -32.32, 171.57663635668, -43.656622290562
1149, -42.108312839274, 251.6387371926, -40.062722548427
1150, -46.140335992021, 249.68502884732, -33.64852342236
1151, -55.124458629713, 235.45443214897, -11.382329038343
1152, -54.589149988613, 235.19214218655, -34.14698711503
1153, -61.983246361664, 214.625, -34.226316283385
1154, -62.583782464815, 214.6279770965, -11.292792574474
1155, -56.746435672275, 198.46067079443, -34.146986059244
1156, -57.196940932714, 198.02577633236, -11.390243194313
1157, -50.846693557875, 151.08583534835, -27.273050966519
1158, -50.84347662757, 169.44819461546, -27.39590057855
1159, -51.271951450013, 171.3117866024, -11.033107261874
1160, -51.229975477325, 148.31495925139, -12.636104986316
1161, -74.157183394657, 105.1674926398, -24.075537462009
1162, -72.424976527748, 105.46707512607, -12.63494387922
1163, -87.060739345493, 75.765667512783, -11.505225567381
1164, -87.060739345493, 91.074234568663, -11.505225567382
1165, -74.328109603401, 61.504639080273, -24.920713753311
1166, -72.260204696381, 61.221093881105, -14.092559456024
1167, -40.727445111176, 250.44148283931, -47.987568621277
1168, -46.503396396026, 247.92273963887, -47.460893970609
1169, -46.567466398513, 246.27870072284, -48.220879744553
1170, -52.431282251434, 191.4238014016, -46.81038121313
1171, -51.546892378617, 192.0044475109, -47.991157832095
1172, -53.033058533817, 192.28510258596, -46.736346354758
1173, -51.421059827188, 189.17447690948, -41.021694259359
1174, -51.072886611307, 188.59076399345, -43.167515017365
1175, -50.74382768913, 187.47169500482, -41.427347354351
1176, -50.572106756889, 187.03897767269, -43.836076233286
1177, -49.936109485343, 182.89773553114, -47.011866379219
1178, -50.199416888326, 133.43783245969, -34.963000098139
1179, -39.753688019813, 130.63837610267, -26.916327562316
1180, -43.968275174567, 130.84235490294, -21.148530106203
1181, -41.731502025337, 130.59215567851, -23.814538819666
1182, -39.226286117177, 127.31763920773, -21.947836797077
1183, -40.527653460939, 126.18126207671, -19.198043522128
1184, -39.348999669183, 124.99964511323, -21.90424770831
1185, -78.30065303707, 104.17734737216, -35.767723449251
1186, -83.120673553663, 91.564689166814, -33.062914125845
1187, -83.17220914456, 75.33220014934, -33.000679980145
1188, -78.300632702539, 62.472654715013, -35.76773774538
1189, -36.9231473438, 123.80576539994, -26.876483641163
1190, -37.658163620698, 123.90332822558, -25.707781522146
1191, -35.977985396889, 123.92667487959, -27.972414674619
1192, -36.826917260083, 124.99664633281, -25.880718090512
1193, -36.014256561482, 125.03077106894, -26.970072554822
1194, -36.317539166673, 126.48665757816, -26.204657180334
1195, -37.325174908892, 127.97112935138, -25.386687570738
1196, -35.85538429323, 127.9436558062, -27.366296292961
1197, -32.454959607255, 124.95525561488, -31.117151269316
1198, -28.697945235111, 126.57598011688, -34.021693070741
1199, -30.956303710905, 125.64919228188, -32.255250823735
1200, -33.373519687141, 124.92444643781, -30.184050072412
1201, -32.839561308123, 126.69573904662, -30.354221396524
1202, -30.682829997047, 131.43289061495, -35.629536571399
1203, -50.488224882438, 188.83145173066, -47.028996797892
1204, -47.149655625087, 175.82991489525, -47.811904598491
1205, -48.836356210178, 176.64255149756, -47.328685616598
1206, -48.406679023724, 177.96098247696, -48.169757727678
1207, -45.950679502794, 174.99419180221, -47.377117019568
1208, -46.439426220197, 176.71477290517, -48.374138342606
1209, -47.642778096965, 176.96937816435, -48.205448374182
1210, -49.801919169792, 177.91521974593, -46.893235352228
1211, -46.809071608083, 175.17231938391, -47.341356023476
1212, -47.837946903027, 174.14491936024, -45.01482266907
1213, -48.533716468293, 172.8411794633, -43.180952369399
1214, -44.28323988651, 90.080730567637, -45.075827394218
1215, -57.854863298727, 85.537856856329, -42.093390153892
1216, -45.031678850039, 78.068239897014, -44.911353906476
1217, -32.972399360347, 174.97862627821, -47.515623722582
1218, -32.977374718521, 176.39651390514, -48.371967441915
1219, -38.669956380745, 173.326382607, -45.012518498657
1220, -39.889291880636, 171.2893946685, -43.420104680622
1221, -42.434036737303, 172.79443321659, -44.488409999802
1222, -5.1179814809953, 202.36652694635, 22.423341980182
1223, -21.259208567998, 202.64289434839, 8.7775879979863
1224, 14.349583909504, 202.64289434838, 17.974688915919
1225, 14.340265442751, 202.36652694635, -17.982124096764
1226, 22.999996910527, 202.64289434839, -0.011921230108431
1227, -5.1296031335035, 202.64289434839, -22.420686244911
1228, -20.250712964356, 202.64289434839, -10.904523118196
1229, 7.1701327213745, 178.95806222416, -8.9910620483827
1230, -2.5589907404981, 171.32991986531, 11.211670990091
1231, 11.5, 171.32991986531, 1.4082973068957e-15
1232, -2.5589907404981, 171.32991986531, -11.211670990091
1233, 7.1701327213744, 178.95806222416, 8.9910620483828
1234, 7.170132721375, 169.94840382717, 8.9910620483824
1235, 11.5, 180.3395782623, 6.5153232201715e-15
1236, -2.5589907404989, 180.3395782623, -11.211670990091
1237, 7.170132721375, 169.94840382717, -8.9910620483824
1238, -2.5589907404989, 180.3395782623, 11.211670990091
1239, -9.4929025577358, 170.47340467537, 6.4911324920494
1240, -9.4929025577167, 170.47340467538, -6.4911324920774
1241, -9.3941514480768, 179.74282927244, 6.6332434427364
1242, -9.5075266806466, 179.83043651822, -6.4696936880197
1243, -14.532904265676, 149.80980560582, -3.7141208387322
1244, -11.872460256173, 151.88616573868, -9.1675889668762
1245, -14.53353994349, 149.80935977279, 3.7116326206909
1246, -11.887042118586, 151.88374325099, 9.1486736563812
1247, -0.54129191195294, 151.56712001988, 14.990230253937
1248, 11.382343955041, 151.56712001988, 9.769454748814
1249, 6.9917043139278, 151.56712001988, -13.270873022774
1250, 14.734842666386, 151.56712001988, -2.8079194427254
1251, -5.1981736550468, 151.74606251618, -14.070500724991
1252, 0.44616099096536, 151.41992904228, -14.993363210772
1253, -6.5082560867638, 151.42012659498, 13.514533018536
1254, 5.9125747836611, 151.37204255797, 13.785552561563
1255, 12.12424831417, 151.37204255797, -8.8319082205567
1256, 14.464409076187, 151.37204255797, 3.972514326809
1257, -13.277902751434, 153.42296730001, 6.9783449702246
1258, -13.278842998715, 153.42235500189, -6.9765556412529
1259, -20.582270620923, 143.49589611874, -0.91435345952893
1260, -19.78599331307, 143.52596705818, -4.1691219649098
1261, -16.098397636726, 143.59373406442, -10.752964379646
1262, -19.499847141303, 143.5807052186, -0.98900581319329
1263, -20.068410837712, 143.5272529723, -2.3378323222888
1264, -15.426327577323, 144.83717855, -2.7535536539054
1265, -15.426327577324, 144.83717855, 2.7535536539036
1266, 15.279760982824, 144.90126572084, -3.2421446232136
1267, 15.279760982824, 144.90126572084, 3.2421446232138
1268, -13.382342309492, 157.33506621507, 6.4445963964455
1269, -3.1033918103153, 159.2027200897, -13.596847921313
1270, 8.6955106223085, 159.2027200897, -10.9038254361
1271, 13.946516200242, 159.2027200897, -6.0227074360019e-14
1272, 8.6955106223086, 159.2027200897, 10.9038254361
1273, -14.470984116952, 157.82890744312, 2.6045065472591
1274, -18.337200231068, 212.89633192584, 11.341522703699
1275, -19.480560670575, 212.84062818863, -9.3661435173105
1276, -16.158966715143, 229.28393586638, -0.18274216517154
1277, -14.098432885566, 259.25678276661, 7.8980877540837
1278, 3.5959382927325, 229.36640743509, -15.754835060858
1279, -4.6769269789193, 259.29938129041, -15.468417955107
1280, 3.5959382927326, 229.36640743509, 15.754835060858
1281, -0.84621122951657, 259.06060686216, 16.137829053347
1282, -7.9984839464001, 245.38803477199, 14.041718362052
1283, -16.158940025811, 245.6793040141, -0.1850871207966
1284, -14.937693397127, 259.3268450243, -6.1652993417571
1285, 7.5186478837245, 245.36637416898, 14.30438862729
1286, 8.8535891007186, 258.86854943129, 13.518859420662
1287, -9.418211448851, 245.33794087473, -13.131751334257
1288, 6.9093744587218, 246.14123192897, -14.608427177118
1289, -10.344216768184, 229.61552741764, 12.415425061303
1290, -10.075595198038, 229.36640743509, -12.634396756683
1291, -2.0022005691959, 241.59051589367, 48.279377339497
1292, -3.2433789393349, 245.78407168391, 48.102111077072
1293, -4.1249364978375, 245.62334501907, 48.409413351904
1294, -23.878107628069, 273.00033384909, 11.72972300105
1295, 23.878124070818, 273.00033468324, 11.729675212484
1296, 2.9034252932494e-05, 272.75333428031, 25.880318819383
1297, -25.106128467823, 257.15777760377, 37.389582019413
1298, -29.744535330489, 255.35930946532, 35.250388568614
1299, -27.457720967227, 253.54747055675, 39.324058469172
1300, -33.607570316587, 252.93529083024, 36.051062926645
1301, -14.779008289093, 254.5127270627, 43.5303856697
1302, -18.411063516357, 255.57050387719, 41.768969243257
1303, -4.0812023861972, 251.78413195275, 45.161623211774
1304, 1.4863539984613, 242.67387995391, 45.263541206793
1305, 3.8015914514578, 207.03803352669, 45.171235288057
1306, 2.514863541438, 209.7498965503, 45.074262209135
1307, -4.8704127837745, 172.10894510811, 45.090321618211
1308, -13.375533988778, 171.64128671139, 43.774892642462
1309, -18.907543313268, 169.02793379152, 40.919313459792
1310, -25.031233713171, 169.05747765398, 40.819486621224
1311, -26.396957872766, 171.72866091044, 42.330170242219
1312, -29.172877136474, 169.88809192952, 41.150278110572
1313, -33.253562276863, 169.01105471675, 40.795858536571
1314, -10.639395521189, 207.1062082827, 48.48
1315, -46.363218836259, 203.62465935437, 48.48
1316, -24.2938577986, 239.56101680025, 48.48
1317, -6.336132872856, 198.63824261594, 48.48
1318, -32.290723134293, 186.71374769089, 48.48
1319, -15.02826737594, 215.9141169705, 48.48
1320, -21.761909300234, 209.65761595179, 48.48
1321, -10.481200897264, 241.70694677136, 48.48
1322, -41.336479260361, 227.68240273999, 48.48
1323, -17.553238913536, 199.37235189554, 48.48
1324, -30.092633391389, 201.42387793844, 48.48
1325, -13.519431315445, 188.37874234646, 48.48
1326, -23.610890847373, 220.04364392514, 48.48
1327, 1.0288935894724, 190.2325198026, 48.48
1328, -41.899190588036, 184.51580618192, 48.48
1329, -38.987570342118, 193.37695780088, 48.48
1330, -45.170172493968, 195.78042763607, 48.48
1331, -15.871106275227, 229.37929532105, 48.48
1332, -37.977101011723, 240.09940619325, 48.48
1333, -32.452117518833, 214.51907108691, 48.48
1334, -44.487557924612, 215.55005591431, 48.48
1335, -38.473060050186, 200.88642925322, 48.48
1336, -29.531809492177, 228.65113666524, 48.48
1337, -24.583199384127, 190.53603852387, 48.48
1338, -40.057710346978, 208.9238768112, 48.48
1339, -54.589149988613, 235.19214218655, 34.14698711503
1340, -55.124458629713, 235.45443214897, 11.382329038343
1341, -32.971429429067, 174.69938772137, 47.168520956837
1342, -32.989611208321, 176.2556409379, 48.329440700651
1343, -44.283239887646, 90.08073056503, 45.075827393969
1344, -58.246725344048, 86.233294101324, 42.007276361789
1345, -45.61336716703, 78.229779824027, 44.783524770184
1346, -63.73895948362, 74.443761286882, 40.800328369428
1347, 46.860970360227, 182.49441403389, 21.916633321024
1348, 33.875628490752, 150.79123755815, 40.4
1349, 37.377058663597, 135.3282438045, 38.184079146183
1350, 42.076824006745, 132.51264737943, 34.622336458608
1351, -37.377052560649, 135.32824150125, 38.184077301973
1352, -42.076789168308, 132.51266196806, 34.622367268346
1353, -33.574996237993, 160.70049000835, 40.4
1354, -0.99700822491192, 210.3496321159, 47.932446400852
1355, -52.27263236045, 191.6453247719, 47.235231413667
1356, -51.230450878165, 192.46288224493, 48.262631916985
1357, -50.113485215944, 139.29505121557, 38.671186928203
1358, -84.940857172178, 104.37312900428, 27.690234503561
1359, -83.137386458909, 91.481147128974, 33.042801028889
1360, -83.11244463163, 75.033512090911, 33.072792917657
1361, -84.940763879693, 62.276860230404, 27.690445389001
1362, 78.30185813061, 62.473108590374, 35.766742320024
1363, 83.120673553425, 91.564689166442, 33.06291412613
1364, 83.172209144531, 75.332200149294, 33.000679980181
1365, 78.30167027404, 104.17687224479, 35.766874267307
1366, -40.190706247222, 59.779518928687, 40.874991238079
1367, 50.11290418289, 139.29533858227, 38.672209559032
1368, 50.197423420729, 161.67879369571, 38.668340219524
1369, 50.219095938758, 164.66435759818, 37.435083490273
1370, 48.995786716515, 161.8254716446, 39.845370708064
1371, 49.750034409124, 163.45392299012, 38.761384594997
1372, 49.002003418228, 165.31470925788, 38.424657443116
1373, 49.22543972045, 184.02536681335, 18.334594597421
1374, 50.327049432784, 182.27686049126, 20.342801107612
1375, 49.149079769148, 183.5091958046, 19.817488817651
1376, 49.449695439328, 184.15971601047, 17.284551492269
1377, 50.438375856408, 183.18383330531, 17.966887074083
1378, 32.774902138335, 123.88270015563, 31.688735721322
1379, -32.774159352761, 123.88223874943, 31.690049756618
1380, -29.91940021721, 124.8242556424, 33.581782800462
1381, 29.917773887842, 124.82319117846, 33.583947530813
1382, -28.245333934631, 125.93687712519, 34.481696308741
1383, -25.943287959332, 125.02557403442, 36.623296650378
1384, 28.139850727491, 125.90673705026, 34.577072095264
1385, 27.288290072347, 125.4559175859, 35.418635053756
1386, 31.71147280224, 124.38325425957, 32.246322174626
1387, -31.713278087525, 124.38348892651, 32.244337789677
1388, 30.833983109668, 124.62191632289, 32.891386313682
1389, -30.830345446612, 124.63184972009, 32.887189805087
1390, 29.13218615078, 124.33429253225, 34.635343400186
1391, -29.113704757548, 124.31837321005, 34.664473286412
1392, -1.877582760516, 124.94758424558, 44.877646960286
1393, 1.8775827605159, 124.94758424558, 44.877646960286
1394, -5.5995792138444, 124.94613893144, 44.567186074341
1395, 5.6193256906335, 124.95270112067, 44.561605442392
1396, -9.2970572369515, 124.94800828142, 43.944002981704
1397, 9.326985630442, 124.95327966571, 43.935140483961
1398, -12.934980455703, 124.95113689108, 43.012387090174
1399, 12.957944754083, 124.96283271807, 42.999782736082
1400, -16.51217343178, 124.9568639205, 41.767058520702
1401, 16.492226822975, 124.95924477682, 41.773746748749
1402, -19.949529058381, 124.96204553532, 40.23603832634
1403, 19.947911067082, 124.96234769728, 40.236683829011
1404, -23.223712652218, 124.97777401688, 38.430824815761
1405, 23.223712652218, 124.97777401688, 38.430824815761
1406, -27.684607078933, 124.79733672541, 35.463981232165
1407, 29.287827464823, 125.27920027855, 33.868747815952
1408, -29.317483159415, 125.37007058608, 33.798211462273
1409, -56.73431388622, 198.43593145505, 34.146987111443
1410, -57.197072250393, 198.02557334417, 11.382329102527
1411, -50.900038801017, 151.04616392834, 25.23587832009
1412, -50.888430829237, 169.60000694081, 25.679168877933
1413, -51.28120502174, 171.58455122813, 10.679727614618
1414, -74.328189903791, 105.14536355391, 24.920613157991
1415, -72.260225835015, 105.42890691525, 14.092529044411
1416, -87.060739345493, 90.884332487311, 11.505225567382
1417, -87.060739345493, 75.575765431236, 11.505225567381
1418, -74.157278640907, 61.482510346097, 24.075651488959
1419, -72.424999232151, 61.182925610456, 12.634972005912
1420, -4.8584667968754e-06, 0.082925703005695, 39.473815573521
1421, 74.157391848063, 61.482507722366, 24.075551292686
1422, 72.425016866116, 61.182924815339, 12.634941641631
1423, 87.060739345493, 90.884332487325, 11.505225567382
1424, 87.060739345493, 75.575765431221, 11.505225567381
1425, 74.157278640905, 105.1674896539, 24.075651488961
1426, 72.42499923166, 105.46707438948, 12.634972008247
1427, 50.838710877352, 149.46025273244, 27.577897236757
1428, 50.994720023186, 166.73309116721, 21.620148321111
1429, 51.181658874857, 176.13938076116, 14.481241593033
1430, 51.229337845864, 145.93423290048, 12.660455149396
1431, 51.290168391262, 166.68411016112, 10.337430342466
1432, 51.122838123137, 157.75761171585, 16.727515475911
1433, 50.794228285954, 160.24637053777, 29.276618867788
1434, -61.987625225632, 214.62259197753, 34.059089756965
1435, -62.579074325923, 214.625, 11.472595887519
1436, -40.727445111176, 250.44148283931, 47.987568621277
1437, -46.503396396031, 247.92273963887, 47.460893970605
1438, -46.567466398513, 246.27870072284, 48.220879744553
1439, -6.1132904880737, 248.18355270321, 48.29028797392
1440, -42.11478234649, 251.63602848776, 40.086611920735
1441, -46.150105941944, 249.67539023804, 33.705443667649
1442, 44.771348352596, 188.18223920206, 9.1821909723156
1443, 45.630137330117, 188.09528077751, 4.0068380457242
1444, 41.764955577609, 189.95701501368, 16.19671431905
1445, 42.65671025118, 184.27353188495, 20.616274003663
1446, 40.419050059615, 186.83152734324, 20.398198277955
1447, 31.050898464297, 172.95474619261, 33.111511783235
1448, 37.810717225911, 179.93604182064, 26.091627128316
1449, 25.461200555534, 168.26157969727, 37.41095581679
1450, 40.629602975023, 130.80435338477, 26.30038238956
1451, 42.055372810277, 130.6047328879, 23.336181584423
1452, 44.57833230832, 130.92904624346, 20.565310145026
1453, 44.000279757762, 130.37324843734, 18.721013565274
1454, 35.639499498937, 130.4187284486, 30.785099176312
1455, 33.444405436617, 131.32682657515, 33.370654264679
1456, -35.639519208605, 130.41874129931, 30.785105245697
1457, -33.444239017, 131.32679268379, 33.370686705155
1458, -40.484486043442, 130.72343436677, 26.195607268591
1459, -43.973427591175, 130.70162726717, 20.370759342253
1460, -41.930427817592, 130.53086949967, 23.253875952287
1461, -49.21057447471, 176.80911700204, 47.022352069018
1462, -47.100570268877, 175.3374279275, 47.396927317981
1463, -48.519323971829, 177.9313251576, 48.109435177261
1464, -47.639513085416, 176.66658799018, 48.093401339952
1465, -48.317491546082, 175.72798839482, 46.946087526988
1466, -46.440941595064, 176.2817897296, 48.23238790738
1467, -49.82563018475, 177.98352371539, 46.88621732136
1468, -51.272278731041, 188.76750063105, 39.443727144128
1469, -50.740505997892, 187.2217707774, 39.4466959275
1470, -50.672904678625, 187.4362565385, 43.492025518702
1471, -51.241013378248, 188.98241501276, 43.489076256031
1472, -50.939021041541, 188.10724865061, 41.458997936671
1473, -50.489280854374, 188.83057928363, 47.029834846636
1474, -40.023111508453, 170.61921841552, 41.468996821658
1475, -39.454636952605, 172.92547033868, 43.449168294493
1476, 34.157298393392, 124.34320044125, 29.703634297499
1477, 33.352716192925, 124.75135552779, 30.259713853565
1478, 32.039068318729, 125.20138848833, 31.341375087713
1479, 30.923712177178, 125.80123532539, 32.168252989712
1480, 33.736237793236, 125.44163196868, 29.483859838014
1481, 35.41718289925, 123.9695859021, 28.615111340022
1482, 32.77329788806, 126.00035864097, 30.334615960665
1483, 33.864602086527, 126.79738850311, 29.189649363317
1484, 34.775262390515, 125.22591115505, 28.406046933032
1485, 32.686114641463, 124.92764103168, 30.842652697197
1486, 34.870038810981, 124.11085584963, 29.112848385845
1487, 35.851971698698, 124.09776802392, 27.932295819857
1488, 34.787790067022, 127.646654263, 28.446201973467
1489, 39.227790311684, 127.31829271431, 21.945380733519
1490, 40.528014962777, 126.18427681874, 19.196741255698
1491, 39.346319649543, 125.00390324155, 21.905878011819
1492, 37.69175732328, 123.72459876461, 25.909419140066
1493, 38.28768446661, 123.70123140149, 25.060097195513
1494, -39.223790058658, 127.31364012995, 21.949942225288
1495, -40.526775218543, 126.18147860489, 19.199459164146
1496, -39.348623962226, 124.99903687697, 21.905155928019
1497, -37.691020606842, 123.72427144874, 25.910922814782
1498, -38.286885918857, 123.70144469086, 25.060957951249
1499, -34.645423529663, 124.19298920643, 29.290326090398
1500, -33.261902024638, 124.7788277507, 30.337555639242
1501, -31.975852634176, 125.40766940872, 31.306584074826
1502, -30.922348097917, 125.80184812231, 32.16933235106
1503, -33.799599849932, 125.2674570341, 29.486668578797
1504, -35.450778881997, 124.16268443536, 28.36292695763
1505, -32.815929938215, 126.07002984155, 30.280009950151
1506, -33.875027044638, 126.78810340847, 29.177344034068
1507, -31.931916691975, 126.5682975187, 31.103791770485
1508, -34.700659642489, 125.6284719568, 28.343109343719
1509, -32.636427359313, 124.92642471812, 30.894480727714
1510, -33.953511812787, 124.39809147122, 29.882068675605
1511, -34.799957254425, 127.683675742, 28.45121337271
1512, 44.28323988651, 76.569269432364, -45.075827394218
1513, 57.854863298727, 81.112143143672, -42.093390153892
1514, 45.031678850038, 88.581760102986, -44.911353906476
1515, 83.137386458986, 91.481147129191, -33.042801028796
1516, 83.112444631786, 75.033512090643, -33.07279291747
1517, 74.157183394658, 61.482507360197, -24.07553746201
1518, 72.424979865273, 61.182924935534, -12.634946231674
1519, 87.060739345493, 75.765667512783, -11.505225567381
1520, 87.060739345493, 91.074234568663, -11.505225567382
1521, 74.328109603853, 105.14536091976, -24.920713752054
1522, 72.260203140945, 105.42890594875, -14.092565953458
1523, 50.813919300122, 149.0854270822, -28.524649374698
1524, 51.004727118459, 165.61994876835, -21.237992770584
1525, 51.244356033884, 169.95719345148, -12.086933687485
1526, 51.186629732365, 152.53207008742, -14.29141220341
1527, 51.080479862477, 142.49101253539, -18.345112189004
1528, 50.802396147739, 159.1274516215, -28.964700810468
1529, 44.766352638346, 188.19205973269, -9.1745448612701
1530, 45.624578093237, 188.1027712217, -4.0098661913039
1531, 84.941791859255, 62.27635194501, -27.688442764994
1532, 84.941781720743, 104.37364922663, -27.688465688141
1533, 42.657008241271, 184.28347743795, -20.605224459923
1534, 40.417115040431, 186.84978119363, -20.386487431712
1535, -12.586668903633, 173.49852413057, -45.497272296207
1536, -0.116315503158, 181.29805160474, -45.903302009761
1537, -0.11038806682985, 244.92444612018, -45.898424633812
1538, -6.6051112283745, 252.49193699064, -45.363668024361
1539, -14.781298897376, 254.52065967133, -43.524095778269
1540, -18.407632399084, 255.58028029326, -41.763685592731
1541, 39.225912910178, 127.30633802146, -21.942606669682
1542, 40.529151290253, 126.1765377216, -19.195219775453
1543, 39.35105835424, 124.99071642302, -21.906802260742
1544, 40.081512726407, 130.49639974865, -25.985557096005
1545, 41.769269182903, 130.4694121978, -23.288434165067
1546, 44.217381530474, 130.79504554052, -20.416572556861
1547, 50.252309818451, 133.38494257467, -32.94302853748
1548, 50.189135255604, 161.59475612433, -38.702980459227
1549, 50.228249951673, 164.58107418689, -37.471378679716
1550, 49.029711853207, 165.33527562233, -38.396665305703
1551, 49.750572122922, 163.40021144343, -38.786450495849
1552, 48.969958526862, 161.85512713046, -39.856266970915
1553, 49.162814661907, 184.07092208945, -18.272818358619
1554, 50.294046156526, 182.35802618704, -20.288275563856
1555, 49.447378167132, 184.17588516894, -17.202957153174
1556, 49.03520764252, 183.62988508954, -19.65852131573
1557, 50.414720163131, 183.20382994628, -18.011648152762
1558, 46.8382894829, 182.49799654693, -21.912004971992
1559, 33.875628490574, 150.79123755815, -40.4
1560, 33.487449955498, 131.35732598709, -33.388911127956
1561, 35.780039159248, 130.56345310798, -30.922202732602
1562, 37.378266395868, 135.32653739546, -38.182712520031
1563, 42.074935700846, 132.51224580671, -34.621488271373
1564, 33.96365173318, 124.84241419457, -29.536425825955
1565, 30.262792883668, 126.63839935822, -32.62079469713
1566, 33.024158069783, 125.25044104897, -30.318270259838
1567, 33.923298998336, 126.75949293997, -29.12229725033
1568, 32.204338747741, 126.05619390436, -30.888343987617
1569, 34.751510350989, 124.87589327143, -28.621602995835
1570, 37.56279135676, 123.84264151978, -25.927636539249
1571, 15.0736565428, 129.154117276, -22.400555315208
1572, -14.149092252556, 112.71308757353, -22.995721089556
1573, -26.98561616498, 120.7849029651, -0.88120383362747
1574, -14.417783846665, 120.84341309186, 22.828217384431
1575, 12.403614446932, 120.90374087916, 23.982292397764
1576, 26.95824106573, 120.99346139805, 1.5010791591295
1577, -12.913429818705, 129.50067636694, -23.711670761829
1578, 14.589612544187, 112.5350551729, -22.718785306669
1579, 9.6107919829844, 142.8479492543, -22.203878059602
1580, 15.019456055551, 71.154464156881, -28.618147036372
1581, 22.365163935229, 69.435983498475, 23.331991817039
1582, -12.936894105483, 35.356715648195, 29.617885996531
1583, 28.132243983205, 26.191979076337, -15.910978865848
1584, -12.369114603079, 34.067506305093, -29.859460878185
1585, -11.830808305374, 70.529954899218, -30.076807923074
1586, 32.170241718921, 69.737214373435, -3.1077238851315
1587, 30.884993145806, 44.036765898962, 9.5236336754181
1588, -5.1843451311877, 69.259023503393, 31.901488453687
1589, 16.890469515873, 44.21009130859, 27.555297848751
1590, 25.475725091832, 51.386080304251, -19.888937403627
1591, 27.197540759569, 19.577298541039, 17.460703783973
1592, 0.49361889692204, 52.612844394783, -32.316230293532
1593, 11.319417257717, 24.519162708903, -30.272977933228
1594, -25.234763702143, 53.473409892811, -20.193788671198
1595, -23.925089633459, 56.315231580356, 21.729530276353
1596, 6.2722967667197, 21.438813173545, 31.705530957078
1597, -25.863923011209, 73.877389286496, -19.381431486612
1598, -26.144102968954, 20.190451540976, -19.0017967558
1599, -26.223330620058, 19.135593067345, 18.892308784029
1600, -26.919630367132, 77.437598377963, 17.886193024145
1601, 23.878115324533, 273.00033424366, -11.729700396234
1602, -23.878117414012, 273.00033434902, -11.729694359738
1603, -6.2741763240164e-06, 272.75333431695, -25.88031672026
1604, 39.311365541661, 193.30833380902, 20.725108908035
1605, -9.6167027240464, 158.34207861937, 43.387009907544
1606, 1.8939167007641, 130.34706035516, 44.399624767903
1607, -5.5599585880168, 130.30715899138, 44.090820592268
1608, 23.109045702671, 203.06580372043, 37.958999021469
1609, 37.568921676347, 191.989179037, -23.737938496772
1610, 16.479317205537, 226.26084673551, 41.271608939309
1611, 9.2234090650596, 130.30715899138, 43.472316768474
1612, 9.3232940542467, 150.79123755815, -43.451004453039
1613, 9.3235690391547, 150.79123755815, 43.450945448541
1614, 41.203741751107, 244.2471706941, -16.648281163775
1615, 41.203671541001, 244.24703591083, 16.648454929552
1616, 3.9905223315188, 133.26563444073, -44.260471433568
1617, 33.097462772305, 189.06055739853, 29.655885723342
1618, 24.405496288728, 182.87111018443, -37.13873114285
1619, 41.540732915217, 204.87789910617, -15.788638600798
1620, 1.9277150934642, 164.94713762099, -44.398170170835
1621, 21.583649921688, 226.53320979854, -38.846617047795
1622, 36.405590652715, 222.19459403369, 25.486203507525
1623, 34.791345107876, 194.41417504527, 27.649157411839
1624, 11.821455104588, 213.21585108941, 42.838846847344
1625, 12.444741452006, 166.57489745488, -42.661950379615
1626, 17.300970613928, 173.7328324395, -40.933971415146
1627, -12.822393655722, 130.30715899138, 42.549968518645
1628, 43.544065759662, 204.74175741165, 8.8785098478411
1629, 41.546324840125, 194.89565005211, 15.773918101691
1630, 16.331757698636, 130.30715899138, 41.330222482743
1631, 29.792590540659, 196.30537621208, 32.974462071073
1632, 33.49481994568, 200.43769992798, 29.206345831112
1633, 17.134255621453, 198.95154922508, -41.004034975825
1634, 38.090521162894, 199.04550416272, 22.891609762949
1635, 33.144391570844, 187.9741409455, -29.603427291423
1636, 32.514818559625, 195.74419348682, -30.293566545303
1637, 13.65796669804, 250.32845896706, -42.289165819099
1638, 16.082359465278, 252.07182212944, 41.42790501618
1639, 12.131121959539, 166.61193589522, 42.752186844684
1640, 13.076640587263, 133.87491849022, -42.472521363248
1641, 8.9705107576057, 140.65021762033, -43.525205763416
1642, -2.2177754036866, 145.536773077, -44.384626530577
1643, 40.456606228309, 194.69649492274, 18.389578910011
1644, 42.638941546983, 195.96228007502, 12.523348743566
1645, -2.4261997765065, 133.25002476581, -44.373721442364
1646, 17.828973734649, 173.74770838553, 40.706772109431
1647, 7.1374122723303, 159.39060994326, -43.863093211204
1648, 40.427894428019, 210.01440032026, 18.452613693375
1649, 40.698250432054, 198.69471076838, 17.848417626495
1650, -9.1782407701931, 133.21882418031, -43.48187549272
1651, 27.883809875697, 211.46867173871, -34.60356552172
1652, 36.690700567172, 224.45941422191, -25.074012281447
1653, 37.735777248248, 193.03253010495, 23.47178551944
1654, 15.361415013752, 185.08010496584, -41.700605856213
1655, -0.271167430462, 155.80821489009, -44.439172677095
1656, 12.846480730195, 130.35063397157, 42.542702462922
1657, 11.032544401651, 134.63629377076, 43.048769599439
1658, 5.6170687082426, 134.43734745797, 44.083581287446
1659, 0.25323359589985, 135.55874831141, 44.439278490384
1660, 4.1165652334896, 140.65290159389, 44.248926435321
1661, -2.5392450431819, 141.84484967644, 44.367396076519
1662, 5.6104466622868, 130.30258813693, 44.084424553913
1663, 25.785630899829, 192.33194858683, -36.194127135459
1664, 29.929123275084, 243.73416031344, -32.850588731176
1665, 1.4891890021903, 148.51414429007, 44.415041552561
1666, 2.8173339290251, 157.83390636619, 44.350605740309
1667, -4.5887367159266, 149.60914702672, 44.202455761551
1668, -10.113509081372, 138.04943787733, 43.273901303915
1669, 29.111018892514, 203.45622411784, 33.577703599855
1670, 25.840869086044, 211.73460740239, 36.154710410649
1671, 24.012123437342, 193.91687608158, 37.394271326366
1672, 35.081958795191, 210.00753898099, 27.279475198261
1673, 27.133740556915, 225.07314691783, 35.194796822684
1674, 24.210480409928, 238.41709443877, 37.266154058616
1675, 10.71570692026, 141.35904411349, 43.128728536778
1676, 15.515293653648, 135.6557911914, 41.643598101522
1677, -1.8576474623696, 130.30833143715, 44.40115703341
1678, 43.132885334272, 197.21036792612, -10.698962694604
1679, 33.681108313014, 237.09863969386, 28.991318404085
1680, -15.314739189662, 135.33505075571, 41.717770356919
1681, -6.715857721691, 153.97136521958, -43.929612507533
1682, -4.3195636751014, 135.7237238329, 44.229571212671
1683, -9.2246649131088, 133.31984373273, 43.472050299484
1684, 19.686388972186, 217.35640383012, 39.841682811294
1685, 26.217344044611, 181.49231269467, 35.88264860969
1686, 36.916567594423, 200.83874613726, -24.740263479728
1687, -3.675182261038, 160.03291169376, 44.28777072001
1688, 35.537366672139, 190.21803540038, 26.683499958025
1689, -16.871550443176, 131.31464018494, 41.112825074949
1690, 0.26468275306923, 139.42447544249, -44.43921177339
1691, 41.314346768218, 229.10572717819, 16.371876835459
1692, 10.195129896346, 158.20560409613, 43.254744553594
1693, 39.43657448309, 196.46160529003, 20.485853485752
1694, 9.2569972958691, 173.53713351826, -43.465176878327
1695, -9.2234805703263, 129.92775091059, 43.472301597325
1696, 16.779337520916, 209.7316940836, 41.15054595457
1697, 30.124832906335, 252.79202552895, 32.671211216688
1698, -28.901636911875, 120.94842661263, 39.510247143266
1699, -2.1962274665899, 120.94841696577, 48.903394115458
1700, 25.369892962641, 120.90438513225, 41.927011127754
1701, 10.215297951717, 120.09382210479, -48.915886194048
1702, 44.00957730616, 120.33562047268, 23.055509651244
1703, -45.067953372315, 120.6673170045, 19.953840262677
1704, 42.782424263867, 120.39032124633, -25.131457882143
1705, -31.74464174654, 119.96279306007, -38.794649142012
1706, 17.991721631128, 121.08174385035, 45.355617897843
1707, 16.127884386046, 119.95122615706, -47.476527042505
1708, -10.162059690098, 121.08174385035, 47.723858446295
1709, -21.730202512596, 121.08174385035, 43.687897876971
1710, -36.291281434468, 121.0080569523, 32.746825176438
1711, 6.1259877995078, 121.08174385035, 48.407710084525
1712, 23.738897031908, 120.05307585145, -44.027679020706
1713, -40.192511418158, 120.34711460972, -29.182194865573
1714, 31.928262321709, 121.08174385035, 36.897427922055
1715, -7.4735199903476, 119.62046700412, -49.979604106643
1716, -13.831859698654, 119.69439611526, -48.51388332886
1717, -19.828271425776, 119.50851879672, -46.627846920088
1718, -26.511322674912, 119.96279306007, -42.54288250336
1719, 39.647176784586, 120.14315423916, 30.320706891906
1720, 32.092484598531, 120.10714487349, -38.283182797866
1721, 28.109735556633, 120.10634649951, -41.29730599345
1722, 36.609755670676, 120.09382210479, -34.012380453665
1723, -40.11325438198, 121.08174385035, 27.780585757569
1724, 48.625762748889, 119.63004606344, 13.718449005097
1725, 5.5600113127384, 120.37794761111, -49.32013642255
1726, 45.067953372308, 120.6673170045, -19.953840262673
1727, -2.8551060273162, 121.18570655249, -48.586077365588
1728, 22.507013648098, 104.43972568703, -51.888996296367
1729, 27.016188797896, 60.624068621641, 49.690634357356
1730, -26.879618851034, 60.586158637992, 49.764642974939
1731, -16.103924901908, 92.430283752046, -54.218974563834
1732, -14.068557661489, 74.262184438669, 54.782381157863
1733, -30.97516472744, 54.973388265017, -47.324124610054
1734, 37.744287678609, 49.84544559066, 42.123655440078
1735, -37.457822137407, 48.692263439373, 42.378593189515
1736, -22.60240408757, 61.300626878907, 51.847516135898
1737, -24.056925564046, 56.913347524145, 51.188845781146
1738, -19.224351554564, 56.356876161346, 53.192648996892
1739, 22.783136961224, 61.494225924945, 51.76835201362
1740, 24.053676159224, 56.470398772013, 51.190372759213
1741, 18.709411518041, 56.219911195675, 53.375945149932
1742, 21.420700718742, 49.359722701106, 52.346797234578
1743, 13.553127847239, 49.000098366109, 54.91216919369
1744, -23.230963497912, 50.066571276454, 51.568943512144
1745, 16.285054471705, 62.576604987939, 54.164846541402
1746, 2.329855449193e-13, 99.175445701942, 56.56
1747, 6.7551942976779, 49.64688394811, -56.155150698762
1748, 43.970046247353, 22.447595836387, -35.576236914627
1749, 18.342265650065, 39.862052943258, 53.503223181622
1750, 6.4976211077537, 39.173454074684, 56.185536572503
1751, 0.2765556307421, 49.570750241457, 56.559323873108
1752, -8.6500071776545, 40.32146818497, 55.89464174522
1753, -13.763866913572, 77.068401768821, -54.859726280628
1754, -3.3802356220817, 86.589364119856, -56.458901929981
1755, -47.657396941791, 42.975244439367, -30.459909992195
1756, -29.245586431578, 55.128233737415, 48.412077772732
1757, -37.737270391644, 42.442244429187, -42.129942124194
1758, 14.4604546549, 92.641167382039, -54.680241871937
1759, 31.087167442094, 57.829560347758, 47.250625608844
1760, -55.606276256548, 39.106417071613, 10.342902923281
1761, 56.185225974723, 37.831226622147, 6.500306313502
1762, -17.210799808435, 61.790764488339, 53.877843033607
1763, -12.469343897255, 56.044702772542, 55.16837012974
1764, -8.1092086413645, 64.118735846138, 55.975658416948
1765, -4.2264024549571, 74.931894345876, 56.401871620441
1766, 1.1012000020666, 64.696990128666, 56.549279027725
1767, 6.4656579481108, 75.226244144461, 56.189223764865
1768, -15.615452126963, 28.277865844258, -54.361670824861
1769, -16.100107905393, 104.67065288189, -54.220108128209
1770, -0.20697357258181, 72.554649037725, -56.559621303013
1771, -11.218569362347, 61.994440783245, -55.436245376669
1772, -24.884348470013, 60.417900382348, -50.791759186141
1773, 14.155504787367, 92.412996270356, 54.759978855135
1774, -16.103924894151, 92.43028374572, 54.218974566138
1775, -47.673166759174, 44.166457316893, 30.435222541522
1776, -40.12835430764, 35.126826286886, 39.859111637874
1777, 44.875676029199, 47.659641759679, 34.426839833513
1778, 39.793863187705, 37.052922288294, 40.193059756608
1779, 13.190265431284, 26.875360407626, 55.000459069469
1780, -30.62745376326, 45.344637756938, 47.549896697883
1781, -21.59096729525, 40.451851592203, 52.276799168039
1782, 20.005469164384, 68.947333250184, 52.903825981803
1783, -44.681591985497, 28.022334340334, -34.678364114265
1784, -52.87780056268, 28.279723144767, -20.074157707198
1785, 47.657396359496, 42.975243980161, -30.45991090325
1786, 8.3255915258441, 57.188259841638, 55.943883720607
1787, 54.78139316325, 25.168365076946, -14.07240431104
1788, 37.743540309669, 49.84608264965, -42.124325097174
1789, -52.111427780879, 23.848541028515, 21.987102915988
1790, 28.438118550016, 27.723529264212, 48.890766135695
1791, 2.181357067024, 84.518782171596, 56.517920001944
1792, 9.9186967073257, 82.214242750455, -55.683507932135
1793, 30.337951397808, 48.453099445122, 47.735126531562
1794, -9.8935328724989, 44.661399437325, -55.687984406879
1795, 3.3542214936432, 30.662276360367, -56.460453400337
1796, 5.0157095858675, 95.474140040497, -56.337165861891
1797, -15.445493970047, 21.275953955227, 54.410204153461
1798, -15.638586574618, 47.974562894112, 54.355020098867
1799, -29.11591740305, 25.832841469718, 48.490173785817
1800, 50.322199411207, 35.543536465355, 25.820725133479
1801, -4.1997564886698, 57.106428610451, 56.403861972704
1802, -20.136085043677, 66.039942547886, -52.854249395047
1803, -30.822576703558, 28.028220271682, -47.423647744066
1804, -24.8581940735, 41.968786463258, -50.804564631578
1805, 9.2975839817309, 64.580119748382, 55.790577449088
1806, -0.86107538623777, 27.369296497737, 56.55344506906
1807, 13.672710621839, 68.029802623587, -54.882516198253
1808, 41.226288628541, 18.308117515456, 38.722431818214
1809, -35.252553824132, 51.705175647024, -44.229979073889
1810, -21.481195791219, 67.959369085746, 52.322001370163
1811, -17.33376066728, 52.78475886129, -53.838409533803
1812, -24.974751924888, 52.151710734825, -50.747368072545
1813, 14.431733787201, 69.554721103119, 54.687829175196
1814, 16.232778205391, 80.847677961875, 54.180536281349
1815, 54.313484753851, 18.070963570683, 15.782236023237
1816, 14.27178947239, 100.49448030131, -54.729787367171
1817, -55.499375277508, 42.577957652912, -10.901969721402
1818, -56.542552081899, 22.313899919956, -1.4047790095709
1819, -5.7538650459129, 98.547051811034, -56.266567667074
1820, 19.981863288687, 98.128266714679, -52.912746474854
1821, -41.068703072168, 17.806113801798, 38.889525941699
1822, -30.886216285792, 48.317172484115, -47.382224974639
1823, -10.730285401765, 83.319076134111, 55.53282430416
1824, -7.5273986676284, 49.998825296889, 56.056862820698
1825, -22.133409373596, 102.43313970905, 52.049455227704
1826, 18.170443821629, 101.64431273559, 53.561820089734
1827, 24.884350413086, 106.23209963698, 50.791758234174
1828, -28.061252400211, 58.174431117362, -49.108041232894
1829, 55.50292189996, 43.695063420601, -10.883899143546
1830, 4.8584611818114e-06, 0.082925703946243, -39.473815627406
1831, -25.304438776222, 256.94244165943, -37.36692996967
1832, -29.723513673975, 255.30625138977, -35.319909312721
1833, -27.631338668292, 253.59082934823, -39.131844875734
1834, -33.08910155215, 252.96326285459, -36.405933802352
1835, -28.684899808683, 124.2597117545, -35.070665788408
1836, 29.244637198732, 124.78929147878, -34.194331234222
1837, -27.266275958909, 124.81879487345, -35.772947933921
1838, -2.1803293810929, 125.32122732232, -44.706699653902
1839, -23.830645194495, 124.66782861389, -38.241182868182
1840, 24.882653389364, 125.22059550463, -37.252870160137
1841, 31.030576864102, 124.40860524621, -32.880087382278
1842, 18.802414089867, 125.06996397098, -40.731166565161
1843, 4.7581662986864, 124.98773372489, -44.645473925833
1844, -25.807575112871, 125.02077492347, -36.721687508995
1845, -40.75304723116, 136.41006451997, -40.927600730769
1846, -34.847943725624, 134.71074311805, -39.616926317513
1847, -40.274179747769, 133.21627133069, -37.809931074134
1848, -26.392659781842, 138.19051019795, -41.792912229179
1849, -30.243488699691, 136.94994115301, -41.236534755276
1850, -43.815253938588, 132.04624488143, -35.308681489511
1851, -47.976529317569, 214.5034998039, -48.48
1852, -44.114122889481, 231.9748476449, -48.48
1853, -32.497012419103, 184.11549492003, -48.48
1854, -26.55159222782, 239.84922590277, -48.48
1855, -51.592664155026, 223.77581908457, -48.48
1856, -40.122311582827, 221.2292575682, -48.48
1857, -37.34717573426, 210.38839400171, -48.48
1858, -29.069602609522, 218.35080601598, -48.48
1859, -26.354073348887, 205.94340292626, -48.48
1860, -43.254166056663, 184.04659295474, -48.48
1861, -45.875058644002, 203.04717677629, -48.48
1862, -45.648754134073, 194.43150170518, -48.48
1863, -36.589265206377, 199.89327171001, -48.48
1864, -38.695537981709, 240.4041913293, -48.48
1865, -38.480648794479, 191.22360334635, -48.48
1866, -12.321484397418, 226.82880108698, -48.48
1867, -25.772944667145, 192.87166029589, -48.48
1868, -13.163019453915, 199.13245909497, -48.48
1869, -22.128008016793, 183.52572558527, -48.48
1870, -33.575405568075, 230.15355873276, -48.48
1871, -13.611183726391, 186.46797928226, -48.48
1872, -13.729228909957, 238.52882011744, -48.48
1873, -17.793190207621, 215.4130821766, -48.48
1874, -38.20447671001, 182.18773852151, -48.48
1875, -22.899266117092, 229.11302393541, -48.48
1876, -26.297053693723, 163.82723350505, -42.42
1877, -33.726214662555, 164.47884653608, -42.42
1878, -28.123902224631, 144.83616448048, -42.42
1879, -32.303901354239, 147.77045428539, -42.42
1880, -28.077714664792, 150.36509255014, -42.42
1881, -33.026171489347, 152.54345953761, -42.42
1882, -28.513584453442, 156.26436171487, -42.42
1883, -24.948015364991, 154.67849133572, -42.42
1884, -22.755607771268, 147.07151526145, -42.42
1885, -21.17524802214, 158.34856841708, -42.42
1886, -39.004334540492, 164.53672478761, -42.42
1887, -36.785678228465, 160.19268066224, -42.42
1888, -42.360230939893, 160.58025808765, -42.42
1889, -37.032012981432, 155.28233322537, -42.42
1890, -30.483918561206, 165.47757546379, -42.42
1891, -29.672155653597, 161.5442982654, -42.42
1892, -26.121211437579, 158.93259064762, -42.42
1893, -32.687781898906, 158.19724121883, -42.42
1894, -39.135517499704, 148.53271764104, -42.42
1895, -43.292895697953, 164.98914208177, -42.42
1896, -25.095927195607, 170.34440257157, -43.023338022267
1897, -18.12242898771, 170.33597215222, -43.019889112106
1898, 44.283239887815, 76.569269435242, 45.075827393932
1899, 58.246725344416, 80.416705898475, 42.007276361708
1900, 45.613367167385, 88.420220177035, 44.783524770106
1901, 63.738959483583, 92.206238713189, 40.800328369436
1902, 26.209253109573, 118.32813266646, 23.628619604925
1903, -27.203022926466, 115.66560873494, 22.292099539719
1904, -23.952434571244, 121.99821803157, 26.155272275234
1905, 24.422400037059, 120.84755465246, -26.857390402738
1906, -23.188620140184, 121.03551760295, -28.541342719015
1907, -30.311208489946, 114.68906642236, -22.559795697896
1908, 31.627347517911, 121.19517315762, 27.118473493051
1909, -28.836553540333, 158.96057326644, -21.304820511265
1910, -29.534374750971, 123.33749386523, 28.794083523262
1911, 29.00363823517, 125.68670493719, -15.844555591121
1912, -29.012656953752, 125.71981579091, 15.851796375355
1913, 34.728361427491, 176.22417655042, 10.850694368173
1914, -11.376382393484, 177.32580500596, 26.71757740349
1915, -29.997786997451, 171.84989864777, 21.039144391674
1916, 33.392902176282, 143.60761122485, 26.629626102156
1917, -33.392937878602, 143.60632222985, 26.630390020931
1918, -11.220007226894, 185.13914391639, -30.674958424484
1919, -32.629712713576, 174.31666665155, -27.054000660919
1920, -19.579375327614, 245.10053698072, -28.025699113217
1921, -30.915020031737, 144.51300054892, -27.004350513503
1922, 32.037901463111, 145.24225668218, -26.201065184185
1923, 31.706784685687, 130.86212071757, 20.607590253799
1924, 24.255195014413, 161.68377747374, 20.318093619479
1925, 34.716512548654, 176.23528051956, -10.849450467643
1926, -20.28094899415, 246.46414952575, 29.063208619587
1927, 22.193236184696, 103.60427211237, 36.567745584939
1928, 25.394155808516, 122.9479045274, 31.186102884527
1929, 31.597070990115, 119.33113849175, -24.729158769429
1930, 39.607425176259, 136.74796437919, 19.273251521157
1931, -33.666971192266, 223.35716177498, -25.527186640435
1932, 20.922530472922, 165.52224359633, -23.704023012642
1933, -37.361165963567, 139.88791147046, -18.737159471744
1934, -30.268064142169, 125.77884141621, -16.730965451429
1935, -42.081048154041, 191.0659148488, 39.820172405217
1936, -24.290589876109, 152.62865320084, -3.9327807330828
1937, -5.4876158694691, 203.95985632375, 35.84339501852
1938, -21.781247839104, 174.0582457767, 30.8126174276
1939, -32.90828657728, 175.42197151636, 31.574566048298
1940, 31.112831173054, 186.6400143796, 13.79573015522
1941, -33.281748880129, 181.05730448494, -37.821207165677
1942, 16.748057750335, 117.10692767506, 33.671450425282
1943, 4.2575824578243, 113.7220314281, 31.652459644893
1944, 37.040242051459, 155.18587848552, -10.566902324421
1945, -46.175033979307, 177.5735919649, -45.262505093178
1946, -33.81498365519, 226.5897433961, 24.465244952913
1947, 4.0289962491395, 128.30716591819, 31.950193149027
1948, -31.589916812012, 130.41928457212, 22.259589334907
1949, -25.514036101807, 121.21322209944, 31.888873507184
1950, -31.747394075965, 123.37626720502, -26.103124427182
1951, -31.558954455806, 163.20530018759, -31.409886603529
1952, -46.387201026068, 177.55889000933, 45.53452834466
1953, -8.8933226161332, 117.45651253869, 34.773490492104
1954, 10.537097175125, 121.01771552258, -34.197553006358
1955, -27.119887894502, 167.68611312509, 5.8949688428179
1956, -32.53803751166, 120.20195950527, 23.865644034748
1957, -43.964709026802, 191.2319965045, -41.55209511529
1958, 1.2480884798581, 108.41201577182, -39.707795065888
1959, 32.727424084988, 119.72143518526, 14.847778298165
1960, -0.16542204227368, 168.47595917104, -29.008216894657
1961, -17.458438170959, 102.70889364705, -37.708619249804
1962, -12.811686140246, 131.48751322796, 30.944324811207
1963, 3.3579479909825, 167.9442474488, 28.546753089317
1964, -18.709632298246, 118.40029991868, 31.619398131993
1965, -22.362464821554, 156.55499200991, 17.098131404063
1966, -27.962763773521, 173.04902742829, -8.8849926830254
1967, -32.729411532774, 200.06198719603, -28.226501427846
1968, -15.272471527947, 169.36819202409, -22.595268365225
1969, -40.544193476097, 146.76542893251, 4.1612259855492
1970, 9.8762552158433, 154.0894551863, 28.417486580062
1971, 23.611629449057, 94.860090383828, -37.060245668348
1972, 32.844519225551, 99.92799262895, -8.0895102854054
1973, -18.764121136295, 165.41099645976, -8.7616499538176
1974, 40.866604660747, 178.0529737043, 1.400246470666
1975, -30.585552748724, 133.51413211524, -21.995309052046
1976, -5.8027278445236, 244.15676878564, 41.3691358593
1977, -37.820928300834, 226.37135900326, -2.8670717087821
1978, -8.6912605652295, 243.42826122675, -35.689799085317
1979, -27.669464637211, 153.36099304815, -32.242129202572
1980, -34.936111874915, 206.90405899258, 28.134947885818
1981, 16.00668406089, 135.41204117583, 29.528534120308
1982, 34.472748140544, 157.1557542933, 5.5843026871354
1983, -24.246800921847, 108.30731635054, 34.067049707205
1984, -39.617623773957, 108.39209030865, 10.359077600811
1985, -3.5074948221767, 156.78634559914, -29.480927741877
1986, 42.535910156812, 178.76425663815, 13.888722296656
1987, -41.893266147393, 210.13335259617, -13.568874070257
1988, 42.542528114711, 178.77785515073, -13.893878155857
1989, 18.348487973623, 176.88624208929, 22.225826796407
1990, -6.6518904200983, 159.6532895659, 26.084059533837
1991, 37.966671814595, 139.07280173419, -18.524599042891
1992, -43.454677671481, 211.15515470774, 11.508289816197
1993, -13.454042442486, 173.04918886006, 34.656401931211
1994, 63.719609027921, 84.413583989141, -6.9949547586188
1995, -26.388293204826, 129.31894417795, 28.351818500761
1996, -33.151437429706, 177.12554929098, -45.561841619319
1997, -12.01385453231, 176.27469638296, -36.761627163128
1998, -25.923353461542, 65.793139183467, -33.6546300995
1999, -63.790199285559, 82.817265147047, 7.1195342217549
2000, 34.756772646102, 111.05960851978, -15.489943344636
2001, 21.358308041882, 105.8501226239, -28.2340583051
2002, -25.969863845435, 128.11626859474, -27.15578798531
2003, 26.746027858937, 128.86689548759, 28.478897875744
2004, -28.597800838453, 242.51335965153, 36.058616509343
2005, 33.690616999303, 186.55647081466, -4.7079255420566
2006, 63.368528395376, 83.081620945741, 15.517100615962
2007, 34.309402200054, 135.52390352081, 5.2334106294838
2008, -48.822579622011, 193.95140677847, -43.848065455129
2009, 30.672132652121, 195.01610879315, 17.779922632985
2010, 22.975697779979, 167.33462595357, -5.7388736613529
2011, -33.421735059676, 179.99528446636, 39.297480187822
2012, -32.763194654018, 237.07128643887, -33.897371160695
2013, -13.996895780726, 225.33734133737, -31.90547383341
2014, -30.574854829146, 240.09875153953, -13.578830659957
2015, 19.13135872558, 122.25437898885, -34.127552626733
2016, 1.4909092103461, 180.10515192358, 36.873913811708
2017, -34.567690813934, 111.536751101, 26.700792363756
2018, -41.66730566429, 168.67432783619, -33.366003793784
2019, 13.103176132661, 179.73647850293, -24.872531542654
2020, -13.752096797244, 119.80595300177, -33.110012292817
2021, 33.320109483745, 122.52341899942, 20.882666126678
2022, 40.766121841688, 96.886093612048, 17.387681172629
2023, -41.948037226256, 141.54400492588, -32.253258905646
2024, 1.9663901829001, 124.34828249825, -37.412981205053
2025, 29.119898016069, 124.10215874709, 28.594695479809
2026, 25.779723432254, 60.570040031894, 36.495647480936
2027, -19.394771720557, 52.696436248587, -38.521596892697
2028, -20.651443486578, 152.04305057111, -14.699222543688
2029, -32.495808284202, 121.97220730872, 27.952638852555
2030, -48.004676838455, 193.46236742067, 43.334075884798
2031, -16.158084340506, 157.9057439708, -27.582821685253
2032, 26.712717903613, 128.96337618478, -24.841252084431
2033, -47.18035954613, 220.74788197284, -34.030559237998
2034, 30.121883731384, 172.13241697434, 21.163010038129
2035, 21.69970864154, 170.86642544403, 9.901748045851
2036, -8.0988353387513, 221.60223891631, 32.756466777624
2037, -34.93934709208, 104.11310548605, -28.927892938675
2038, -64.343665410693, 83.452396291933, -15.747345707559
2039, -19.655852385915, 190.3800831708, 32.66687612869
2040, -20.476977512525, 149.37521318247, -0.6412442216827
2041, -22.709907360219, 155.126882421, 6.6988170061419
2042, 30.342241516344, 185.8328555617, -15.442943273749
2043, -18.157266283832, 138.079970048, -29.070827236414
2044, 26.948199861534, 114.5993314586, 35.658022081903
2045, 35.547689388164, 100.75201773479, 22.400607917206
2046, 41.809571064962, 107.91513272969, 2.8445272375671
2047, -14.828676866226, 168.04501982718, 18.178624931888
2048, -19.816770932703, 181.29817838352, 15.260261490141
2049, -35.064529123415, 189.35851218338, -15.377595252785
2050, -28.271946193717, 140.78042761083, -34.037590499576
2051, -34.332162534898, 116.68882776279, 34.032576660224
2052, -17.09061867752, 246.33273681939, 38.441662930309
2053, -33.128183209557, 177.13847577232, 45.520091729752
2054, -2.7867876591571, 122.86910670867, 36.542593682949
2055, 18.590022172847, 167.33728282831, 28.396818114473
2056, -36.209937560789, 141.24758136207, 14.615345306973
2057, 6.4558358158578, 203.95033639657, 34.903950881866
2058, -26.959458387599, 68.921481069081, 35.454764668516
2059, -11.259356216893, 52.608714343501, 37.928271329129
2060, -21.611755467503, 172.72300031434, -31.9858264717
2061, -21.967468296381, 182.36694495669, -20.866096481542
2062, 37.935318577937, 159.03593964084, 22.590492998828
2063, -33.312152014737, 191.6778120598, 20.670209696614
2064, 0.11142008830412, 180.28613689066, -32.687962383081
2065, -17.365589713306, 260.22837085555, 22.698633630287
2066, -34.483686705755, 122.99000380034, -21.763519005571
2067, 36.576700677318, 115.01524508314, 23.656552282958
2068, 13.808749318587, 155.42453151785, 18.999087305229
2069, -28.444722703543, 224.16262399795, 7.9736779121033
2070, -29.125382063893, 241.43885695875, 13.574333591127
2071, 22.690849813408, 151.86093960423, 12.050896939882
2072, 30.956483374381, 126.114167579, 24.683435580996
2073, -18.254794295493, 252.90390062519, -32.876178520999
2074, 14.154051007468, 166.81225624131, 17.55166898486
2075, 47.049053698785, 179.64980884913, -18.787453081731
2076, -20.649900655253, 181.00187320798, 39.490107511088
2077, -2.1582319691669, 253.13945344641, 30.390198185644
2078, -32.63589124731, 171.97702354814, -36.020930385163
2079, -28.975183397748, 244.81539795906, -36.943860551787
2080, -28.568320177191, 122.61983179896, -29.95804738616
2081, -27.099500302432, 114.35906184444, -31.889957144369
2082, -44.356184262856, 206.08156447606, -34.333737647253
2083, 12.172761796282, 123.66910206788, 35.03298588107
2084, -36.372043601994, 117.30047916309, 21.257401893008
2085, 2.0206455807068, 192.35246658556, 36.829966299001
2086, 25.191377253201, 152.92291053188, -11.416516204728
2087, 15.771957570562, 155.46750589407, -18.060598537738
2088, -35.48129857093, 157.66589196126, -35.189994699639
2089, -41.539206021737, 159.69024145277, -23.886873105261
2090, -19.789753685946, 204.46089680669, 35.280620657451
2091, 5.7004631064944, 144.35178041857, 33.222491384656
2092, -46.30710534691, 217.15086893607, 33.061952880372
2093, 8.6661341070303, 150.18575135582, -22.180353817883
2094, 8.5745419975884, 157.3923668262, -30.676876751694
2095, 31.258935971616, 67.319060256767, -33.383070913692
2096, -0.38377917932384, 179.62515414744, 22.862570615524
2097, -24.333086890583, 191.72180115442, -34.218322173765
2098, -14.99042881524, 207.85180152026, -33.840555328012
2099, 17.486849264447, 174.45323302567, -14.425767568593
2100, -32.324281460748, 135.98713499849, -29.820337693924
2101, 12.08303917685, 169.52016515923, -31.332572008455
2102, 24.389145368045, 178.86152797386, 0.044671292079864
2103, -10.989610809207, 235.61220731137, 30.983239304571
2104, -22.817495730398, 226.92959017745, 34.952421567758
2105, -31.454170011854, 125.62432785123, 26.767508205057
2106, -6.6752960793739, 121.6840819243, -38.479565563067
2107, -11.535827005968, 113.78021211257, -41.691673805486
2108, -40.56102454462, 198.41802185171, 0.74030018798404
2109, 41.266579582111, 139.10363123841, -3.759353329743
2110, 35.077802689383, 132.64055048877, -19.639868099119
2111, -33.167726910959, 214.32732829047, -35.940452583434
2112, -18.534618235118, 253.41182110161, 33.580518604964
2113, 22.237869700549, 229.51424351414, 19.434994798441
2114, -28.0923474103, 167.92295460203, 32.477634449412
2115, -35.066080547403, 181.54598550469, 4.8584583869114
2116, -7.050110783948, 187.97452843522, 30.888553562305
2117, -31.990999840559, 165.92654187558, -36.682477271074
2118, -27.080152936149, 161.34862027599, -36.212078397043
2119, 9.2222810116734, 166.45251355952, -19.463631490065
2120, 34.281332619637, 109.8793431067, 33.426098391109
2121, -43.313947400447, 138.69990505317, 25.668368227071
2122, 6.5763605292254, 120.30802073165, 38.936505696003
2123, 1.84340922666, 115.20167660666, 43.906507417798
2124, -38.548960853962, 110.95270328241, -8.3717845969286
2125, -25.939527347721, 123.22410972454, -32.355903121531
2126, -33.146301546592, 127.76326733018, -23.179405897468
2127, -36.081122313092, 130.16687974332, -17.364233416137
2128, -25.80659227211, 224.88791913609, -13.702255785261
2129, -40.290648560105, 177.42931809443, -38.439225288997
2130, -9.5660583842548, 123.96529744142, 37.422355266416
2131, -34.783095680918, 134.36746344201, -1.7042432132272
2132, -14.263180284367, 148.14908558079, -32.749189406356
2133, -44.310960267242, 84.338713314587, -24.118671243869
2134, 26.128072281098, 125.50166343187, -29.202780763418
2135, 9.3687715788055, 145.51874961537, -33.255452535258
2136, -18.401008776182, 147.07048372044, -3.1930576992418
2137, -29.410748490447, 212.24824297717, -18.763534226577
2138, -5.4894078146242, 175.83474906381, -21.675417492161
2139, 4.9994183535332, 150.04692918475, 21.826239387859
2140, 41.497678253798, 138.87660118569, -26.257700746875
2141, 35.317560838656, 165.49284126501, -22.317079238597
2142, -45.882342896915, 84.033010289124, 22.274207541217
2143, -5.1429307262609, 195.94665884316, -36.018880712436
2144, -5.5013656869568, 207.54156457265, 41.30776500068
2145, 35.216450052614, 121.34020650357, -16.643018964386
2146, 36.098869660412, 120.87052493921, 24.777938289396
2147, 47.163292958145, 85.274388590473, -22.893256960326
2148, 20.226448391985, 151.71250114408, -29.682715561428
2149, 9.0413393613033, 60.577941980546, 42.557767822442
2150, 7.4718912877344, 78.071573023992, 41.384350346709
2151, 32.377724325738, 196.8989046657, 5.6667617638982
2152, -42.595210955933, 227.12322614824, 12.228801016548
******* E L E M E N T S *************
*ELEMENT, type=T3D2, ELSET=Line1
377, 1, 377
378, 377, 2
*ELEMENT, type=T3D2, ELSET=Line2
379, 3, 378
380, 378, 1
*ELEMENT, type=T3D2, ELSET=Line3
381, 3, 379
382, 379, 4
*ELEMENT, type=T3D2, ELSET=Line4
383, 2, 380
384, 380, 4
*ELEMENT, type=T3D2, ELSET=Line5
385, 3, 5
*ELEMENT, type=T3D2, ELSET=Line6
386, 6, 1
*ELEMENT, type=T3D2, ELSET=Line7
387, 6, 381
388, 381, 7
*ELEMENT, type=T3D2, ELSET=Line8
389, 7, 382
390, 382, 5
*ELEMENT, type=T3D2, ELSET=Line9
391, 7, 8
*ELEMENT, type=T3D2, ELSET=Line10
392, 8, 383
393, 383, 9
*ELEMENT, type=T3D2, ELSET=Line11
394, 5, 9
*ELEMENT, type=T3D2, ELSET=Line12
395, 8, 10
*ELEMENT, type=T3D2, ELSET=Line13
396, 10, 384
397, 384, 11
*ELEMENT, type=T3D2, ELSET=Line14
398, 9, 11
*ELEMENT, type=T3D2, ELSET=Line15
399, 10, 12
*ELEMENT, type=T3D2, ELSET=Line16
400, 12, 385
401, 385, 13
*ELEMENT, type=T3D2, ELSET=Line17
402, 11, 13
*ELEMENT, type=T3D2, ELSET=Line18
403, 12, 386
404, 386, 14
*ELEMENT, type=T3D2, ELSET=Line19
405, 14, 387
406, 387, 15
*ELEMENT, type=T3D2, ELSET=Line20
407, 15, 388
408, 388, 16
*ELEMENT, type=T3D2, ELSET=Line21
409, 16, 389
410, 389, 17
*ELEMENT, type=T3D2, ELSET=Line22
411, 13, 390
412, 390, 17
*ELEMENT, type=T3D2, ELSET=Line23
413, 18, 391
414, 391, 17
*ELEMENT, type=T3D2, ELSET=Line24
415, 18, 392
416, 392, 19
*ELEMENT, type=T3D2, ELSET=Line25
417, 16, 393
418, 393, 19
*ELEMENT, type=T3D2, ELSET=Line26
419, 19, 394
420, 394, 20
*ELEMENT, type=T3D2, ELSET=Line27
421, 21, 20
*ELEMENT, type=T3D2, ELSET=Line28
422, 22, 21
*ELEMENT, type=T3D2, ELSET=Line29
423, 22, 395
424, 395, 23
*ELEMENT, type=T3D2, ELSET=Line30
425, 23, 396
426, 396, 24
*ELEMENT, type=T3D2, ELSET=Line31
427, 24, 25
*ELEMENT, type=T3D2, ELSET=Line32
428, 18, 397
429, 397, 25
*ELEMENT, type=T3D2, ELSET=Line33
430, 26, 27
*ELEMENT, type=T3D2, ELSET=Line34
431, 26, 398
432, 398, 28
*ELEMENT, type=T3D2, ELSET=Line35
433, 28, 399
434, 399, 25
*ELEMENT, type=T3D2, ELSET=Line36
435, 27, 400
436, 400, 24
*ELEMENT, type=T3D2, ELSET=Line37
437, 29, 26
*ELEMENT, type=T3D2, ELSET=Line38
438, 29, 401
439, 401, 30
*ELEMENT, type=T3D2, ELSET=Line39
440, 28, 402
441, 402, 30
*ELEMENT, type=T3D2, ELSET=Line40
442, 30, 403
443, 403, 31
*ELEMENT, type=T3D2, ELSET=Line41
444, 32, 404
445, 404, 29
*ELEMENT, type=T3D2, ELSET=Line42
446, 31, 405
447, 405, 32
*ELEMENT, type=T3D2, ELSET=Line43
448, 33, 406
449, 406, 34
*ELEMENT, type=T3D2, ELSET=Line44
450, 34, 407
451, 407, 35
*ELEMENT, type=T3D2, ELSET=Line45
452, 35, 408
453, 408, 36
*ELEMENT, type=T3D2, ELSET=Line46
454, 33, 409
455, 409, 36
*ELEMENT, type=T3D2, ELSET=Line47
456, 37, 35
*ELEMENT, type=T3D2, ELSET=Line48
457, 36, 38
*ELEMENT, type=T3D2, ELSET=Line49
458, 38, 410
459, 410, 39
*ELEMENT, type=T3D2, ELSET=Line50
460, 39, 37
*ELEMENT, type=T3D2, ELSET=Line51
461, 40, 411
462, 411, 37
*ELEMENT, type=T3D2, ELSET=Line52
463, 41, 412
464, 412, 39
*ELEMENT, type=T3D2, ELSET=Line53
465, 40, 41
*ELEMENT, type=T3D2, ELSET=Line54
466, 40, 413
467, 413, 42
*ELEMENT, type=T3D2, ELSET=Line55
468, 41, 414
469, 414, 43
*ELEMENT, type=T3D2, ELSET=Line56
470, 43, 42
*ELEMENT, type=T3D2, ELSET=Line57
471, 44, 415
472, 415, 42
*ELEMENT, type=T3D2, ELSET=Line58
473, 45, 416
474, 416, 43
*ELEMENT, type=T3D2, ELSET=Line59
475, 44, 45
*ELEMENT, type=T3D2, ELSET=Line60
476, 46, 47
*ELEMENT, type=T3D2, ELSET=Line61
477, 47, 417
478, 417, 48
*ELEMENT, type=T3D2, ELSET=Line62
479, 44, 48
*ELEMENT, type=T3D2, ELSET=Line63
480, 45, 418
481, 418, 46
*ELEMENT, type=T3D2, ELSET=Line64
482, 48, 419
483, 419, 49
*ELEMENT, type=T3D2, ELSET=Line65
484, 49, 420
485, 420, 50
*ELEMENT, type=T3D2, ELSET=Line66
486, 47, 421
487, 421, 50
*ELEMENT, type=T3D2, ELSET=Line67
488, 51, 422
489, 422, 7
*ELEMENT, type=T3D2, ELSET=Line68
490, 52, 423
491, 423, 6
*ELEMENT, type=T3D2, ELSET=Line69
492, 51, 424
493, 424, 52
*ELEMENT, type=T3D2, ELSET=Line70
494, 53, 51
*ELEMENT, type=T3D2, ELSET=Line71
495, 53, 425
496, 425, 54
*ELEMENT, type=T3D2, ELSET=Line72
497, 8, 426
498, 426, 54
*ELEMENT, type=T3D2, ELSET=Line73
499, 54, 427
500, 427, 55
*ELEMENT, type=T3D2, ELSET=Line74
501, 56, 55
*ELEMENT, type=T3D2, ELSET=Line75
502, 10, 428
503, 428, 56
*ELEMENT, type=T3D2, ELSET=Line76
504, 57, 56
*ELEMENT, type=T3D2, ELSET=Line77
505, 12, 429
506, 429, 57
*ELEMENT, type=T3D2, ELSET=Line78
507, 58, 430
508, 430, 57
*ELEMENT, type=T3D2, ELSET=Line79
509, 58, 431
510, 431, 14
*ELEMENT, type=T3D2, ELSET=Line80
511, 20, 432
512, 432, 59
*ELEMENT, type=T3D2, ELSET=Line81
513, 14, 59
*ELEMENT, type=T3D2, ELSET=Line82
514, 20, 433
515, 433, 15
*ELEMENT, type=T3D2, ELSET=Line83
516, 59, 434
517, 434, 58
*ELEMENT, type=T3D2, ELSET=Line84
518, 58, 60
*ELEMENT, type=T3D2, ELSET=Line85
519, 60, 435
520, 435, 21
*ELEMENT, type=T3D2, ELSET=Line86
521, 61, 436
522, 436, 21
*ELEMENT, type=T3D2, ELSET=Line87
523, 61, 437
524, 437, 22
*ELEMENT, type=T3D2, ELSET=Line88
525, 22, 438
526, 438, 62
*ELEMENT, type=T3D2, ELSET=Line89
527, 62, 439
528, 439, 63
*ELEMENT, type=T3D2, ELSET=Line90
529, 64, 63
*ELEMENT, type=T3D2, ELSET=Line91
530, 64, 440
531, 440, 23
*ELEMENT, type=T3D2, ELSET=Line92
532, 27, 441
533, 441, 64
*ELEMENT, type=T3D2, ELSET=Line93
534, 27, 65
*ELEMENT, type=T3D2, ELSET=Line94
535, 65, 442
536, 442, 26
*ELEMENT, type=T3D2, ELSET=Line95
537, 66, 65
*ELEMENT, type=T3D2, ELSET=Line96
538, 66, 443
539, 443, 67
*ELEMENT, type=T3D2, ELSET=Line97
540, 67, 444
541, 444, 29
*ELEMENT, type=T3D2, ELSET=Line98
542, 68, 445
543, 445, 67
*ELEMENT, type=T3D2, ELSET=Line99
544, 32, 446
545, 446, 68
*ELEMENT, type=T3D2, ELSET=Line100
546, 69, 70
*ELEMENT, type=T3D2, ELSET=Line101
547, 50, 447
548, 447, 70
*ELEMENT, type=T3D2, ELSET=Line102
549, 69, 448
550, 448, 47
*ELEMENT, type=T3D2, ELSET=Line103
551, 71, 449
552, 449, 69
*ELEMENT, type=T3D2, ELSET=Line105
553, 70, 450
554, 450, 71
*ELEMENT, type=T3D2, ELSET=Line106
555, 72, 451
556, 451, 73
*ELEMENT, type=T3D2, ELSET=Line107
557, 72, 452
558, 452, 74
*ELEMENT, type=T3D2, ELSET=Line108
559, 71, 453
560, 453, 74
*ELEMENT, type=T3D2, ELSET=Line109
561, 71, 454
562, 454, 73
*ELEMENT, type=T3D2, ELSET=Line110
563, 73, 455
564, 455, 75
*ELEMENT, type=T3D2, ELSET=Line112
565, 76, 456
566, 456, 73
*ELEMENT, type=T3D2, ELSET=Line113
567, 75, 76
*ELEMENT, type=T3D2, ELSET=Line114
568, 75, 457
569, 457, 33
*ELEMENT, type=T3D2, ELSET=Line115
570, 36, 458
571, 458, 76
*ELEMENT, type=T3D2, ELSET=Line116
572, 72, 459
573, 459, 76
*ELEMENT, type=T3D2, ELSET=Line117
574, 77, 460
575, 460, 72
*ELEMENT, type=T3D2, ELSET=Line118
576, 77, 461
577, 461, 38
*ELEMENT, type=T3D2, ELSET=Line119
578, 41, 462
579, 462, 77
*ELEMENT, type=T3D2, ELSET=Line120
580, 77, 463
581, 463, 78
*ELEMENT, type=T3D2, ELSET=Line121
582, 78, 464
583, 464, 43
*ELEMENT, type=T3D2, ELSET=Line122
584, 46, 465
585, 465, 78
*ELEMENT, type=T3D2, ELSET=Line123
586, 69, 466
587, 466, 74
*ELEMENT, type=T3D2, ELSET=Line124
588, 74, 467
589, 467, 78
*ELEMENT, type=T3D2, ELSET=Line125
590, 66, 468
591, 468, 79
*ELEMENT, type=T3D2, ELSET=Line126
592, 68, 469
593, 469, 470
594, 470, 471
595, 471, 472
596, 472, 473
597, 473, 474
598, 474, 475
599, 475, 79
*ELEMENT, type=T3D2, ELSET=Line127
600, 80, 476
601, 476, 66
*ELEMENT, type=T3D2, ELSET=Line129
602, 79, 477
603, 477, 478
604, 478, 479
605, 479, 480
606, 480, 481
607, 481, 482
608, 482, 483
609, 483, 80
*ELEMENT, type=T3D2, ELSET=Line130
610, 80, 484
611, 484, 81
*ELEMENT, type=T3D2, ELSET=Line131
612, 81, 485
613, 485, 65
*ELEMENT, type=T3D2, ELSET=Line132
614, 82, 486
615, 486, 53
*ELEMENT, type=T3D2, ELSET=Line133
616, 54, 487
617, 487, 82
*ELEMENT, type=T3D2, ELSET=Line134
618, 55, 488
619, 488, 82
*ELEMENT, type=T3D2, ELSET=Line136
620, 83, 489
621, 489, 84
*ELEMENT, type=T3D2, ELSET=Line137
622, 83, 490
623, 490, 85
*ELEMENT, type=T3D2, ELSET=Line138
624, 85, 491
625, 491, 61
*ELEMENT, type=T3D2, ELSET=Line139
626, 60, 492
627, 492, 84
*ELEMENT, type=T3D2, ELSET=Line141
628, 62, 61
*ELEMENT, type=T3D2, ELSET=Line142
629, 63, 493
630, 493, 85
*ELEMENT, type=T3D2, ELSET=Line143
631, 86, 87
*ELEMENT, type=T3D2, ELSET=Line144
632, 87, 494
633, 494, 88
*ELEMENT, type=T3D2, ELSET=Line145
634, 89, 88
*ELEMENT, type=T3D2, ELSET=Line146
635, 89, 495
636, 495, 86
*ELEMENT, type=T3D2, ELSET=Line147
637, 84, 88
*ELEMENT, type=T3D2, ELSET=Line148
638, 88, 496
639, 496, 90
*ELEMENT, type=T3D2, ELSET=Line149
640, 90, 83
*ELEMENT, type=T3D2, ELSET=Line150
641, 63, 497
642, 497, 91
*ELEMENT, type=T3D2, ELSET=Line151
643, 91, 498
644, 498, 83
*ELEMENT, type=T3D2, ELSET=Line152
645, 91, 92
*ELEMENT, type=T3D2, ELSET=Line153
646, 92, 499
647, 499, 90
*ELEMENT, type=T3D2, ELSET=Line154
648, 90, 500
649, 500, 87
*ELEMENT, type=T3D2, ELSET=Line156
650, 92, 501
651, 501, 87
*ELEMENT, type=T3D2, ELSET=Line157
652, 93, 502
653, 502, 503
654, 503, 504
655, 504, 505
656, 505, 506
657, 506, 507
658, 507, 93
*ELEMENT, type=T3D2, ELSET=Line158
659, 94, 508
660, 508, 93
*ELEMENT, type=T3D2, ELSET=Line159
661, 94, 509
662, 509, 510
663, 510, 511
664, 511, 512
665, 512, 513
666, 513, 514
667, 514, 94
*ELEMENT, type=T3D2, ELSET=Line160
668, 95, 515
669, 515, 516
670, 516, 517
671, 517, 95
*ELEMENT, type=T3D2, ELSET=Line161
672, 96, 518
673, 518, 95
*ELEMENT, type=T3D2, ELSET=Line162
674, 96, 519
675, 519, 520
676, 520, 521
677, 521, 96
*ELEMENT, type=T3D2, ELSET=Line163
678, 97, 522
679, 522, 523
680, 523, 524
681, 524, 525
682, 525, 526
683, 526, 527
684, 527, 97
*ELEMENT, type=T3D2, ELSET=Line164
685, 98, 528
686, 528, 97
*ELEMENT, type=T3D2, ELSET=Line165
687, 98, 529
688, 529, 530
689, 530, 531
690, 531, 532
691, 532, 533
692, 533, 534
693, 534, 98
*ELEMENT, type=T3D2, ELSET=Line166
694, 99, 535
695, 535, 536
696, 536, 537
697, 537, 538
698, 538, 539
699, 539, 540
700, 540, 99
*ELEMENT, type=T3D2, ELSET=Line167
701, 100, 541
702, 541, 99
*ELEMENT, type=T3D2, ELSET=Line168
703, 100, 542
704, 542, 543
705, 543, 544
706, 544, 545
707, 545, 546
708, 546, 547
709, 547, 548
710, 548, 549
711, 549, 550
712, 550, 551
713, 551, 552
714, 552, 553
715, 553, 554
716, 554, 100
*ELEMENT, type=T3D2, ELSET=Line169
717, 101, 555
718, 555, 556
719, 556, 557
720, 557, 558
721, 558, 559
722, 559, 560
723, 560, 561
724, 561, 562
725, 562, 563
726, 563, 564
727, 564, 565
728, 565, 566
729, 566, 567
730, 567, 568
731, 568, 569
732, 569, 101
*ELEMENT, type=T3D2, ELSET=Line170
733, 101, 570
734, 570, 571
735, 571, 572
736, 572, 102
*ELEMENT, type=T3D2, ELSET=Line171
737, 102, 573
738, 573, 574
739, 574, 575
740, 575, 576
741, 576, 577
742, 577, 103
*ELEMENT, type=T3D2, ELSET=Line172
743, 103, 578
744, 578, 579
745, 579, 580
746, 580, 102
*ELEMENT, type=T3D2, ELSET=Line173
747, 100, 581
748, 581, 582
749, 582, 583
750, 583, 101
*ELEMENT, type=T3D2, ELSET=Line174
751, 104, 584
752, 584, 98
*ELEMENT, type=T3D2, ELSET=Line175
753, 104, 585
754, 585, 586
755, 586, 587
756, 587, 588
757, 588, 589
758, 589, 590
759, 590, 104
*ELEMENT, type=T3D2, ELSET=Line176
760, 96, 591
761, 591, 97
*ELEMENT, type=T3D2, ELSET=Line177
762, 105, 592
763, 592, 593
764, 593, 594
765, 594, 595
766, 595, 596
767, 596, 597
768, 597, 105
*ELEMENT, type=T3D2, ELSET=Line178
769, 106, 598
770, 598, 105
*ELEMENT, type=T3D2, ELSET=Line179
771, 107, 599
772, 599, 600
773, 600, 106
*ELEMENT, type=T3D2, ELSET=Line180
774, 106, 601
775, 601, 602
776, 602, 107
*ELEMENT, type=T3D2, ELSET=Line181
777, 99, 603
778, 603, 104
*ELEMENT, type=T3D2, ELSET=Line182
779, 93, 604
780, 604, 107
*ELEMENT, type=T3D2, ELSET=Line183
781, 94, 605
782, 605, 95
*ELEMENT, type=T3D2, ELSET=Line184
783, 109, 606
784, 606, 607
785, 607, 108
*ELEMENT, type=T3D2, ELSET=Line185
786, 109, 608
787, 608, 609
788, 609, 108
*ELEMENT, type=T3D2, ELSET=Line186
789, 105, 610
790, 610, 108
*ELEMENT, type=T3D2, ELSET=Line187
791, 110, 611
792, 611, 111
*ELEMENT, type=T3D2, ELSET=Line188
793, 111, 612
794, 612, 112
*ELEMENT, type=T3D2, ELSET=Line189
795, 113, 613
796, 613, 112
*ELEMENT, type=T3D2, ELSET=Line190
797, 113, 614
798, 614, 110
*ELEMENT, type=T3D2, ELSET=Line191
799, 114, 615
800, 615, 115
*ELEMENT, type=T3D2, ELSET=Line192
801, 114, 616
802, 616, 116
*ELEMENT, type=T3D2, ELSET=Line193
803, 117, 617
804, 617, 116
*ELEMENT, type=T3D2, ELSET=Line194
805, 117, 618
806, 618, 115
*ELEMENT, type=T3D2, ELSET=Line195
807, 109, 117
*ELEMENT, type=T3D2, ELSET=Line196
808, 116, 619
809, 619, 118
*ELEMENT, type=T3D2, ELSET=Line197
810, 118, 108
*ELEMENT, type=T3D2, ELSET=Line198
811, 119, 620
812, 620, 120
*ELEMENT, type=T3D2, ELSET=Line199
813, 120, 621
814, 621, 121
*ELEMENT, type=T3D2, ELSET=Line200
815, 121, 622
816, 622, 122
*ELEMENT, type=T3D2, ELSET=Line201
817, 13, 623
818, 623, 122
*ELEMENT, type=T3D2, ELSET=Line202
819, 17, 624
820, 624, 119
*ELEMENT, type=T3D2, ELSET=Line203
821, 123, 625
822, 625, 124
*ELEMENT, type=T3D2, ELSET=Line204
823, 125, 626
824, 626, 124
*ELEMENT, type=T3D2, ELSET=Line205
825, 125, 627
826, 627, 126
*ELEMENT, type=T3D2, ELSET=Line206
827, 126, 628
828, 628, 123
*ELEMENT, type=T3D2, ELSET=Line207
829, 124, 629
830, 629, 127
*ELEMENT, type=T3D2, ELSET=Line208
831, 128, 127
*ELEMENT, type=T3D2, ELSET=Line209
832, 128, 630
833, 630, 125
*ELEMENT, type=T3D2, ELSET=Line210
834, 127, 631
835, 631, 129
*ELEMENT, type=T3D2, ELSET=Line211
836, 110, 129
*ELEMENT, type=T3D2, ELSET=Line212
837, 111, 632
838, 632, 128
*ELEMENT, type=T3D2, ELSET=Line213
839, 129, 130
*ELEMENT, type=T3D2, ELSET=Line214
840, 131, 130
*ELEMENT, type=T3D2, ELSET=Line215
841, 131, 110
*ELEMENT, type=T3D2, ELSET=Line216
842, 130, 633
843, 633, 132
*ELEMENT, type=T3D2, ELSET=Line217
844, 133, 132
*ELEMENT, type=T3D2, ELSET=Line218
845, 133, 634
846, 634, 131
*ELEMENT, type=T3D2, ELSET=Line219
847, 132, 635
848, 635, 134
*ELEMENT, type=T3D2, ELSET=Line220
849, 135, 134
*ELEMENT, type=T3D2, ELSET=Line221
850, 135, 636
851, 636, 136
*ELEMENT, type=T3D2, ELSET=Line222
852, 136, 637
853, 637, 133
*ELEMENT, type=T3D2, ELSET=Line223
854, 134, 638
855, 638, 137
*ELEMENT, type=T3D2, ELSET=Line224
856, 138, 639
857, 639, 137
*ELEMENT, type=T3D2, ELSET=Line225
858, 138, 640
859, 640, 135
*ELEMENT, type=T3D2, ELSET=Line226
860, 137, 139
*ELEMENT, type=T3D2, ELSET=Line227
861, 138, 641
862, 641, 139
*ELEMENT, type=T3D2, ELSET=Line228
863, 139, 140
*ELEMENT, type=T3D2, ELSET=Line229
864, 141, 642
865, 642, 140
*ELEMENT, type=T3D2, ELSET=Line230
866, 141, 138
*ELEMENT, type=T3D2, ELSET=Line231
867, 140, 142
*ELEMENT, type=T3D2, ELSET=Line232
868, 143, 643
869, 643, 142
*ELEMENT, type=T3D2, ELSET=Line233
870, 143, 141
*ELEMENT, type=T3D2, ELSET=Line234
871, 144, 644
872, 644, 18
*ELEMENT, type=T3D2, ELSET=Line235
873, 119, 645
874, 645, 144
*ELEMENT, type=T3D2, ELSET=Line236
875, 4, 646
876, 646, 123
*ELEMENT, type=T3D2, ELSET=Line237
877, 126, 647
878, 647, 3
*ELEMENT, type=T3D2, ELSET=Line238
879, 131, 648
880, 648, 145
*ELEMENT, type=T3D2, ELSET=Line239
881, 145, 113
*ELEMENT, type=T3D2, ELSET=Line240
882, 146, 649
883, 649, 147
*ELEMENT, type=T3D2, ELSET=Line241
884, 147, 148
*ELEMENT, type=T3D2, ELSET=Line242
885, 148, 650
886, 650, 149
*ELEMENT, type=T3D2, ELSET=Line243
887, 149, 150
*ELEMENT, type=T3D2, ELSET=Line244
888, 150, 151
*ELEMENT, type=T3D2, ELSET=Line245
889, 151, 152
*ELEMENT, type=T3D2, ELSET=Line246
890, 152, 651
891, 651, 652
892, 652, 153
*ELEMENT, type=T3D2, ELSET=Line247
893, 153, 653
894, 653, 145
*ELEMENT, type=T3D2, ELSET=Line248
895, 112, 654
896, 654, 154
*ELEMENT, type=T3D2, ELSET=Line249
897, 154, 155
*ELEMENT, type=T3D2, ELSET=Line250
898, 155, 655
899, 655, 156
*ELEMENT, type=T3D2, ELSET=Line251
900, 156, 157
*ELEMENT, type=T3D2, ELSET=Line252
901, 157, 158
*ELEMENT, type=T3D2, ELSET=Line253
902, 158, 146
*ELEMENT, type=T3D2, ELSET=Line254
903, 159, 656
904, 656, 156
*ELEMENT, type=T3D2, ELSET=Line255
905, 160, 159
*ELEMENT, type=T3D2, ELSET=Line256
906, 157, 657
907, 657, 160
*ELEMENT, type=T3D2, ELSET=Line257
908, 159, 658
909, 658, 5
*ELEMENT, type=T3D2, ELSET=Line258
910, 160, 659
911, 659, 9
*ELEMENT, type=T3D2, ELSET=Line259
912, 150, 660
913, 660, 143
*ELEMENT, type=T3D2, ELSET=Line260
914, 141, 661
915, 661, 151
*ELEMENT, type=T3D2, ELSET=Line261
916, 161, 662
917, 662, 162
*ELEMENT, type=T3D2, ELSET=Line262
918, 162, 663
919, 663, 163
*ELEMENT, type=T3D2, ELSET=Line263
920, 161, 664
921, 664, 163
*ELEMENT, type=T3D2, ELSET=Line264
922, 164, 665
923, 665, 165
*ELEMENT, type=T3D2, ELSET=Line265
924, 164, 666
925, 666, 166
*ELEMENT, type=T3D2, ELSET=Line266
926, 166, 667
927, 667, 165
*ELEMENT, type=T3D2, ELSET=Line267
928, 167, 668
929, 668, 168
*ELEMENT, type=T3D2, ELSET=Line268
930, 167, 669
931, 669, 169
*ELEMENT, type=T3D2, ELSET=Line269
932, 168, 670
933, 670, 169
*ELEMENT, type=T3D2, ELSET=Line270
934, 170, 671
935, 671, 171
*ELEMENT, type=T3D2, ELSET=Line271
936, 171, 672
937, 672, 168
*ELEMENT, type=T3D2, ELSET=Line272
938, 168, 673
939, 673, 172
*ELEMENT, type=T3D2, ELSET=Line273
940, 172, 674
941, 674, 170
*ELEMENT, type=T3D2, ELSET=Line274
942, 173, 675
943, 675, 172
*ELEMENT, type=T3D2, ELSET=Line275
944, 173, 676
945, 676, 174
*ELEMENT, type=T3D2, ELSET=Line276
946, 172, 677
947, 677, 174
*ELEMENT, type=T3D2, ELSET=Line277
948, 175, 678
949, 678, 176
*ELEMENT, type=T3D2, ELSET=Line278
950, 176, 679
951, 679, 177
*ELEMENT, type=T3D2, ELSET=Line279
952, 175, 177
*ELEMENT, type=T3D2, ELSET=Line280
953, 177, 680
954, 680, 178
*ELEMENT, type=T3D2, ELSET=Line281
955, 178, 179
*ELEMENT, type=T3D2, ELSET=Line282
956, 179, 175
*ELEMENT, type=T3D2, ELSET=Line283
957, 178, 681
958, 681, 180
*ELEMENT, type=T3D2, ELSET=Line284
959, 181, 180
*ELEMENT, type=T3D2, ELSET=Line285
960, 181, 682
961, 682, 179
*ELEMENT, type=T3D2, ELSET=Line286
962, 180, 182
*ELEMENT, type=T3D2, ELSET=Line287
963, 182, 183
*ELEMENT, type=T3D2, ELSET=Line288
964, 183, 181
*ELEMENT, type=T3D2, ELSET=Line289
965, 182, 683
966, 683, 184
*ELEMENT, type=T3D2, ELSET=Line290
967, 184, 684
968, 684, 185
*ELEMENT, type=T3D2, ELSET=Line291
969, 186, 185
*ELEMENT, type=T3D2, ELSET=Line292
970, 186, 685
971, 685, 183
*ELEMENT, type=T3D2, ELSET=Line293
972, 187, 188
*ELEMENT, type=T3D2, ELSET=Line294
973, 187, 686
974, 686, 189
*ELEMENT, type=T3D2, ELSET=Line295
975, 189, 687
976, 687, 190
*ELEMENT, type=T3D2, ELSET=Line296
977, 191, 190
*ELEMENT, type=T3D2, ELSET=Line297
978, 191, 688
979, 688, 188
*ELEMENT, type=T3D2, ELSET=Line298
980, 142, 192
*ELEMENT, type=T3D2, ELSET=Line299
981, 192, 689
982, 689, 193
*ELEMENT, type=T3D2, ELSET=Line300
983, 193, 191
*ELEMENT, type=T3D2, ELSET=Line301
984, 190, 139
*ELEMENT, type=T3D2, ELSET=Line302
985, 135, 152
*ELEMENT, type=T3D2, ELSET=Line303
986, 133, 153
*ELEMENT, type=T3D2, ELSET=Line304
987, 158, 690
988, 690, 194
*ELEMENT, type=T3D2, ELSET=Line305
989, 122, 194
*ELEMENT, type=T3D2, ELSET=Line306
990, 146, 691
991, 691, 122
*ELEMENT, type=T3D2, ELSET=Line307
992, 121, 692
993, 692, 147
*ELEMENT, type=T3D2, ELSET=Line308
994, 193, 693
995, 693, 195
*ELEMENT, type=T3D2, ELSET=Line309
996, 195, 694
997, 694, 196
*ELEMENT, type=T3D2, ELSET=Line310
998, 197, 695
999, 695, 196
*ELEMENT, type=T3D2, ELSET=Line311
1000, 191, 696
1001, 696, 197
*ELEMENT, type=T3D2, ELSET=Line312
1002, 198, 697
1003, 697, 197
*ELEMENT, type=T3D2, ELSET=Line313
1004, 188, 698
1005, 698, 198
*ELEMENT, type=T3D2, ELSET=Line314
1006, 188, 199
*ELEMENT, type=T3D2, ELSET=Line315
1007, 199, 699
1008, 699, 187
*ELEMENT, type=T3D2, ELSET=Line316
1009, 174, 700
1010, 700, 200
*ELEMENT, type=T3D2, ELSET=Line317
1011, 201, 200
*ELEMENT, type=T3D2, ELSET=Line318
1012, 170, 701
1013, 701, 201
*ELEMENT, type=T3D2, ELSET=Line319
1014, 202, 702
1015, 702, 201
*ELEMENT, type=T3D2, ELSET=Line320
1016, 203, 703
1017, 703, 202
*ELEMENT, type=T3D2, ELSET=Line321
1018, 170, 704
1019, 704, 203
*ELEMENT, type=T3D2, ELSET=Line322
1020, 203, 705
1021, 705, 204
*ELEMENT, type=T3D2, ELSET=Line323
1022, 204, 706
1023, 706, 171
*ELEMENT, type=T3D2, ELSET=Line324
1024, 205, 707
1025, 707, 171
*ELEMENT, type=T3D2, ELSET=Line325
1026, 206, 708
1027, 708, 204
*ELEMENT, type=T3D2, ELSET=Line326
1028, 205, 709
1029, 709, 206
*ELEMENT, type=T3D2, ELSET=Line327
1030, 207, 205
*ELEMENT, type=T3D2, ELSET=Line328
1031, 207, 710
1032, 710, 167
*ELEMENT, type=T3D2, ELSET=Line329
1033, 166, 711
1034, 711, 208
*ELEMENT, type=T3D2, ELSET=Line330
1035, 209, 208
*ELEMENT, type=T3D2, ELSET=Line331
1036, 209, 712
1037, 712, 210
*ELEMENT, type=T3D2, ELSET=Line332
1038, 165, 713
1039, 713, 210
*ELEMENT, type=T3D2, ELSET=Line333
1040, 211, 714
1041, 714, 212
*ELEMENT, type=T3D2, ELSET=Line334
1042, 210, 715
1043, 715, 212
*ELEMENT, type=T3D2, ELSET=Line335
1044, 211, 716
1045, 716, 209
*ELEMENT, type=T3D2, ELSET=Line336
1046, 213, 717
1047, 717, 212
*ELEMENT, type=T3D2, ELSET=Line337
1048, 213, 718
1049, 718, 214
*ELEMENT, type=T3D2, ELSET=Line338
1050, 214, 719
1051, 719, 210
*ELEMENT, type=T3D2, ELSET=Line339
1052, 213, 720
1053, 720, 215
*ELEMENT, type=T3D2, ELSET=Line340
1054, 216, 721
1055, 721, 215
*ELEMENT, type=T3D2, ELSET=Line341
1056, 214, 722
1057, 722, 216
*ELEMENT, type=T3D2, ELSET=Line342
1058, 217, 216
*ELEMENT, type=T3D2, ELSET=Line343
1059, 217, 723
1060, 723, 162
*ELEMENT, type=T3D2, ELSET=Line344
1061, 214, 724
1062, 724, 161
*ELEMENT, type=T3D2, ELSET=Line345
1063, 218, 725
1064, 725, 219
*ELEMENT, type=T3D2, ELSET=Line346
1065, 219, 726
1066, 726, 217
*ELEMENT, type=T3D2, ELSET=Line347
1067, 218, 162
*ELEMENT, type=T3D2, ELSET=Line349
1068, 163, 727
1069, 727, 218
*ELEMENT, type=T3D2, ELSET=Line350
1070, 161, 728
1071, 728, 165
*ELEMENT, type=T3D2, ELSET=Line351
1072, 164, 729
1073, 729, 163
*ELEMENT, type=T3D2, ELSET=Line352
1074, 166, 220
*ELEMENT, type=T3D2, ELSET=Line353
1075, 220, 730
1076, 730, 164
*ELEMENT, type=T3D2, ELSET=Line355
1077, 208, 731
1078, 731, 221
*ELEMENT, type=T3D2, ELSET=Line356
1079, 221, 732
1080, 732, 220
*ELEMENT, type=T3D2, ELSET=Line357
1081, 167, 222
*ELEMENT, type=T3D2, ELSET=Line358
1082, 222, 733
1083, 733, 223
*ELEMENT, type=T3D2, ELSET=Line359
1084, 207, 734
1085, 734, 223
*ELEMENT, type=T3D2, ELSET=Line361
1086, 169, 735
1087, 735, 222
*ELEMENT, type=T3D2, ELSET=Line362
1088, 173, 736
1089, 736, 169
*ELEMENT, type=T3D2, ELSET=Line363
1090, 224, 737
1091, 737, 173
*ELEMENT, type=T3D2, ELSET=Line365
1092, 224, 174
*ELEMENT, type=T3D2, ELSET=Line366
1093, 225, 738
1094, 738, 224
*ELEMENT, type=T3D2, ELSET=Line367
1095, 225, 739
1096, 739, 200
*ELEMENT, type=T3D2, ELSET=Line368
1097, 185, 740
1098, 740, 226
*ELEMENT, type=T3D2, ELSET=Line369
1099, 226, 186
*ELEMENT, type=T3D2, ELSET=Line370
1100, 186, 741
1101, 741, 227
*ELEMENT, type=T3D2, ELSET=Line371
1102, 228, 742
1103, 742, 227
*ELEMENT, type=T3D2, ELSET=Line372
1104, 183, 743
1105, 743, 228
*ELEMENT, type=T3D2, ELSET=Line373
1106, 229, 228
*ELEMENT, type=T3D2, ELSET=Line374
1107, 181, 744
1108, 744, 229
*ELEMENT, type=T3D2, ELSET=Line375
1109, 230, 745
1110, 745, 229
*ELEMENT, type=T3D2, ELSET=Line376
1111, 179, 746
1112, 746, 230
*ELEMENT, type=T3D2, ELSET=Line377
1113, 231, 230
*ELEMENT, type=T3D2, ELSET=Line378
1114, 175, 747
1115, 747, 231
*ELEMENT, type=T3D2, ELSET=Line379
1116, 232, 748
1117, 748, 233
*ELEMENT, type=T3D2, ELSET=Line380
1118, 232, 749
1119, 749, 176
*ELEMENT, type=T3D2, ELSET=Line381
1120, 233, 750
1121, 750, 231
*ELEMENT, type=T3D2, ELSET=Line382
1122, 234, 751
1123, 751, 752
1124, 752, 753
1125, 753, 754
1126, 754, 755
1127, 755, 756
1128, 756, 757
1129, 757, 758
1130, 758, 759
1131, 759, 760
1132, 760, 761
1133, 761, 762
1134, 762, 763
1135, 763, 764
1136, 764, 765
1137, 765, 235
*ELEMENT, type=T3D2, ELSET=Line383
1138, 236, 766
1139, 766, 767
1140, 767, 768
1141, 768, 769
1142, 769, 770
1143, 770, 771
1144, 771, 772
1145, 772, 773
1146, 773, 774
1147, 774, 775
1148, 775, 776
1149, 776, 777
1150, 777, 778
1151, 778, 779
1152, 779, 780
1153, 780, 234
*ELEMENT, type=T3D2, ELSET=Line384
1154, 236, 781
1155, 781, 782
1156, 782, 783
1157, 783, 784
1158, 784, 785
1159, 785, 786
1160, 786, 787
1161, 787, 788
1162, 788, 789
1163, 789, 790
1164, 790, 791
1165, 791, 792
1166, 792, 793
1167, 793, 794
1168, 794, 795
1169, 795, 796
1170, 796, 797
1171, 797, 798
1172, 798, 799
1173, 799, 800
1174, 800, 801
1175, 801, 802
1176, 802, 803
1177, 803, 237
*ELEMENT, type=T3D2, ELSET=Line385
1178, 238, 804
1179, 804, 805
1180, 805, 806
1181, 806, 807
1182, 807, 808
1183, 808, 809
1184, 809, 810
1185, 810, 811
1186, 811, 812
1187, 812, 813
1188, 813, 814
1189, 814, 815
1190, 815, 816
1191, 816, 817
1192, 817, 818
1193, 818, 237
*ELEMENT, type=T3D2, ELSET=Line386
1194, 239, 819
1195, 819, 820
1196, 820, 821
1197, 821, 822
1198, 822, 823
1199, 823, 824
1200, 824, 825
1201, 825, 826
1202, 826, 827
1203, 827, 828
1204, 828, 829
1205, 829, 830
1206, 830, 831
1207, 831, 832
1208, 832, 833
1209, 833, 238
*ELEMENT, type=T3D2, ELSET=Line387
1210, 239, 834
1211, 834, 835
1212, 835, 836
1213, 836, 837
1214, 837, 838
1215, 838, 839
1216, 839, 840
1217, 840, 841
1218, 841, 842
1219, 842, 843
1220, 843, 844
1221, 844, 845
1222, 845, 846
1223, 846, 847
1224, 847, 848
1225, 848, 235
*ELEMENT, type=T3D2, ELSET=Line388
1226, 194, 160
*ELEMENT, type=T3D2, ELSET=Line389
1227, 194, 849
1228, 849, 11
*ELEMENT, type=T3D2, ELSET=Line390
1229, 240, 241
*ELEMENT, type=T3D2, ELSET=Line391
1230, 241, 850
1231, 850, 144
*ELEMENT, type=T3D2, ELSET=Line392
1232, 25, 198
*ELEMENT, type=T3D2, ELSET=Line393
1233, 196, 240
*ELEMENT, type=T3D2, ELSET=Line394
1234, 28, 851
1235, 851, 199
*ELEMENT, type=T3D2, ELSET=Line395
1236, 34, 852
1237, 852, 225
*ELEMENT, type=T3D2, ELSET=Line396
1238, 200, 853
1239, 853, 35
*ELEMENT, type=T3D2, ELSET=Line397
1240, 37, 202
*ELEMENT, type=T3D2, ELSET=Line398
1241, 203, 40
*ELEMENT, type=T3D2, ELSET=Line399
1242, 42, 204
*ELEMENT, type=T3D2, ELSET=Line400
1243, 206, 44
*ELEMENT, type=T3D2, ELSET=Line401
1244, 48, 854
1245, 854, 207
*ELEMENT, type=T3D2, ELSET=Line402
1246, 223, 855
1247, 855, 49
*ELEMENT, type=T3D2, ELSET=Line403
1248, 243, 856
1249, 856, 857
1250, 857, 242
*ELEMENT, type=T3D2, ELSET=Line404
1251, 243, 244
*ELEMENT, type=T3D2, ELSET=Line405
1252, 244, 858
1253, 858, 859
1254, 859, 860
1255, 860, 861
1256, 861, 245
*ELEMENT, type=T3D2, ELSET=Line406
1257, 245, 242
*ELEMENT, type=T3D2, ELSET=Line407
1258, 244, 862
1259, 862, 246
*ELEMENT, type=T3D2, ELSET=Line408
1260, 247, 863
1261, 863, 864
1262, 864, 865
1263, 865, 866
1264, 866, 867
1265, 867, 246
*ELEMENT, type=T3D2, ELSET=Line409
1266, 247, 868
1267, 868, 245
*ELEMENT, type=T3D2, ELSET=Line410
1268, 208, 869
1269, 869, 248
*ELEMENT, type=T3D2, ELSET=Line411
1270, 248, 870
1271, 870, 249
*ELEMENT, type=T3D2, ELSET=Line412
1272, 249, 871
1273, 871, 221
*ELEMENT, type=T3D2, ELSET=Line413
1274, 248, 250
*ELEMENT, type=T3D2, ELSET=Line414
1275, 250, 211
*ELEMENT, type=T3D2, ELSET=Line415
1276, 250, 872
1277, 872, 251
*ELEMENT, type=T3D2, ELSET=Line416
1278, 212, 251
*ELEMENT, type=T3D2, ELSET=Line417
1279, 252, 873
1280, 873, 251
*ELEMENT, type=T3D2, ELSET=Line418
1281, 252, 213
*ELEMENT, type=T3D2, ELSET=Line419
1282, 252, 874
1283, 874, 253
*ELEMENT, type=T3D2, ELSET=Line420
1284, 215, 253
*ELEMENT, type=T3D2, ELSET=Line421
1285, 254, 253
*ELEMENT, type=T3D2, ELSET=Line422
1286, 254, 875
1287, 875, 217
*ELEMENT, type=T3D2, ELSET=Line423
1288, 219, 876
1289, 876, 255
*ELEMENT, type=T3D2, ELSET=Line424
1290, 255, 877
1291, 877, 254
*ELEMENT, type=T3D2, ELSET=Line425
1292, 226, 878
1293, 878, 256
*ELEMENT, type=T3D2, ELSET=Line426
1294, 256, 879
1295, 879, 257
*ELEMENT, type=T3D2, ELSET=Line427
1296, 227, 257
*ELEMENT, type=T3D2, ELSET=Line428
1297, 257, 880
1298, 880, 258
*ELEMENT, type=T3D2, ELSET=Line429
1299, 258, 233
*ELEMENT, type=T3D2, ELSET=Line430
1300, 258, 881
1301, 881, 259
*ELEMENT, type=T3D2, ELSET=Line431
1302, 259, 882
1303, 882, 232
*ELEMENT, type=T3D2, ELSET=Line432
1304, 260, 883
1305, 883, 114
*ELEMENT, type=T3D2, ELSET=Line433
1306, 260, 884
1307, 884, 118
*ELEMENT, type=T3D2, ELSET=Line434
1308, 155, 885
1309, 885, 261
*ELEMENT, type=T3D2, ELSET=Line435
1310, 159, 886
1311, 886, 261
*ELEMENT, type=T3D2, ELSET=Line436
1312, 154, 887
1313, 887, 128
*ELEMENT, type=T3D2, ELSET=Line437
1314, 261, 125
*ELEMENT, type=T3D2, ELSET=Line438
1315, 261, 126
*ELEMENT, type=T3D2, ELSET=Line439
1316, 232, 888
1317, 888, 262
*ELEMENT, type=T3D2, ELSET=Line440
1318, 262, 889
1319, 889, 263
*ELEMENT, type=T3D2, ELSET=Line441
1320, 259, 890
1321, 890, 263
*ELEMENT, type=T3D2, ELSET=Line442
1322, 176, 891
1323, 891, 264
*ELEMENT, type=T3D2, ELSET=Line443
1324, 264, 892
1325, 892, 262
*ELEMENT, type=T3D2, ELSET=Line444
1326, 177, 893
1327, 893, 265
*ELEMENT, type=T3D2, ELSET=Line445
1328, 265, 894
1329, 894, 264
*ELEMENT, type=T3D2, ELSET=Line446
1330, 178, 266
*ELEMENT, type=T3D2, ELSET=Line447
1331, 266, 895
1332, 895, 265
*ELEMENT, type=T3D2, ELSET=Line448
1333, 180, 267
*ELEMENT, type=T3D2, ELSET=Line449
1334, 267, 896
1335, 896, 266
*ELEMENT, type=T3D2, ELSET=Line450
1336, 268, 897
1337, 897, 256
*ELEMENT, type=T3D2, ELSET=Line451
1338, 269, 898
1339, 898, 268
*ELEMENT, type=T3D2, ELSET=Line452
1340, 269, 899
1341, 899, 226
*ELEMENT, type=T3D2, ELSET=Line453
1342, 182, 270
*ELEMENT, type=T3D2, ELSET=Line454
1343, 270, 267
*ELEMENT, type=T3D2, ELSET=Line455
1344, 271, 900
1345, 900, 269
*ELEMENT, type=T3D2, ELSET=Line456
1346, 272, 901
1347, 901, 271
*ELEMENT, type=T3D2, ELSET=Line457
1348, 272, 902
1349, 902, 185
*ELEMENT, type=T3D2, ELSET=Line458
1350, 184, 903
1351, 903, 235
*ELEMENT, type=T3D2, ELSET=Line459
1352, 235, 904
1353, 904, 270
*ELEMENT, type=T3D2, ELSET=Line460
1354, 235, 905
1355, 905, 272
*ELEMENT, type=T3D2, ELSET=Line461
1356, 273, 190
*ELEMENT, type=T3D2, ELSET=Line462
1357, 137, 273
*ELEMENT, type=T3D2, ELSET=Line463
1358, 273, 906
1359, 906, 239
*ELEMENT, type=T3D2, ELSET=Line464
1360, 239, 907
1361, 907, 189
*ELEMENT, type=T3D2, ELSET=Line465
1362, 274, 908
1363, 908, 239
*ELEMENT, type=T3D2, ELSET=Line466
1364, 274, 909
1365, 909, 187
*ELEMENT, type=T3D2, ELSET=Line467
1366, 275, 910
1367, 910, 274
*ELEMENT, type=T3D2, ELSET=Line468
1368, 276, 911
1369, 911, 275
*ELEMENT, type=T3D2, ELSET=Line469
1370, 276, 912
1371, 912, 199
*ELEMENT, type=T3D2, ELSET=Line470
1372, 30, 913
1373, 913, 276
*ELEMENT, type=T3D2, ELSET=Line471
1374, 277, 278
*ELEMENT, type=T3D2, ELSET=Line472
1375, 278, 914
1376, 914, 150
*ELEMENT, type=T3D2, ELSET=Line473
1377, 277, 915
1378, 915, 149
*ELEMENT, type=T3D2, ELSET=Line474
1379, 196, 916
1380, 916, 279
*ELEMENT, type=T3D2, ELSET=Line475
1381, 279, 917
1382, 917, 240
*ELEMENT, type=T3D2, ELSET=Line476
1383, 147, 918
1384, 918, 241
*ELEMENT, type=T3D2, ELSET=Line477
1385, 148, 919
1386, 919, 240
*ELEMENT, type=T3D2, ELSET=Line478
1387, 279, 920
1388, 920, 280
*ELEMENT, type=T3D2, ELSET=Line479
1389, 280, 921
1390, 921, 277
*ELEMENT, type=T3D2, ELSET=Line480
1391, 120, 922
1392, 922, 241
*ELEMENT, type=T3D2, ELSET=Line481
1393, 121, 241
*ELEMENT, type=T3D2, ELSET=Line483
1394, 279, 195
*ELEMENT, type=T3D2, ELSET=Line485
1395, 280, 923
1396, 923, 193
*ELEMENT, type=T3D2, ELSET=Line486
1397, 277, 924
1398, 924, 192
*ELEMENT, type=T3D2, ELSET=Line487
1399, 278, 925
1400, 925, 142
*ELEMENT, type=T3D2, ELSET=Line488
1401, 278, 926
1402, 926, 143
*ELEMENT, type=T3D2, ELSET=Line489
1403, 281, 927
1404, 927, 282
*ELEMENT, type=T3D2, ELSET=Line490
1405, 282, 928
1406, 928, 269
*ELEMENT, type=T3D2, ELSET=Line491
1407, 281, 929
1408, 929, 268
*ELEMENT, type=T3D2, ELSET=Line492
1409, 272, 930
1410, 930, 234
*ELEMENT, type=T3D2, ELSET=Line494
1411, 282, 931
1412, 931, 236
*ELEMENT, type=T3D2, ELSET=Line495
1413, 236, 932
1414, 932, 271
*ELEMENT, type=T3D2, ELSET=Line496
1415, 276, 933
1416, 933, 283
*ELEMENT, type=T3D2, ELSET=Line497
1417, 283, 934
1418, 934, 31
*ELEMENT, type=T3D2, ELSET=Line498
1419, 275, 935
1420, 935, 237
*ELEMENT, type=T3D2, ELSET=Line499
1421, 237, 936
1422, 936, 283
*ELEMENT, type=T3D2, ELSET=Line500
1423, 274, 937
1424, 937, 238
*ELEMENT, type=T3D2, ELSET=Line502
1425, 284, 938
1426, 938, 285
*ELEMENT, type=T3D2, ELSET=Line503
1427, 285, 939
1428, 939, 286
*ELEMENT, type=T3D2, ELSET=Line504
1429, 286, 940
1430, 940, 287
*ELEMENT, type=T3D2, ELSET=Line505
1431, 287, 941
1432, 941, 284
*ELEMENT, type=T3D2, ELSET=Line506
1433, 288, 942
1434, 942, 289
*ELEMENT, type=T3D2, ELSET=Line507
1435, 289, 943
1436, 943, 286
*ELEMENT, type=T3D2, ELSET=Line508
1437, 285, 944
1438, 944, 288
*ELEMENT, type=T3D2, ELSET=Line509
1439, 290, 291
*ELEMENT, type=T3D2, ELSET=Line510
1440, 290, 945
1441, 945, 292
*ELEMENT, type=T3D2, ELSET=Line511
1442, 292, 946
1443, 946, 287
*ELEMENT, type=T3D2, ELSET=Line512
1444, 291, 947
1445, 947, 286
*ELEMENT, type=T3D2, ELSET=Line513
1446, 293, 948
1447, 948, 284
*ELEMENT, type=T3D2, ELSET=Line514
1448, 293, 949
1449, 949, 294
*ELEMENT, type=T3D2, ELSET=Line515
1450, 287, 950
1451, 950, 294
*ELEMENT, type=T3D2, ELSET=Line516
1452, 295, 951
1453, 951, 296
*ELEMENT, type=T3D2, ELSET=Line517
1454, 297, 296
*ELEMENT, type=T3D2, ELSET=Line518
1455, 285, 952
1456, 952, 297
*ELEMENT, type=T3D2, ELSET=Line519
1457, 284, 953
1458, 953, 295
*ELEMENT, type=T3D2, ELSET=Line520
1459, 248, 954
1460, 954, 290
*ELEMENT, type=T3D2, ELSET=Line521
1461, 290, 955
1462, 955, 298
*ELEMENT, type=T3D2, ELSET=Line522
1463, 298, 956
1464, 956, 249
*ELEMENT, type=T3D2, ELSET=Line523
1465, 291, 957
1466, 957, 299
*ELEMENT, type=T3D2, ELSET=Line524
1467, 299, 250
*ELEMENT, type=T3D2, ELSET=Line525
1468, 299, 958
1469, 958, 289
*ELEMENT, type=T3D2, ELSET=Line526
1470, 251, 289
*ELEMENT, type=T3D2, ELSET=Line527
1471, 288, 252
*ELEMENT, type=T3D2, ELSET=Line528
1472, 288, 959
1473, 959, 300
*ELEMENT, type=T3D2, ELSET=Line529
1474, 253, 300
*ELEMENT, type=T3D2, ELSET=Line530
1475, 296, 960
1476, 960, 254
*ELEMENT, type=T3D2, ELSET=Line531
1477, 300, 961
1478, 961, 297
*ELEMENT, type=T3D2, ELSET=Line532
1479, 255, 962
1480, 962, 301
*ELEMENT, type=T3D2, ELSET=Line533
1481, 301, 963
1482, 963, 296
*ELEMENT, type=T3D2, ELSET=Line534
1483, 302, 964
1484, 964, 281
*ELEMENT, type=T3D2, ELSET=Line535
1485, 303, 965
1486, 965, 302
*ELEMENT, type=T3D2, ELSET=Line536
1487, 268, 966
1488, 966, 303
*ELEMENT, type=T3D2, ELSET=Line537
1489, 304, 303
*ELEMENT, type=T3D2, ELSET=Line538
1490, 256, 967
1491, 967, 304
*ELEMENT, type=T3D2, ELSET=Line539
1492, 305, 304
*ELEMENT, type=T3D2, ELSET=Line540
1493, 306, 968
1494, 968, 305
*ELEMENT, type=T3D2, ELSET=Line541
1495, 257, 306
*ELEMENT, type=T3D2, ELSET=Line542
1496, 306, 969
1497, 969, 307
*ELEMENT, type=T3D2, ELSET=Line543
1498, 307, 308
*ELEMENT, type=T3D2, ELSET=Line544
1499, 308, 970
1500, 970, 309
*ELEMENT, type=T3D2, ELSET=Line545
1501, 309, 310
*ELEMENT, type=T3D2, ELSET=Line546
1502, 310, 971
1503, 971, 311
*ELEMENT, type=T3D2, ELSET=Line547
1504, 311, 258
*ELEMENT, type=T3D2, ELSET=Line548
1505, 311, 972
1506, 972, 312
*ELEMENT, type=T3D2, ELSET=Line549
1507, 312, 973
1508, 973, 259
*ELEMENT, type=T3D2, ELSET=Line550
1509, 313, 974
1510, 974, 312
*ELEMENT, type=T3D2, ELSET=Line551
1511, 263, 975
1512, 975, 313
*ELEMENT, type=T3D2, ELSET=Line552
1513, 314, 976
1514, 976, 298
*ELEMENT, type=T3D2, ELSET=Line553
1515, 292, 314
*ELEMENT, type=T3D2, ELSET=Line554
1516, 292, 977
1517, 977, 294
*ELEMENT, type=T3D2, ELSET=Line555
1518, 293, 978
1519, 978, 295
*ELEMENT, type=T3D2, ELSET=Line556
1520, 315, 295
*ELEMENT, type=T3D2, ELSET=Line557
1521, 301, 979
1522, 979, 315
*ELEMENT, type=T3D2, ELSET=Line558
1523, 316, 980
1524, 980, 312
*ELEMENT, type=T3D2, ELSET=Line559
1525, 317, 981
1526, 981, 316
*ELEMENT, type=T3D2, ELSET=Line560
1527, 313, 982
1528, 982, 317
*ELEMENT, type=T3D2, ELSET=Line561
1529, 318, 983
1530, 983, 319
*ELEMENT, type=T3D2, ELSET=Line562
1531, 317, 984
1532, 984, 319
*ELEMENT, type=T3D2, ELSET=Line563
1533, 318, 985
1534, 985, 316
*ELEMENT, type=T3D2, ELSET=Line564
1535, 320, 321
*ELEMENT, type=T3D2, ELSET=Line565
1536, 319, 986
1537, 986, 321
*ELEMENT, type=T3D2, ELSET=Line566
1538, 320, 318
*ELEMENT, type=T3D2, ELSET=Line567
1539, 322, 323
*ELEMENT, type=T3D2, ELSET=Line568
1540, 321, 987
1541, 987, 323
*ELEMENT, type=T3D2, ELSET=Line569
1542, 322, 988
1543, 988, 320
*ELEMENT, type=T3D2, ELSET=Line570
1544, 324, 322
*ELEMENT, type=T3D2, ELSET=Line571
1545, 323, 325
*ELEMENT, type=T3D2, ELSET=Line572
1546, 324, 325
*ELEMENT, type=T3D2, ELSET=Line573
1547, 326, 989
1548, 989, 327
*ELEMENT, type=T3D2, ELSET=Line574
1549, 325, 990
1550, 990, 327
*ELEMENT, type=T3D2, ELSET=Line575
1551, 326, 991
1552, 991, 324
*ELEMENT, type=T3D2, ELSET=Line576
1553, 328, 329
*ELEMENT, type=T3D2, ELSET=Line577
1554, 328, 330
*ELEMENT, type=T3D2, ELSET=Line578
1555, 331, 330
*ELEMENT, type=T3D2, ELSET=Line579
1556, 331, 329
*ELEMENT, type=T3D2, ELSET=Line580
1557, 330, 992
1558, 992, 332
*ELEMENT, type=T3D2, ELSET=Line581
1559, 333, 993
1560, 993, 332
*ELEMENT, type=T3D2, ELSET=Line582
1561, 333, 994
1562, 994, 334
*ELEMENT, type=T3D2, ELSET=Line583
1563, 334, 995
1564, 995, 330
*ELEMENT, type=T3D2, ELSET=Line584
1565, 335, 996
1566, 996, 333
*ELEMENT, type=T3D2, ELSET=Line585
1567, 335, 336
*ELEMENT, type=T3D2, ELSET=Line586
1568, 332, 997
1569, 997, 336
*ELEMENT, type=T3D2, ELSET=Line587
1570, 336, 998
1571, 998, 337
*ELEMENT, type=T3D2, ELSET=Line588
1572, 338, 337
*ELEMENT, type=T3D2, ELSET=Line589
1573, 338, 999
1574, 999, 335
*ELEMENT, type=T3D2, ELSET=Line590
1575, 339, 1000
1576, 1000, 338
*ELEMENT, type=T3D2, ELSET=Line591
1577, 339, 340
*ELEMENT, type=T3D2, ELSET=Line592
1578, 337, 1001
1579, 1001, 340
*ELEMENT, type=T3D2, ELSET=Line593
1580, 341, 1002
1581, 1002, 339
*ELEMENT, type=T3D2, ELSET=Line594
1582, 341, 1003
1583, 1003, 342
*ELEMENT, type=T3D2, ELSET=Line595
1584, 340, 1004
1585, 1004, 342
*ELEMENT, type=T3D2, ELSET=Line596
1586, 343, 1005
1587, 1005, 302
*ELEMENT, type=T3D2, ELSET=Line597
1588, 343, 1006
1589, 1006, 344
*ELEMENT, type=T3D2, ELSET=Line598
1590, 303, 1007
1591, 1007, 344
*ELEMENT, type=T3D2, ELSET=Line600
1592, 315, 1008
1593, 1008, 293
*ELEMENT, type=T3D2, ELSET=Line601
1594, 294, 1009
1595, 1009, 314
*ELEMENT, type=T3D2, ELSET=Line603
1596, 344, 1010
1597, 1010, 345
*ELEMENT, type=T3D2, ELSET=Line604
1598, 346, 345
*ELEMENT, type=T3D2, ELSET=Line605
1599, 304, 1011
1600, 1011, 346
*ELEMENT, type=T3D2, ELSET=Line606
1601, 346, 305
*ELEMENT, type=T3D2, ELSET=Line607
1602, 347, 1012
1603, 1012, 305
*ELEMENT, type=T3D2, ELSET=Line608
1604, 307, 1013
1605, 1013, 347
*ELEMENT, type=T3D2, ELSET=Line609
1606, 348, 347
*ELEMENT, type=T3D2, ELSET=Line610
1607, 308, 1014
1608, 1014, 348
*ELEMENT, type=T3D2, ELSET=Line611
1609, 349, 1015
1610, 1015, 348
*ELEMENT, type=T3D2, ELSET=Line612
1611, 309, 1016
1612, 1016, 349
*ELEMENT, type=T3D2, ELSET=Line613
1613, 350, 349
*ELEMENT, type=T3D2, ELSET=Line614
1614, 310, 1017
1615, 1017, 350
*ELEMENT, type=T3D2, ELSET=Line615
1616, 316, 1018
1617, 1018, 350
*ELEMENT, type=T3D2, ELSET=Line616
1618, 318, 350
*ELEMENT, type=T3D2, ELSET=Line617
1619, 349, 320
*ELEMENT, type=T3D2, ELSET=Line618
1620, 322, 348
*ELEMENT, type=T3D2, ELSET=Line619
1621, 347, 324
*ELEMENT, type=T3D2, ELSET=Line620
1622, 345, 1019
1623, 1019, 327
*ELEMENT, type=T3D2, ELSET=Line621
1624, 346, 1020
1625, 1020, 326
*ELEMENT, type=T3D2, ELSET=Line622
1626, 327, 1021
1627, 1021, 1022
1628, 1022, 1023
1629, 1023, 1024
1630, 1024, 1025
1631, 1025, 1026
1632, 1026, 1027
1633, 1027, 351
*ELEMENT, type=T3D2, ELSET=Line624
1634, 351, 1028
1635, 1028, 345
*ELEMENT, type=T3D2, ELSET=Line625
1636, 351, 1029
1637, 1029, 1030
1638, 1030, 1031
1639, 1031, 1032
1640, 1032, 1033
1641, 1033, 1034
1642, 1034, 1035
1643, 1035, 343
*ELEMENT, type=T3D2, ELSET=Line627
1644, 334, 1036
1645, 1036, 331
*ELEMENT, type=T3D2, ELSET=Line628
1646, 352, 1037
1647, 1037, 335
*ELEMENT, type=T3D2, ELSET=Line629
1648, 353, 1038
1649, 1038, 333
*ELEMENT, type=T3D2, ELSET=Line630
1650, 352, 1039
1651, 1039, 353
*ELEMENT, type=T3D2, ELSET=Line631
1652, 338, 1040
1653, 1040, 354
*ELEMENT, type=T3D2, ELSET=Line632
1654, 354, 1041
1655, 1041, 352
*ELEMENT, type=T3D2, ELSET=Line633
1656, 355, 1042
1657, 1042, 339
*ELEMENT, type=T3D2, ELSET=Line634
1658, 355, 1043
1659, 1043, 354
*ELEMENT, type=T3D2, ELSET=Line635
1660, 357, 1044
1661, 1044, 356
*ELEMENT, type=T3D2, ELSET=Line636
1662, 356, 1045
1663, 1045, 1046
1664, 1046, 1047
1665, 1047, 1048
1666, 1048, 1049
1667, 1049, 358
*ELEMENT, type=T3D2, ELSET=Line637
1668, 359, 1050
1669, 1050, 358
*ELEMENT, type=T3D2, ELSET=Line638
1670, 359, 1051
1671, 1051, 1052
1672, 1052, 1053
1673, 1053, 1054
1674, 1054, 1055
1675, 1055, 1056
1676, 1056, 359
*ELEMENT, type=T3D2, ELSET=Line639
1677, 358, 1057
1678, 1057, 357
*ELEMENT, type=T3D2, ELSET=Line640
1679, 360, 361
*ELEMENT, type=T3D2, ELSET=Line641
1680, 361, 1058
1681, 1058, 1059
1682, 1059, 1060
1683, 1060, 1061
1684, 1061, 1062
1685, 1062, 360
*ELEMENT, type=T3D2, ELSET=Line642
1686, 360, 1063
1687, 1063, 362
*ELEMENT, type=T3D2, ELSET=Line643
1688, 362, 363
*ELEMENT, type=T3D2, ELSET=Line644
1689, 363, 1064
1690, 1064, 1065
1691, 1065, 1066
1692, 1066, 1067
1693, 1067, 1068
1694, 1068, 362
*ELEMENT, type=T3D2, ELSET=Line645
1695, 361, 1069
1696, 1069, 359
*ELEMENT, type=T3D2, ELSET=Line646
1697, 364, 1070
1698, 1070, 1071
1699, 1071, 1072
1700, 1072, 1073
1701, 1073, 365
*ELEMENT, type=T3D2, ELSET=Line647
1702, 365, 1074
1703, 1074, 364
*ELEMENT, type=T3D2, ELSET=Line648
1704, 364, 1075
1705, 1075, 356
*ELEMENT, type=T3D2, ELSET=Line649
1706, 103, 1076
1707, 1076, 363
*ELEMENT, type=T3D2, ELSET=Line650
1708, 243, 1077
1709, 1077, 1078
1710, 1078, 242
*ELEMENT, type=T3D2, ELSET=Line651
1711, 365, 1079
1712, 1079, 1080
1713, 1080, 242
*ELEMENT, type=T3D2, ELSET=Line652
1714, 118, 1081
1715, 1081, 1082
1716, 1082, 1083
1717, 1083, 117
*ELEMENT, type=T3D2, ELSET=Line653
1718, 115, 1084
1719, 1084, 1085
1720, 1085, 1086
1721, 1086, 260
*ELEMENT, type=T3D2, ELSET=Line654
1722, 260, 1087
1723, 1087, 1088
1724, 1088, 263
*ELEMENT, type=T3D2, ELSET=Line655
1725, 327, 1089
1726, 1089, 1090
1727, 1090, 1091
1728, 1091, 1092
1729, 1092, 1093
1730, 1093, 1094
1731, 1094, 1095
1732, 1095, 80
*ELEMENT, type=T3D2, ELSET=Line656
1733, 80, 1096
1734, 1096, 328
*ELEMENT, type=T3D2, ELSET=Line657
1735, 342, 1097
1736, 1097, 2
*ELEMENT, type=T3D2, ELSET=Line658
1737, 68, 1098
1738, 1098, 1099
1739, 1099, 1100
1740, 1100, 1101
1741, 1101, 1102
1742, 1102, 1103
1743, 1103, 1104
1744, 1104, 366
*ELEMENT, type=T3D2, ELSET=Line659
1745, 366, 1105
1746, 1105, 367
*ELEMENT, type=T3D2, ELSET=Line660
1747, 367, 1106
1748, 1106, 368
*ELEMENT, type=T3D2, ELSET=Line661
1749, 368, 1107
1750, 1107, 1108
1751, 1108, 1109
1752, 1109, 1110
1753, 1110, 1111
1754, 1111, 1112
1755, 1112, 1113
1756, 1113, 1114
1757, 1114, 1115
1758, 1115, 367
*ELEMENT, type=T3D2, ELSET=Line662
1759, 366, 1116
1760, 1116, 1117
1761, 1117, 1118
1762, 1118, 1119
1763, 1119, 1120
1764, 1120, 1121
1765, 1121, 1122
1766, 1122, 343
*ELEMENT, type=T3D2, ELSET=Line663
1767, 369, 1123
1768, 1123, 1124
1769, 1124, 1125
1770, 1125, 1126
1771, 1126, 1127
1772, 1127, 1128
1773, 1128, 1129
1774, 1129, 1130
1775, 1130, 370
*ELEMENT, type=T3D2, ELSET=Line664
1776, 370, 1131
1777, 1131, 369
*ELEMENT, type=T3D2, ELSET=Line665
1778, 370, 1132
1779, 1132, 368
*ELEMENT, type=T3D2, ELSET=Line666
1780, 246, 1133
1781, 1133, 371
*ELEMENT, type=T3D2, ELSET=Line667
1782, 294, 1134
1783, 1134, 371
*ELEMENT, type=T3D2, ELSET=Line668
1784, 369, 1135
1785, 1135, 293
*ELEMENT, type=T3D2, ELSET=Line669
1786, 371, 1136
1787, 1136, 1137
1788, 1137, 1138
1789, 1138, 247
*ELEMENT, type=T3D2, ELSET=Line670
1790, 245, 1139
1791, 1139, 1140
1792, 1140, 1141
1793, 1141, 1142
1794, 1142, 244
*ELEMENT, type=T3D2, ELSET=Line671
1795, 1, 1143
1796, 1143, 341
*ELEMENT, type=T3D2, ELSET=Line672
1797, 329, 1144
1798, 1144, 81
*ELEMENT, type=T3D2, ELSET=Line673
1799, 341, 6
*ELEMENT, type=T3D2, ELSET=Line674
1800, 372, 64
*ELEMENT, type=T3D2, ELSET=Line675
1801, 373, 1145
1802, 1145, 372
*ELEMENT, type=T3D2, ELSET=Line676
1803, 329, 373
*ELEMENT, type=T3D2, ELSET=Line677
1804, 334, 86
*ELEMENT, type=T3D2, ELSET=Line678
1805, 353, 89
*ELEMENT, type=T3D2, ELSET=Line679
1806, 52, 355
*ELEMENT, type=T3D2, ELSET=Line680
1807, 92, 374
*ELEMENT, type=T3D2, ELSET=Line681
1808, 374, 1146
1809, 1146, 375
*ELEMENT, type=T3D2, ELSET=Line682
1810, 375, 1147
1811, 1147, 376
*ELEMENT, type=T3D2, ELSET=Line683
1812, 376, 331
*ELEMENT, type=T3D2, ELSET=Line684
1813, 86, 1148
1814, 1148, 375
*ELEMENT, type=CPS3, ELSET=Surface1
1815, 377, 1, 378
1816, 380, 2, 377
1817, 379, 378, 3
1818, 380, 379, 4
1819, 378, 380, 377
1820, 379, 380, 378
*ELEMENT, type=CPS3, ELSET=Surface2
1821, 6, 1149, 1
1822, 1, 1150, 378
1823, 1149, 1150, 1
1824, 378, 5, 3
1825, 5, 378, 382
1826, 381, 1149, 6
1827, 7, 1150, 381
1828, 382, 1150, 7
1829, 378, 1150, 382
1830, 381, 1150, 1149
*ELEMENT, type=CPS3, ELSET=Surface3
1831, 5, 1151, 9
1832, 382, 1151, 5
1833, 8, 1152, 7
1834, 7, 1152, 382
1835, 383, 1152, 8
1836, 9, 1151, 383
1837, 383, 1151, 382
1838, 382, 1152, 383
*ELEMENT, type=CPS3, ELSET=Surface4
1839, 10, 1153, 8
1840, 8, 1153, 383
1841, 9, 1154, 11
1842, 383, 1154, 9
1843, 384, 1153, 10
1844, 11, 1154, 384
1845, 383, 1153, 384
1846, 384, 1154, 383
*ELEMENT, type=CPS3, ELSET=Surface5
1847, 12, 1155, 10
1848, 10, 1155, 384
1849, 11, 1156, 13
1850, 384, 1156, 11
1851, 385, 1155, 12
1852, 13, 1156, 385
1853, 384, 1155, 385
1854, 385, 1156, 384
*ELEMENT, type=CPS3, ELSET=Surface6
1855, 12, 16, 385
1856, 388, 16, 12
1857, 386, 388, 12
1858, 385, 389, 13
1859, 389, 390, 13
1860, 14, 387, 386
1861, 387, 15, 386
1862, 386, 15, 388
1863, 385, 16, 389
1864, 389, 17, 390
*ELEMENT, type=CPS3, ELSET=Surface7
1865, 393, 389, 16
1866, 392, 17, 389
1867, 392, 391, 17
1868, 392, 18, 391
1869, 392, 393, 19
1870, 392, 389, 393
*ELEMENT, type=CPS3, ELSET=Surface8
1871, 18, 392, 1159
1872, 397, 18, 1159
1873, 22, 392, 19
1874, 394, 22, 19
1875, 21, 394, 20
1876, 394, 21, 22
1877, 392, 22, 1158
1878, 22, 395, 1158
1879, 23, 396, 24
1880, 23, 24, 1157
1881, 395, 23, 1157
1882, 24, 25, 1160
1883, 1157, 24, 1160
1884, 25, 397, 1160
1885, 392, 1158, 1159
1886, 395, 1157, 1158
1887, 397, 1159, 1160
1888, 1158, 1157, 1159
1889, 1159, 1157, 1160
*ELEMENT, type=CPS3, ELSET=Surface9
1890, 24, 26, 25
1891, 26, 24, 400
1892, 25, 26, 398
1893, 398, 399, 25
1894, 27, 26, 400
1895, 398, 28, 399
*ELEMENT, type=CPS3, ELSET=Surface10
1896, 401, 26, 29
1897, 398, 26, 401
1898, 402, 28, 398
1899, 401, 30, 402
1900, 398, 401, 402
*ELEMENT, type=CPS3, ELSET=Surface11
1901, 401, 29, 404
1902, 403, 30, 401
1903, 405, 31, 403
1904, 404, 32, 405
1905, 401, 405, 403
1906, 401, 404, 405
*ELEMENT, type=CPS3, ELSET=Surface12
1907, 409, 406, 33
1908, 406, 407, 34
1909, 408, 35, 407
1910, 36, 408, 409
1911, 408, 407, 406
1912, 408, 406, 409
*ELEMENT, type=CPS3, ELSET=Surface13
1913, 35, 1162, 37
1914, 408, 1162, 35
1915, 408, 36, 38
1916, 37, 1162, 39
1917, 38, 1161, 408
1918, 410, 1161, 38
1919, 39, 1161, 410
1920, 39, 1162, 1161
1921, 1161, 1162, 408
*ELEMENT, type=CPS3, ELSET=Surface14
1922, 411, 37, 39
1923, 411, 39, 412
1924, 40, 412, 41
1925, 40, 411, 412
*ELEMENT, type=CPS3, ELSET=Surface15
1926, 40, 41, 1164
1927, 413, 40, 1164
1928, 41, 414, 1164
1929, 43, 42, 1163
1930, 42, 413, 1163
1931, 414, 43, 1163
1932, 1163, 413, 1164
1933, 414, 1163, 1164
*ELEMENT, type=CPS3, ELSET=Surface16
1934, 416, 42, 43
1935, 416, 415, 42
1936, 45, 44, 415
1937, 45, 415, 416
*ELEMENT, type=CPS3, ELSET=Surface17
1938, 45, 1166, 44
1939, 44, 1166, 48
1940, 418, 1165, 45
1941, 1165, 1166, 45
1942, 417, 46, 47
1943, 417, 1165, 46
1944, 46, 1165, 418
1945, 48, 1166, 417
1946, 417, 1166, 1165
*ELEMENT, type=CPS3, ELSET=Surface18
1947, 47, 421, 417
1948, 417, 419, 48
1949, 420, 49, 419
1950, 421, 50, 420
1951, 420, 419, 417
1952, 420, 417, 421
*ELEMENT, type=CPS3, ELSET=Surface19
1953, 6, 1167, 381
1954, 423, 1167, 6
1955, 381, 1168, 7
1956, 7, 1168, 422
1957, 422, 1169, 51
1958, 51, 1169, 424
1959, 52, 1167, 423
1960, 424, 1167, 52
1961, 381, 1167, 424
1962, 424, 1168, 381
1963, 1168, 1169, 422
1964, 424, 1169, 1168
*ELEMENT, type=CPS3, ELSET=Surface20
1965, 53, 8, 7
1966, 53, 7, 422
1967, 53, 425, 8
1968, 425, 426, 8
1969, 51, 53, 422
1970, 54, 426, 425
*ELEMENT, type=CPS3, ELSET=Surface21
1971, 10, 8, 55
1972, 55, 8, 426
1973, 428, 10, 55
1974, 426, 54, 427
1975, 55, 56, 428
1976, 426, 427, 55
*ELEMENT, type=CPS3, ELSET=Surface22
1977, 429, 12, 10
1978, 428, 429, 10
1979, 57, 428, 56
1980, 57, 429, 428
*ELEMENT, type=CPS3, ELSET=Surface23
1981, 12, 1172, 386
1982, 429, 1172, 12
1983, 386, 1170, 14
1984, 14, 1170, 431
1985, 57, 1171, 429
1986, 430, 1171, 57
1987, 430, 58, 431
1988, 386, 1172, 1170
1989, 1171, 1172, 429
1990, 431, 1171, 430
1991, 1170, 1171, 431
1992, 1170, 1172, 1171
*ELEMENT, type=CPS3, ELSET=Surface24
1993, 14, 59, 433
1994, 433, 387, 14
1995, 433, 15, 387
1996, 20, 433, 432
1997, 432, 433, 59
*ELEMENT, type=CPS3, ELSET=Surface25
1998, 388, 15, 1174
1999, 15, 433, 1174
2000, 16, 388, 1173
2001, 393, 16, 1173
2002, 19, 393, 1175
2003, 394, 19, 1175
2004, 20, 394, 1176
2005, 433, 20, 1176
2006, 1173, 388, 1174
2007, 393, 1173, 1175
2008, 394, 1175, 1176
2009, 1174, 433, 1176
2010, 1173, 1174, 1175
2011, 1175, 1174, 1176
*ELEMENT, type=CPS3, ELSET=Surface26
2012, 20, 1177, 21
2013, 432, 1177, 20
2014, 21, 1177, 435
2015, 434, 58, 60
2016, 59, 1177, 432
2017, 434, 1177, 59
2018, 60, 1177, 434
2019, 435, 1177, 60
*ELEMENT, type=CPS3, ELSET=Surface27
2020, 21, 437, 22
2021, 21, 436, 437
2022, 437, 436, 61
*ELEMENT, type=CPS3, ELSET=Surface28
2023, 22, 438, 395
2024, 440, 23, 395
2025, 62, 395, 438
2026, 439, 395, 62
2027, 64, 395, 63
2028, 63, 395, 439
2029, 64, 440, 395
*ELEMENT, type=CPS3, ELSET=Surface29
2030, 396, 23, 440
2031, 396, 1178, 24
2032, 24, 1178, 400
2033, 400, 1178, 27
2034, 27, 1178, 441
2035, 441, 440, 64
2036, 440, 441, 396
2037, 441, 1178, 396
*ELEMENT, type=CPS3, ELSET=Surface30
2038, 26, 27, 442
2039, 442, 27, 65
*ELEMENT, type=CPS3, ELSET=Surface31
2040, 26, 1180, 29
2041, 442, 1180, 26
2042, 29, 1180, 444
2043, 66, 1179, 65
2044, 65, 1179, 442
2045, 443, 1179, 66
2046, 67, 1179, 443
2047, 444, 1181, 67
2048, 67, 1181, 1179
2049, 1179, 1181, 442
2050, 442, 1181, 1180
2051, 1180, 1181, 444
*ELEMENT, type=CPS3, ELSET=Surface32
2052, 29, 1183, 404
2053, 444, 1183, 29
2054, 404, 1183, 32
2055, 32, 1183, 446
2056, 67, 1182, 444
2057, 445, 1182, 67
2058, 68, 1184, 445
2059, 446, 1184, 68
2060, 1182, 1183, 444
2061, 445, 1184, 1182
2062, 1183, 1184, 446
2063, 1182, 1184, 1183
*ELEMENT, type=CPS3, ELSET=Surface33
2064, 448, 421, 47
2065, 421, 447, 50
2066, 447, 69, 70
2067, 448, 69, 447
2068, 448, 447, 421
*ELEMENT, type=CPS3, ELSET=Surface34
2069, 70, 69, 450
2070, 450, 69, 449
2071, 449, 71, 450
*ELEMENT, type=CPS3, ELSET=Surface35
2072, 71, 453, 452
2073, 71, 452, 454
2074, 451, 452, 72
2075, 73, 452, 451
2076, 73, 454, 452
2077, 453, 74, 452
*ELEMENT, type=CPS3, ELSET=Surface36
2078, 455, 73, 456
2079, 76, 75, 455
2080, 76, 455, 456
*ELEMENT, type=CPS3, ELSET=Surface37
2081, 409, 33, 457
2082, 458, 36, 409
2083, 457, 75, 76
2084, 458, 457, 76
2085, 458, 409, 457
*ELEMENT, type=CPS3, ELSET=Surface38
2086, 460, 38, 36
2087, 460, 36, 458
2088, 460, 461, 38
2089, 72, 458, 459
2090, 460, 458, 72
2091, 459, 458, 76
2092, 460, 77, 461
*ELEMENT, type=CPS3, ELSET=Surface39
2093, 38, 1185, 410
2094, 461, 1185, 38
2095, 410, 412, 39
2096, 462, 41, 412
2097, 77, 1185, 461
2098, 462, 1185, 77
2099, 410, 462, 412
2100, 410, 1185, 462
*ELEMENT, type=CPS3, ELSET=Surface40
2101, 41, 1186, 414
2102, 462, 1186, 41
2103, 414, 1187, 43
2104, 43, 1187, 464
2105, 77, 1186, 462
2106, 463, 1186, 77
2107, 78, 1187, 463
2108, 464, 1187, 78
2109, 1186, 1187, 414
2110, 463, 1187, 1186
*ELEMENT, type=CPS3, ELSET=Surface41
2111, 464, 416, 43
2112, 418, 45, 416
2113, 418, 1188, 46
2114, 46, 1188, 465
2115, 78, 1188, 464
2116, 465, 1188, 78
2117, 464, 418, 416
2118, 464, 1188, 418
*ELEMENT, type=CPS3, ELSET=Surface42
2119, 47, 46, 467
2120, 46, 465, 467
2121, 47, 467, 448
2122, 448, 466, 69
2123, 448, 74, 466
2124, 448, 467, 74
2125, 465, 78, 467
*ELEMENT, type=CPS3, ELSET=Surface43
2126, 66, 1196, 443
2127, 468, 1196, 66
2128, 443, 1195, 67
2129, 67, 1195, 445
2130, 445, 469, 68
2131, 79, 1191, 468
2132, 475, 1191, 79
2133, 443, 1196, 1195
2134, 445, 1190, 469
2135, 445, 1192, 1190
2136, 445, 1194, 1192
2137, 445, 1195, 1194
2138, 1191, 1193, 468
2139, 1193, 1194, 468
2140, 1194, 1196, 468
2141, 471, 1189, 472
2142, 472, 1189, 473
2143, 469, 1190, 470
2144, 470, 1190, 471
2145, 473, 1191, 474
2146, 474, 1191, 475
2147, 471, 1190, 1189
2148, 1189, 1191, 473
2149, 1190, 1192, 1189
2150, 1189, 1193, 1191
2151, 1192, 1193, 1189
2152, 1192, 1194, 1193
2153, 1195, 1196, 1194
*ELEMENT, type=CPS3, ELSET=Surface44
2154, 66, 1201, 468
2155, 476, 1201, 66
2156, 477, 79, 468
2157, 80, 1198, 476
2158, 483, 1198, 80
2159, 468, 1200, 477
2160, 468, 1201, 1200
2161, 1198, 1199, 476
2162, 1199, 1201, 476
2163, 479, 1199, 480
2164, 480, 1199, 481
2165, 477, 1200, 478
2166, 478, 1197, 479
2167, 478, 1200, 1197
2168, 481, 1198, 482
2169, 482, 1198, 483
2170, 1197, 1199, 479
2171, 481, 1199, 1198
2172, 1197, 1201, 1199
2173, 1200, 1201, 1197
*ELEMENT, type=CPS3, ELSET=Surface45
2174, 485, 66, 65
2175, 485, 476, 66
2176, 484, 80, 476
2177, 484, 1202, 81
2178, 81, 1202, 485
2179, 476, 1202, 484
2180, 485, 1202, 476
*ELEMENT, type=CPS3, ELSET=Surface46
2181, 53, 486, 425
2182, 486, 54, 425
2183, 486, 487, 54
2184, 486, 82, 487
*ELEMENT, type=CPS3, ELSET=Surface47
2185, 54, 488, 427
2186, 487, 488, 54
2187, 427, 488, 55
2188, 82, 488, 487
*ELEMENT, type=CPS3, ELSET=Surface48
2189, 14, 1203, 59
2190, 431, 1203, 14
2191, 58, 1203, 431
2192, 434, 1203, 58
2193, 59, 1203, 434
*ELEMENT, type=CPS3, ELSET=Surface49
2194, 435, 1210, 21
2195, 21, 1210, 436
2196, 60, 1206, 435
2197, 492, 1206, 60
2198, 436, 1210, 61
2199, 61, 1205, 491
2200, 61, 1210, 1205
2201, 83, 1207, 489
2202, 490, 1207, 83
2203, 489, 1208, 84
2204, 84, 1208, 492
2205, 85, 1207, 490
2206, 491, 1211, 85
2207, 85, 1211, 1207
2208, 1206, 1210, 435
2209, 489, 1207, 1204
2210, 1204, 1208, 489
2211, 491, 1205, 1204
2212, 1204, 1211, 491
2213, 492, 1209, 1206
2214, 1208, 1209, 492
2215, 1205, 1209, 1204
2216, 1207, 1211, 1204
2217, 1204, 1209, 1208
2218, 1206, 1209, 1205
2219, 1205, 1210, 1206
*ELEMENT, type=CPS3, ELSET=Surface50
2220, 438, 22, 437
2221, 437, 61, 62
2222, 62, 438, 437
*ELEMENT, type=CPS3, ELSET=Surface51
2223, 61, 1213, 62
2224, 491, 1212, 61
2225, 1212, 1213, 61
2226, 62, 1213, 439
2227, 63, 439, 493
2228, 85, 1212, 491
2229, 493, 1212, 85
2230, 439, 1213, 493
2231, 493, 1213, 1212
*ELEMENT, type=CPS3, ELSET=Surface52
2232, 69, 466, 449
2233, 449, 453, 71
2234, 74, 453, 449
2235, 466, 74, 449
*ELEMENT, type=CPS3, ELSET=Surface53
2236, 72, 452, 1214
2237, 460, 72, 1214
2238, 452, 74, 1216
2239, 74, 467, 1216
2240, 77, 460, 1215
2241, 463, 77, 1215
2242, 78, 463, 1215
2243, 467, 78, 1215
2244, 1214, 452, 1216
2245, 460, 1214, 1215
2246, 467, 1215, 1216
2247, 1215, 1214, 1216
*ELEMENT, type=CPS3, ELSET=Surface54
2248, 72, 456, 451
2249, 459, 456, 72
2250, 456, 73, 451
2251, 76, 456, 459
*ELEMENT, type=CPS3, ELSET=Surface55
2252, 87, 1217, 86
2253, 86, 1217, 495
2254, 494, 1217, 87
2255, 89, 1218, 88
2256, 88, 1218, 494
2257, 495, 1218, 89
2258, 495, 1217, 494
2259, 494, 1218, 495
*ELEMENT, type=CPS3, ELSET=Surface56
2260, 83, 489, 90
2261, 496, 84, 88
2262, 496, 489, 84
2263, 496, 90, 489
*ELEMENT, type=CPS3, ELSET=Surface57
2264, 493, 497, 63
2265, 490, 83, 498
2266, 85, 490, 493
2267, 497, 498, 91
2268, 493, 490, 498
2269, 493, 498, 497
*ELEMENT, type=CPS3, ELSET=Surface58
2270, 83, 90, 1219
2271, 498, 83, 1221
2272, 83, 1219, 1221
2273, 90, 499, 1219
2274, 92, 91, 1220
2275, 91, 498, 1220
2276, 499, 92, 1220
2277, 1220, 498, 1221
2278, 1219, 499, 1220
2279, 1219, 1220, 1221
*ELEMENT, type=CPS3, ELSET=Surface59
2280, 494, 87, 500
2281, 88, 494, 496
2282, 496, 500, 90
2283, 496, 494, 500
*ELEMENT, type=CPS3, ELSET=Surface60
2284, 501, 500, 87
2285, 500, 499, 90
2286, 92, 499, 501
2287, 501, 499, 500
*ELEMENT, type=CPS3, ELSET=Surface61
2288, 502, 93, 1228
2289, 93, 507, 1223
2290, 508, 93, 1223
2291, 93, 508, 1228
2292, 94, 508, 1223
2293, 508, 94, 1228
2294, 509, 94, 1223
2295, 94, 514, 1228
2296, 503, 502, 1227
2297, 502, 514, 1227
2298, 514, 502, 1228
2299, 504, 503, 1225
2300, 503, 513, 1225
2301, 513, 503, 1227
2302, 505, 504, 1226
2303, 512, 504, 1225
2304, 504, 512, 1226
2305, 506, 505, 1224
2306, 505, 511, 1224
2307, 511, 505, 1226
2308, 507, 506, 1222
2309, 506, 510, 1222
2310, 510, 506, 1224
2311, 509, 507, 1222
2312, 507, 509, 1223
2313, 510, 509, 1222
2314, 511, 510, 1224
2315, 512, 511, 1226
2316, 513, 512, 1225
2317, 514, 513, 1227
*ELEMENT, type=CPS3, ELSET=Surface62
2318, 515, 95, 518
2319, 95, 517, 518
2320, 96, 518, 519
2321, 521, 518, 96
2322, 516, 515, 521
2323, 521, 515, 518
2324, 517, 516, 520
2325, 516, 521, 520
2326, 518, 517, 519
2327, 519, 517, 520
*ELEMENT, type=CPS3, ELSET=Surface63
2328, 522, 97, 1242
2329, 97, 527, 1241
2330, 528, 97, 1241
2331, 97, 528, 1242
2332, 98, 528, 1239
2333, 528, 98, 1240
2334, 529, 98, 1239
2335, 98, 534, 1240
2336, 523, 522, 1236
2337, 1236, 522, 1242
2338, 524, 523, 1229
2339, 1229, 523, 1236
2340, 525, 524, 1235
2341, 524, 1229, 1235
2342, 526, 525, 1233
2343, 1233, 525, 1235
2344, 527, 526, 1238
2345, 526, 1233, 1238
2346, 527, 1238, 1241
2347, 1239, 528, 1241
2348, 528, 1240, 1242
2349, 530, 529, 1230
2350, 1230, 529, 1239
2351, 531, 530, 1234
2352, 530, 1230, 1234
2353, 532, 531, 1231
2354, 1231, 531, 1234
2355, 533, 532, 1237
2356, 532, 1231, 1237
2357, 534, 533, 1232
2358, 1232, 533, 1237
2359, 534, 1232, 1240
2360, 1229, 1231, 1235
2361, 1231, 1229, 1237
2362, 1232, 1229, 1236
2363, 1229, 1232, 1237
2364, 1230, 1233, 1234
2365, 1233, 1230, 1238
2366, 1238, 1230, 1241
2367, 1230, 1239, 1241
2368, 1233, 1231, 1234
2369, 1231, 1233, 1235
2370, 1232, 1236, 1242
2371, 1240, 1232, 1242
*ELEMENT, type=CPS3, ELSET=Surface64
2372, 535, 99, 1258
2373, 99, 540, 1257
2374, 541, 99, 1257
2375, 99, 541, 1258
2376, 541, 100, 1243
2377, 100, 541, 1245
2378, 542, 100, 1245
2379, 100, 554, 1243
2380, 536, 535, 1251
2381, 535, 1244, 1251
2382, 1244, 535, 1258
2383, 537, 536, 1249
2384, 1249, 536, 1252
2385, 536, 1251, 1252
2386, 538, 537, 1250
2387, 537, 1249, 1255
2388, 1250, 537, 1255
2389, 539, 538, 1248
2390, 1248, 538, 1256
2391, 538, 1250, 1256
2392, 540, 539, 1247
2393, 1247, 539, 1254
2394, 539, 1248, 1254
2395, 1246, 540, 1253
2396, 540, 1246, 1257
2397, 540, 1247, 1253
2398, 541, 1243, 1258
2399, 1245, 541, 1257
2400, 543, 542, 1246
2401, 544, 543, 1253
2402, 543, 1246, 1253
2403, 545, 544, 1247
2404, 546, 545, 1254
2405, 545, 1247, 1254
2406, 547, 546, 1248
2407, 548, 547, 1256
2408, 547, 1248, 1256
2409, 549, 548, 1250
2410, 550, 549, 1255
2411, 549, 1250, 1255
2412, 551, 550, 1249
2413, 552, 551, 1252
2414, 551, 1249, 1252
2415, 553, 552, 1251
2416, 554, 553, 1244
2417, 1244, 553, 1251
2418, 542, 1245, 1246
2419, 1247, 544, 1253
2420, 1248, 546, 1254
2421, 1250, 548, 1256
2422, 1249, 550, 1255
2423, 1251, 552, 1252
2424, 1243, 554, 1244
2425, 1243, 1244, 1258
2426, 1246, 1245, 1257
*ELEMENT, type=CPS3, ELSET=Surface65
2427, 555, 101, 1260
2428, 569, 570, 101
2429, 101, 570, 1262
2430, 1260, 101, 1263
2431, 101, 1262, 1263
2432, 102, 572, 569
2433, 102, 569, 573
2434, 572, 102, 1259
2435, 102, 580, 1260
2436, 1259, 102, 1263
2437, 102, 1260, 1263
2438, 103, 559, 558
2439, 558, 578, 103
2440, 577, 559, 103
2441, 558, 557, 578
2442, 561, 576, 562
2443, 562, 576, 563
2444, 566, 565, 574
2445, 567, 566, 574
2446, 569, 571, 570
2447, 572, 571, 569
2448, 570, 571, 1262
2449, 571, 572, 1259
2450, 571, 1259, 1262
2451, 574, 565, 575
2452, 573, 567, 574
2453, 577, 576, 561
2454, 576, 575, 563
2455, 557, 556, 579
2456, 579, 556, 1261
2457, 557, 579, 578
2458, 580, 579, 1261
2459, 556, 555, 1261
2460, 577, 560, 559
2461, 560, 577, 561
2462, 563, 575, 564
2463, 565, 564, 575
2464, 568, 567, 573
2465, 569, 568, 573
2466, 580, 555, 1260
2467, 555, 580, 1261
2468, 1262, 1259, 1263
*ELEMENT, type=CPS3, ELSET=Surface66
2469, 581, 1264, 100
2470, 100, 1265, 581
2471, 542, 1265, 100
2472, 100, 1264, 554
2473, 101, 1264, 583
2474, 583, 1265, 101
2475, 555, 1264, 101
2476, 101, 1265, 569
2477, 543, 568, 542
2478, 568, 543, 567
2479, 543, 544, 567
2480, 544, 545, 566
2481, 566, 545, 565
2482, 545, 546, 565
2483, 546, 547, 564
2484, 564, 547, 563
2485, 548, 1267, 547
2486, 547, 1267, 563
2487, 549, 550, 560
2488, 561, 549, 560
2489, 549, 1266, 548
2490, 561, 1266, 549
2491, 551, 552, 558
2492, 559, 551, 558
2493, 550, 551, 559
2494, 554, 556, 553
2495, 557, 553, 556
2496, 552, 553, 557
2497, 558, 552, 557
2498, 548, 1266, 562
2499, 562, 1267, 548
2500, 562, 1266, 561
2501, 563, 1267, 562
2502, 567, 544, 566
2503, 582, 1264, 581
2504, 581, 1265, 582
2505, 583, 1264, 582
2506, 582, 1265, 583
2507, 554, 555, 556
2508, 560, 550, 559
2509, 565, 546, 564
2510, 542, 568, 569
2511, 569, 1265, 542
2512, 554, 1264, 555
*ELEMENT, type=CPS3, ELSET=Surface67
2513, 529, 584, 98
2514, 98, 584, 534
2515, 585, 104, 584
2516, 104, 590, 584
2517, 530, 585, 529
2518, 529, 585, 584
2519, 531, 586, 530
2520, 586, 585, 530
2521, 588, 531, 532
2522, 587, 586, 531
2523, 588, 587, 531
2524, 533, 588, 532
2525, 534, 589, 533
2526, 589, 588, 533
2527, 584, 590, 534
2528, 534, 590, 589
*ELEMENT, type=CPS3, ELSET=Surface68
2529, 96, 519, 527
2530, 96, 522, 521
2531, 591, 522, 96
2532, 96, 527, 591
2533, 522, 591, 97
2534, 97, 591, 527
2535, 519, 520, 525
2536, 519, 525, 526
2537, 527, 519, 526
2538, 520, 521, 524
2539, 525, 520, 524
2540, 523, 521, 522
2541, 524, 521, 523
*ELEMENT, type=CPS3, ELSET=Surface69
2542, 592, 598, 105
2543, 105, 598, 597
2544, 598, 592, 106
2545, 106, 592, 601
2546, 106, 597, 598
2547, 106, 600, 597
2548, 595, 107, 594
2549, 107, 602, 594
2550, 599, 107, 595
2551, 593, 601, 592
2552, 594, 602, 593
2553, 602, 601, 593
2554, 596, 599, 595
2555, 597, 600, 596
2556, 600, 599, 596
*ELEMENT, type=CPS3, ELSET=Surface70
2557, 535, 603, 99
2558, 540, 99, 1268
2559, 99, 603, 1273
2560, 1268, 99, 1273
2561, 104, 585, 1268
2562, 590, 104, 603
2563, 603, 104, 1273
2564, 104, 1268, 1273
2565, 535, 536, 1269
2566, 535, 590, 603
2567, 590, 535, 1269
2568, 536, 537, 1270
2569, 536, 589, 1269
2570, 589, 536, 1270
2571, 537, 538, 1271
2572, 537, 588, 1270
2573, 588, 537, 1271
2574, 538, 539, 1272
2575, 538, 587, 1271
2576, 587, 538, 1272
2577, 540, 586, 539
2578, 539, 586, 1272
2579, 540, 585, 586
2580, 585, 540, 1268
2581, 586, 587, 1272
2582, 587, 588, 1271
2583, 588, 589, 1270
2584, 589, 590, 1269
*ELEMENT, type=CPS3, ELSET=Surface71
2585, 93, 502, 1275
2586, 507, 93, 1274
2587, 93, 604, 1274
2588, 604, 93, 1275
2589, 505, 106, 504
2590, 106, 601, 504
2591, 600, 106, 505
2592, 107, 599, 1274
2593, 602, 107, 1275
2594, 604, 107, 1274
2595, 107, 604, 1275
2596, 503, 602, 502
2597, 502, 602, 1275
2598, 504, 601, 503
2599, 601, 602, 503
2600, 506, 600, 505
2601, 507, 599, 506
2602, 599, 600, 506
2603, 599, 507, 1274
*ELEMENT, type=CPS3, ELSET=Surface72
2604, 509, 605, 94
2605, 94, 605, 514
2606, 509, 517, 95
2607, 605, 509, 95
2608, 515, 514, 95
2609, 514, 605, 95
2610, 510, 517, 509
2611, 511, 517, 510
2612, 512, 516, 511
2613, 516, 517, 511
2614, 515, 512, 513
2615, 515, 516, 512
2616, 514, 515, 513
*ELEMENT, type=CPS3, ELSET=Surface73
2617, 592, 105, 1278
2618, 105, 597, 1280
2619, 105, 610, 1278
2620, 610, 105, 1280
2621, 607, 108, 1286
2622, 108, 609, 610
2623, 108, 610, 1286
2624, 109, 606, 1277
2625, 608, 109, 1284
2626, 109, 1277, 1284
2627, 593, 592, 1278
2628, 594, 593, 1290
2629, 593, 1278, 1290
2630, 595, 594, 1276
2631, 1276, 594, 1290
2632, 596, 595, 1289
2633, 595, 1276, 1289
2634, 597, 596, 1280
2635, 1280, 596, 1289
2636, 606, 607, 1281
2637, 1277, 606, 1281
2638, 1281, 607, 1286
2639, 609, 608, 1279
2640, 1279, 608, 1284
2641, 610, 609, 1288
2642, 609, 1279, 1288
2643, 1278, 610, 1288
2644, 610, 1280, 1285
2645, 610, 1285, 1286
2646, 1276, 1283, 1289
2647, 1283, 1276, 1290
2648, 1277, 1281, 1282
2649, 1277, 1282, 1283
2650, 1277, 1283, 1284
2651, 1287, 1278, 1288
2652, 1278, 1287, 1290
2653, 1279, 1284, 1287
2654, 1279, 1287, 1288
2655, 1280, 1282, 1285
2656, 1282, 1280, 1289
2657, 1282, 1281, 1285
2658, 1285, 1281, 1286
2659, 1283, 1282, 1289
2660, 1284, 1283, 1287
2661, 1287, 1283, 1290
*ELEMENT, type=CPS3, ELSET=Surface74
2662, 611, 1291, 110
2663, 110, 1291, 614
2664, 111, 1292, 611
2665, 612, 1292, 111
2666, 112, 1293, 612
2667, 613, 1293, 112
2668, 113, 1291, 613
2669, 614, 1291, 113
2670, 613, 1291, 611
2671, 611, 1292, 613
2672, 612, 1293, 1292
2673, 1292, 1293, 613
*ELEMENT, type=CPS3, ELSET=Surface75
2674, 615, 114, 616
2675, 618, 115, 615
2676, 617, 616, 116
2677, 117, 618, 617
2678, 617, 615, 616
2679, 618, 615, 617
*ELEMENT, type=CPS3, ELSET=Surface76
2680, 108, 1295, 118
2681, 607, 1295, 108
2682, 117, 1294, 109
2683, 109, 1294, 606
2684, 116, 1296, 617
2685, 619, 1296, 116
2686, 617, 1294, 117
2687, 118, 1295, 619
2688, 606, 1296, 607
2689, 606, 1294, 617
2690, 617, 1296, 606
2691, 619, 1295, 607
2692, 607, 1296, 619
*ELEMENT, type=CPS3, ELSET=Surface77
2693, 13, 390, 624
2694, 624, 623, 13
2695, 390, 17, 624
2696, 620, 122, 119
2697, 623, 119, 122
2698, 119, 623, 624
2699, 622, 620, 120
2700, 622, 120, 621
2701, 622, 621, 121
2702, 622, 122, 620
*ELEMENT, type=CPS3, ELSET=Surface78
2703, 625, 123, 1298
2704, 123, 628, 1298
2705, 124, 625, 1297
2706, 626, 124, 1297
2707, 125, 626, 1299
2708, 627, 125, 1299
2709, 126, 627, 1300
2710, 628, 126, 1300
2711, 1297, 625, 1298
2712, 626, 1297, 1299
2713, 627, 1299, 1300
2714, 1298, 628, 1300
2715, 1297, 1298, 1299
2716, 1299, 1298, 1300
*ELEMENT, type=CPS3, ELSET=Surface79
2717, 124, 626, 1302
2718, 629, 124, 1302
2719, 630, 626, 125
2720, 128, 127, 1301
2721, 127, 629, 1301
2722, 630, 128, 1301
2723, 626, 630, 1302
2724, 1301, 629, 1302
2725, 630, 1301, 1302
*ELEMENT, type=CPS3, ELSET=Surface80
2726, 110, 129, 1304
2727, 611, 110, 1304
2728, 631, 111, 611
2729, 111, 631, 1303
2730, 632, 111, 1303
2731, 128, 632, 127
2732, 631, 127, 1303
2733, 127, 632, 1303
2734, 129, 631, 1304
2735, 631, 611, 1304
*ELEMENT, type=CPS3, ELSET=Surface81
2736, 110, 130, 129
2737, 131, 130, 110
*ELEMENT, type=CPS3, ELSET=Surface82
2738, 130, 131, 1306
2739, 633, 130, 1306
2740, 131, 634, 1306
2741, 133, 132, 1305
2742, 132, 633, 1305
2743, 634, 133, 1305
2744, 1305, 633, 1306
2745, 634, 1305, 1306
*ELEMENT, type=CPS3, ELSET=Surface83
2746, 133, 637, 132
2747, 637, 635, 132
2748, 636, 135, 134
2749, 635, 636, 134
2750, 136, 636, 635
2751, 637, 136, 635
*ELEMENT, type=CPS3, ELSET=Surface84
2752, 134, 135, 1307
2753, 638, 134, 1307
2754, 135, 640, 1307
2755, 137, 638, 1308
2756, 639, 137, 1308
2757, 138, 639, 1308
2758, 640, 138, 1308
2759, 638, 1307, 1308
2760, 1307, 640, 1308
*ELEMENT, type=CPS3, ELSET=Surface85
2761, 139, 137, 1309
2762, 137, 639, 1309
2763, 639, 138, 641
2764, 641, 139, 1309
2765, 639, 641, 1309
*ELEMENT, type=CPS3, ELSET=Surface86
2766, 138, 141, 1311
2767, 641, 138, 1311
2768, 140, 139, 1310
2769, 139, 641, 1310
2770, 642, 140, 1312
2771, 140, 1310, 1312
2772, 141, 642, 1311
2773, 1310, 641, 1311
2774, 1311, 642, 1312
2775, 1310, 1311, 1312
*ELEMENT, type=CPS3, ELSET=Surface87
2776, 142, 140, 1313
2777, 140, 642, 1313
2778, 642, 141, 143
2779, 643, 142, 1313
2780, 642, 143, 643
2781, 642, 643, 1313
*ELEMENT, type=CPS3, ELSET=Surface88
2782, 644, 17, 391
2783, 644, 624, 17
2784, 644, 391, 18
2785, 645, 119, 624
2786, 644, 144, 645
2787, 644, 645, 624
*ELEMENT, type=CPS3, ELSET=Surface89
2788, 647, 379, 3
2789, 379, 646, 4
2790, 123, 646, 628
2791, 647, 126, 628
2792, 646, 379, 647
2793, 646, 647, 628
*ELEMENT, type=CPS3, ELSET=Surface90
2794, 614, 131, 110
2795, 113, 145, 648
2796, 113, 648, 614
2797, 648, 131, 614
*ELEMENT, type=CPS3, ELSET=Surface91
2798, 112, 1321, 613
2799, 654, 1321, 112
2800, 113, 1331, 145
2801, 613, 1321, 113
2802, 1321, 1331, 113
2803, 145, 1314, 653
2804, 145, 1319, 1314
2805, 145, 1331, 1319
2806, 146, 1315, 158
2807, 649, 1330, 146
2808, 146, 1330, 1315
2809, 148, 1328, 147
2810, 147, 1330, 649
2811, 1328, 1329, 147
2812, 1329, 1330, 147
2813, 149, 148, 650
2814, 149, 1328, 148
2815, 150, 1328, 149
2816, 151, 1318, 150
2817, 1318, 1328, 150
2818, 152, 1325, 151
2819, 151, 1337, 1318
2820, 1325, 1337, 151
2821, 651, 1327, 152
2822, 152, 1327, 1325
2823, 153, 1327, 652
2824, 653, 1317, 153
2825, 1317, 1327, 153
2826, 155, 1316, 154
2827, 154, 1321, 654
2828, 1316, 1321, 154
2829, 655, 1332, 155
2830, 155, 1332, 1316
2831, 157, 1322, 156
2832, 156, 1332, 655
2833, 1322, 1332, 156
2834, 158, 1334, 157
2835, 157, 1334, 1322
2836, 1315, 1334, 158
2837, 652, 1327, 651
2838, 1314, 1317, 653
2839, 1314, 1323, 1317
2840, 1319, 1320, 1314
2841, 1320, 1323, 1314
2842, 1330, 1335, 1315
2843, 1315, 1338, 1334
2844, 1335, 1338, 1315
2845, 1316, 1331, 1321
2846, 1316, 1336, 1331
2847, 1332, 1336, 1316
2848, 1323, 1325, 1317
2849, 1325, 1327, 1317
2850, 1324, 1329, 1318
2851, 1318, 1337, 1324
2852, 1318, 1329, 1328
2853, 1319, 1326, 1320
2854, 1319, 1331, 1326
2855, 1320, 1324, 1323
2856, 1320, 1333, 1324
2857, 1326, 1333, 1320
2858, 1322, 1336, 1332
2859, 1322, 1334, 1333
2860, 1333, 1336, 1322
2861, 1324, 1337, 1323
2862, 1323, 1337, 1325
2863, 1324, 1335, 1329
2864, 1333, 1338, 1324
2865, 1324, 1338, 1335
2866, 1331, 1336, 1326
2867, 1326, 1336, 1333
2868, 1329, 1335, 1330
2869, 1334, 1338, 1333
*ELEMENT, type=CPS3, ELSET=Surface92
2870, 157, 156, 657
2871, 156, 656, 657
2872, 657, 159, 160
2873, 657, 656, 159
*ELEMENT, type=CPS3, ELSET=Surface93
2874, 9, 1340, 5
2875, 5, 1340, 658
2876, 659, 1340, 9
2877, 159, 1339, 160
2878, 658, 1339, 159
2879, 160, 1339, 659
2880, 659, 1339, 658
2881, 658, 1340, 659
*ELEMENT, type=CPS3, ELSET=Surface94
2882, 141, 1341, 143
2883, 661, 1341, 141
2884, 143, 1341, 660
2885, 150, 1342, 151
2886, 660, 1342, 150
2887, 151, 1342, 661
2888, 660, 1341, 661
2889, 661, 1342, 660
*ELEMENT, type=CPS3, ELSET=Surface95
2890, 662, 663, 161
2891, 161, 663, 664
2892, 162, 663, 662
2893, 663, 163, 664
*ELEMENT, type=CPS3, ELSET=Surface96
2894, 666, 665, 164
2895, 165, 665, 666
2896, 667, 165, 666
2897, 166, 667, 666
*ELEMENT, type=CPS3, ELSET=Surface97
2898, 669, 668, 167
2899, 669, 168, 668
2900, 670, 168, 669
2901, 169, 670, 669
*ELEMENT, type=CPS3, ELSET=Surface98
2902, 672, 168, 1345
2903, 168, 673, 1345
2904, 170, 671, 1344
2905, 674, 170, 1344
2906, 671, 171, 1346
2907, 171, 672, 1346
2908, 673, 172, 1343
2909, 172, 674, 1343
2910, 1344, 671, 1346
2911, 672, 1345, 1346
2912, 673, 1343, 1345
2913, 1343, 674, 1344
2914, 1343, 1344, 1345
2915, 1345, 1344, 1346
*ELEMENT, type=CPS3, ELSET=Surface99
2916, 675, 676, 172
2917, 676, 677, 172
2918, 173, 676, 675
2919, 676, 174, 677
*ELEMENT, type=CPS3, ELSET=Surface100
2920, 175, 1347, 177
2921, 678, 1347, 175
2922, 176, 679, 678
2923, 177, 1347, 679
2924, 679, 1347, 678
*ELEMENT, type=CPS3, ELSET=Surface101
2925, 177, 680, 175
2926, 680, 179, 175
2927, 680, 178, 179
*ELEMENT, type=CPS3, ELSET=Surface102
2928, 682, 179, 178
2929, 181, 178, 681
2930, 181, 682, 178
2931, 181, 681, 180
*ELEMENT, type=CPS3, ELSET=Surface103
2932, 181, 180, 1348
2933, 180, 182, 1348
2934, 183, 181, 1348
2935, 182, 183, 1348
*ELEMENT, type=CPS3, ELSET=Surface104
2936, 182, 1349, 183
2937, 683, 1349, 182
2938, 183, 1349, 685
2939, 184, 1349, 683
2940, 684, 1349, 184
2941, 186, 1350, 185
2942, 185, 1350, 684
2943, 685, 1350, 186
2944, 684, 1350, 1349
2945, 1349, 1350, 685
*ELEMENT, type=CPS3, ELSET=Surface105
2946, 187, 1352, 188
2947, 686, 1352, 187
2948, 188, 1352, 688
2949, 189, 1351, 686
2950, 687, 1351, 189
2951, 191, 1351, 190
2952, 190, 1351, 687
2953, 688, 1351, 191
2954, 1351, 1352, 686
2955, 688, 1352, 1351
*ELEMENT, type=CPS3, ELSET=Surface106
2956, 139, 140, 1353
2957, 190, 139, 1353
2958, 140, 142, 1353
2959, 142, 192, 1353
2960, 191, 190, 1353
2961, 192, 689, 191
2962, 192, 191, 1353
2963, 689, 193, 191
*ELEMENT, type=CPS3, ELSET=Surface107
2964, 152, 640, 135
2965, 661, 141, 138
2966, 640, 151, 138
2967, 151, 661, 138
2968, 640, 152, 151
*ELEMENT, type=CPS3, ELSET=Surface108
2969, 652, 133, 153
2970, 652, 637, 133
2971, 135, 651, 152
2972, 135, 636, 651
2973, 651, 636, 136
2974, 136, 637, 652
2975, 651, 136, 652
*ELEMENT, type=CPS3, ELSET=Surface109
2976, 131, 1354, 634
2977, 648, 1354, 131
2978, 634, 153, 133
2979, 145, 1354, 648
2980, 653, 1354, 145
2981, 634, 653, 153
2982, 634, 1354, 653
*ELEMENT, type=CPS3, ELSET=Surface110
2983, 691, 194, 122
2984, 146, 158, 691
2985, 158, 690, 691
2986, 690, 194, 691
*ELEMENT, type=CPS3, ELSET=Surface111
2987, 121, 1355, 622
2988, 692, 1355, 121
2989, 691, 122, 622
2990, 146, 1356, 649
2991, 691, 1356, 146
2992, 649, 692, 147
2993, 622, 1355, 691
2994, 649, 1356, 692
2995, 1355, 1356, 691
2996, 692, 1356, 1355
*ELEMENT, type=CPS3, ELSET=Surface112
2997, 695, 191, 193
2998, 695, 696, 191
2999, 695, 193, 693
3000, 695, 693, 195
3001, 695, 195, 694
3002, 694, 196, 695
3003, 197, 696, 695
*ELEMENT, type=CPS3, ELSET=Surface113
3004, 688, 698, 188
3005, 191, 1357, 688
3006, 696, 1357, 191
3007, 197, 1357, 696
3008, 697, 1357, 197
3009, 697, 198, 698
3010, 698, 688, 697
3011, 688, 1357, 697
*ELEMENT, type=CPS3, ELSET=Surface114
3012, 187, 188, 699
3013, 699, 188, 199
*ELEMENT, type=CPS3, ELSET=Surface115
3014, 170, 674, 701
3015, 172, 700, 674
3016, 172, 677, 700
3017, 677, 174, 700
3018, 674, 200, 201
3019, 674, 700, 200
3020, 674, 201, 701
*ELEMENT, type=CPS3, ELSET=Surface116
3021, 704, 170, 701
3022, 702, 701, 201
3023, 202, 1358, 702
3024, 703, 1358, 202
3025, 203, 1358, 703
3026, 704, 1358, 203
3027, 702, 704, 701
3028, 702, 1358, 704
*ELEMENT, type=CPS3, ELSET=Surface117
3029, 170, 1359, 671
3030, 704, 1359, 170
3031, 671, 1360, 171
3032, 171, 1360, 706
3033, 203, 1359, 704
3034, 705, 1359, 203
3035, 204, 1360, 705
3036, 706, 1360, 204
3037, 1359, 1360, 671
3038, 705, 1360, 1359
*ELEMENT, type=CPS3, ELSET=Surface118
3039, 706, 707, 171
3040, 204, 1361, 706
3041, 708, 1361, 204
3042, 709, 205, 707
3043, 206, 1361, 708
3044, 709, 1361, 206
3045, 706, 709, 707
3046, 706, 1361, 709
*ELEMENT, type=CPS3, ELSET=Surface119
3047, 710, 167, 668
3048, 710, 668, 168
3049, 710, 168, 672
3050, 707, 672, 171
3051, 205, 207, 672
3052, 205, 672, 707
3053, 207, 710, 672
*ELEMENT, type=CPS3, ELSET=Surface120
3054, 711, 165, 667
3055, 711, 713, 165
3056, 711, 667, 166
3057, 208, 209, 713
3058, 208, 713, 711
3059, 209, 712, 713
3060, 712, 210, 713
*ELEMENT, type=CPS3, ELSET=Surface121
3061, 209, 1362, 712
3062, 716, 1362, 209
3063, 712, 1362, 210
3064, 210, 1362, 715
3065, 716, 211, 714
3066, 715, 714, 212
3067, 715, 716, 714
3068, 715, 1362, 716
*ELEMENT, type=CPS3, ELSET=Surface122
3069, 715, 1364, 210
3070, 210, 1364, 719
3071, 212, 1364, 715
3072, 717, 1364, 212
3073, 213, 1363, 717
3074, 718, 1363, 213
3075, 214, 1363, 718
3076, 719, 1363, 214
3077, 1363, 1364, 717
3078, 719, 1364, 1363
*ELEMENT, type=CPS3, ELSET=Surface123
3079, 718, 213, 720
3080, 718, 1365, 214
3081, 214, 1365, 722
3082, 721, 720, 215
3083, 216, 1365, 721
3084, 722, 1365, 216
3085, 721, 718, 720
3086, 721, 1365, 718
*ELEMENT, type=CPS3, ELSET=Surface124
3087, 161, 723, 662
3088, 724, 723, 161
3089, 662, 723, 162
3090, 724, 214, 722
3091, 724, 216, 217
3092, 724, 722, 216
3093, 724, 217, 723
*ELEMENT, type=CPS3, ELSET=Surface125
3094, 162, 725, 218
3095, 162, 723, 725
3096, 723, 217, 726
3097, 219, 725, 726
3098, 725, 723, 726
*ELEMENT, type=CPS3, ELSET=Surface126
3099, 218, 727, 162
3100, 727, 663, 162
3101, 663, 727, 163
*ELEMENT, type=CPS3, ELSET=Surface127
3102, 664, 728, 161
3103, 163, 728, 664
3104, 729, 728, 163
3105, 164, 665, 728
3106, 729, 164, 728
3107, 665, 165, 728
*ELEMENT, type=CPS3, ELSET=Surface128
3108, 730, 666, 164
3109, 730, 220, 166
3110, 666, 730, 166
*ELEMENT, type=CPS3, ELSET=Surface129
3111, 220, 732, 166
3112, 732, 711, 166
3113, 711, 731, 208
3114, 731, 732, 221
3115, 732, 731, 711
*ELEMENT, type=CPS3, ELSET=Surface130
3116, 733, 222, 167
3117, 710, 733, 167
3118, 710, 207, 1366
3119, 207, 734, 1366
3120, 223, 733, 1366
3121, 734, 223, 1366
3122, 733, 710, 1366
*ELEMENT, type=CPS3, ELSET=Surface131
3123, 222, 735, 167
3124, 735, 669, 167
3125, 669, 735, 169
*ELEMENT, type=CPS3, ELSET=Surface132
3126, 673, 168, 670
3127, 673, 670, 169
3128, 673, 169, 736
3129, 673, 675, 172
3130, 673, 173, 675
3131, 673, 736, 173
*ELEMENT, type=CPS3, ELSET=Surface133
3132, 737, 676, 173
3133, 174, 737, 224
3134, 174, 676, 737
*ELEMENT, type=CPS3, ELSET=Surface134
3135, 738, 174, 224
3136, 700, 174, 738
3137, 700, 739, 200
3138, 739, 738, 225
3139, 739, 700, 738
*ELEMENT, type=CPS3, ELSET=Surface135
3140, 186, 185, 740
3141, 226, 186, 740
*ELEMENT, type=CPS3, ELSET=Surface136
3142, 685, 1367, 183
3143, 183, 1367, 743
3144, 685, 186, 741
3145, 742, 741, 227
3146, 228, 1367, 742
3147, 743, 1367, 228
3148, 742, 685, 741
3149, 742, 1367, 685
*ELEMENT, type=CPS3, ELSET=Surface137
3150, 181, 183, 744
3151, 183, 743, 744
3152, 744, 228, 229
3153, 744, 743, 228
*ELEMENT, type=CPS3, ELSET=Surface138
3154, 682, 1372, 179
3155, 179, 1372, 746
3156, 181, 1370, 682
3157, 744, 1370, 181
3158, 229, 1368, 744
3159, 745, 1368, 229
3160, 230, 1369, 745
3161, 746, 1369, 230
3162, 1370, 1371, 682
3163, 1371, 1372, 682
3164, 1368, 1370, 744
3165, 745, 1371, 1368
3166, 1369, 1371, 745
3167, 746, 1372, 1369
3168, 1368, 1371, 1370
3169, 1369, 1372, 1371
*ELEMENT, type=CPS3, ELSET=Surface139
3170, 179, 747, 175
3171, 179, 746, 747
3172, 747, 230, 231
3173, 747, 746, 230
*ELEMENT, type=CPS3, ELSET=Surface140
3174, 678, 175, 747
3175, 678, 1375, 176
3176, 176, 1373, 749
3177, 176, 1375, 1373
3178, 231, 1374, 747
3179, 750, 1374, 231
3180, 232, 1376, 748
3181, 749, 1376, 232
3182, 748, 1377, 233
3183, 233, 1377, 750
3184, 747, 1374, 678
3185, 1374, 1375, 678
3186, 1376, 1377, 748
3187, 1373, 1376, 749
3188, 750, 1377, 1374
3189, 1375, 1377, 1373
3190, 1373, 1377, 1376
3191, 1374, 1377, 1375
*ELEMENT, type=CPS3, ELSET=Surface141
3192, 234, 751, 781
3193, 780, 234, 781
3194, 765, 235, 1384
3195, 235, 848, 1385
3196, 1384, 235, 1385
3197, 236, 766, 781
3198, 803, 818, 237
3199, 803, 238, 804
3200, 833, 238, 803
3201, 239, 819, 1382
3202, 834, 239, 1383
3203, 239, 1382, 1406
3204, 1383, 239, 1406
3205, 757, 758, 1378
3206, 758, 759, 1386
3207, 1378, 758, 1386
3208, 772, 773, 781
3209, 773, 774, 781
3210, 788, 787, 1401
3211, 789, 788, 1399
3212, 1399, 788, 1401
3213, 796, 795, 1398
3214, 797, 796, 1400
3215, 796, 1398, 1400
3216, 803, 810, 811
3217, 803, 811, 812
3218, 825, 826, 1387
3219, 826, 827, 1379
3220, 826, 1379, 1387
3221, 841, 840, 1392
3222, 842, 841, 1393
3223, 841, 1392, 1393
3224, 782, 753, 754
3225, 782, 754, 755
3226, 761, 762, 1381
3227, 762, 763, 1407
3228, 1381, 762, 1407
3229, 768, 769, 781
3230, 769, 770, 781
3231, 776, 777, 781
3232, 777, 778, 781
3233, 784, 783, 1390
3234, 785, 784, 1385
3235, 1385, 784, 1390
3236, 792, 791, 1393
3237, 793, 792, 1392
3238, 1392, 792, 1393
3239, 800, 799, 1383
3240, 801, 800, 1391
3241, 800, 1383, 1406
3242, 1391, 800, 1406
3243, 803, 806, 807
3244, 803, 807, 808
3245, 803, 814, 815
3246, 803, 815, 816
3247, 821, 822, 1408
3248, 822, 823, 1380
3249, 822, 1380, 1408
3250, 830, 802, 829
3251, 831, 802, 830
3252, 837, 836, 1400
3253, 838, 837, 1398
3254, 1398, 837, 1400
3255, 845, 844, 1399
3256, 846, 845, 1401
3257, 845, 1399, 1401
3258, 752, 753, 782
3259, 781, 752, 782
3260, 781, 751, 752
3261, 782, 755, 756
3262, 782, 756, 1378
3263, 756, 757, 1378
3264, 759, 760, 1386
3265, 760, 761, 1388
3266, 1386, 760, 1388
3267, 763, 764, 1407
3268, 764, 765, 1384
3269, 764, 1384, 1407
3270, 766, 767, 781
3271, 767, 768, 781
3272, 770, 771, 781
3273, 771, 772, 781
3274, 774, 775, 781
3275, 775, 776, 781
3276, 778, 779, 781
3277, 779, 780, 781
3278, 783, 782, 1378
3279, 786, 785, 1405
3280, 787, 786, 1403
3281, 1403, 786, 1405
3282, 790, 789, 1397
3283, 791, 790, 1395
3284, 1395, 790, 1397
3285, 794, 793, 1394
3286, 795, 794, 1396
3287, 794, 1394, 1396
3288, 798, 797, 1402
3289, 799, 798, 1404
3290, 798, 1402, 1404
3291, 802, 828, 829
3292, 828, 802, 1379
3293, 803, 802, 832
3294, 802, 831, 832
3295, 802, 801, 1379
3296, 803, 804, 805
3297, 803, 805, 806
3298, 803, 808, 809
3299, 803, 809, 810
3300, 803, 812, 813
3301, 803, 813, 814
3302, 803, 816, 817
3303, 803, 817, 818
3304, 819, 820, 1382
3305, 820, 821, 1408
3306, 1382, 820, 1408
3307, 823, 824, 1389
3308, 824, 825, 1387
3309, 824, 1387, 1389
3310, 827, 828, 1379
3311, 833, 803, 832
3312, 835, 834, 1404
3313, 836, 835, 1402
3314, 1402, 835, 1404
3315, 839, 838, 1396
3316, 840, 839, 1394
3317, 1394, 839, 1396
3318, 843, 842, 1395
3319, 844, 843, 1397
3320, 843, 1395, 1397
3321, 847, 846, 1403
3322, 848, 847, 1405
3323, 847, 1403, 1405
3324, 761, 1381, 1388
3325, 783, 1378, 1386
3326, 1381, 783, 1388
3327, 783, 1381, 1390
3328, 783, 1386, 1388
3329, 848, 785, 1385
3330, 785, 848, 1405
3331, 1401, 787, 1403
3332, 1397, 789, 1399
3333, 1393, 791, 1395
3334, 793, 1392, 1394
3335, 795, 1396, 1398
3336, 797, 1400, 1402
3337, 1383, 799, 1404
3338, 1379, 801, 1387
3339, 801, 1380, 1389
3340, 1380, 801, 1391
3341, 1387, 801, 1389
3342, 1380, 823, 1389
3343, 834, 1383, 1404
3344, 1400, 836, 1402
3345, 1396, 838, 1398
3346, 1392, 840, 1394
3347, 842, 1393, 1395
3348, 844, 1397, 1399
3349, 846, 1401, 1403
3350, 1380, 1391, 1408
3351, 1390, 1381, 1407
3352, 1382, 1391, 1406
3353, 1391, 1382, 1408
3354, 1384, 1385, 1390
3355, 1384, 1390, 1407
*ELEMENT, type=CPS3, ELSET=Surface142
3356, 157, 657, 158
3357, 657, 690, 158
3358, 160, 194, 690
3359, 657, 160, 690
*ELEMENT, type=CPS3, ELSET=Surface143
3360, 13, 1410, 11
3361, 11, 1410, 849
3362, 623, 1410, 13
3363, 194, 1409, 122
3364, 122, 1409, 623
3365, 849, 1409, 194
3366, 623, 1409, 849
3367, 849, 1410, 623
*ELEMENT, type=CPS3, ELSET=Surface144
3368, 397, 1413, 18
3369, 18, 1413, 644
3370, 198, 1411, 25
3371, 25, 1411, 397
3372, 144, 644, 196
3373, 850, 144, 196
3374, 196, 240, 850
3375, 644, 1412, 196
3376, 196, 1412, 695
3377, 198, 697, 197
3378, 197, 1411, 198
3379, 695, 1411, 197
3380, 850, 240, 241
3381, 1411, 1413, 397
3382, 644, 1413, 1412
3383, 695, 1412, 1411
3384, 1412, 1413, 1411
*ELEMENT, type=CPS3, ELSET=Surface145
3385, 851, 198, 25
3386, 851, 25, 399
3387, 851, 399, 28
3388, 188, 698, 199
3389, 199, 698, 198
3390, 851, 199, 198
*ELEMENT, type=CPS3, ELSET=Surface146
3391, 34, 407, 852
3392, 407, 35, 853
3393, 853, 200, 739
3394, 852, 739, 225
3395, 853, 852, 407
3396, 853, 739, 852
*ELEMENT, type=CPS3, ELSET=Surface147
3397, 37, 1415, 35
3398, 35, 1415, 853
3399, 202, 1415, 37
3400, 201, 200, 853
3401, 201, 1414, 702
3402, 853, 1414, 201
3403, 702, 1414, 202
3404, 1414, 1415, 202
3405, 853, 1415, 1414
*ELEMENT, type=CPS3, ELSET=Surface148
3406, 411, 202, 37
3407, 203, 703, 40
3408, 40, 703, 411
3409, 411, 703, 202
*ELEMENT, type=CPS3, ELSET=Surface149
3410, 203, 40, 1416
3411, 40, 413, 1416
3412, 42, 204, 1417
3413, 413, 42, 1417
3414, 705, 203, 1416
3415, 204, 705, 1417
3416, 1416, 413, 1417
3417, 705, 1416, 1417
*ELEMENT, type=CPS3, ELSET=Surface150
3418, 708, 204, 42
3419, 708, 42, 415
3420, 44, 206, 415
3421, 206, 708, 415
*ELEMENT, type=CPS3, ELSET=Surface151
3422, 48, 1419, 44
3423, 44, 1419, 206
3424, 854, 1419, 48
3425, 854, 207, 205
3426, 709, 1418, 205
3427, 205, 1418, 854
3428, 206, 1418, 709
3429, 206, 1419, 1418
3430, 1418, 1419, 854
*ELEMENT, type=CPS3, ELSET=Surface152
3431, 419, 854, 48
3432, 49, 855, 419
3433, 854, 734, 207
3434, 855, 223, 734
3435, 855, 854, 419
3436, 855, 734, 854
*ELEMENT, type=CPS3, ELSET=Surface153
3437, 245, 242, 861
3438, 861, 242, 857
3439, 858, 243, 244
3440, 856, 243, 858
3441, 856, 1420, 857
3442, 859, 856, 858
3443, 859, 1420, 856
3444, 861, 857, 860
3445, 857, 1420, 860
3446, 860, 1420, 859
*ELEMENT, type=CPS3, ELSET=Surface154
3447, 858, 244, 867
3448, 867, 244, 862
3449, 245, 861, 863
3450, 245, 863, 868
3451, 867, 862, 246
3452, 868, 863, 247
3453, 859, 858, 866
3454, 867, 866, 858
3455, 860, 859, 865
3456, 865, 859, 866
3457, 861, 860, 864
3458, 864, 860, 865
3459, 863, 861, 864
*ELEMENT, type=CPS3, ELSET=Surface155
3460, 208, 731, 869
3461, 731, 221, 871
3462, 869, 870, 248
3463, 871, 249, 870
3464, 871, 869, 731
3465, 871, 870, 869
*ELEMENT, type=CPS3, ELSET=Surface156
3466, 209, 208, 869
3467, 209, 1421, 716
3468, 869, 1421, 209
3469, 211, 1422, 250
3470, 716, 1421, 211
3471, 1421, 1422, 211
3472, 250, 1422, 248
3473, 248, 1422, 869
3474, 869, 1422, 1421
*ELEMENT, type=CPS3, ELSET=Surface157
3475, 250, 872, 211
3476, 211, 872, 714
3477, 714, 251, 212
3478, 714, 872, 251
*ELEMENT, type=CPS3, ELSET=Surface158
3479, 212, 251, 1424
3480, 717, 212, 1424
3481, 252, 213, 1423
3482, 213, 717, 1423
3483, 251, 873, 1424
3484, 873, 252, 1423
3485, 1423, 717, 1424
3486, 873, 1423, 1424
*ELEMENT, type=CPS3, ELSET=Surface159
3487, 213, 252, 720
3488, 874, 253, 215
3489, 874, 215, 720
3490, 252, 874, 720
*ELEMENT, type=CPS3, ELSET=Surface160
3491, 253, 1426, 215
3492, 215, 1425, 721
3493, 215, 1426, 1425
3494, 875, 217, 216
3495, 721, 1425, 216
3496, 216, 1425, 875
3497, 254, 1426, 253
3498, 875, 1426, 254
3499, 1425, 1426, 875
*ELEMENT, type=CPS3, ELSET=Surface161
3500, 217, 875, 726
3501, 726, 876, 219
3502, 875, 254, 877
3503, 876, 877, 255
3504, 875, 876, 726
3505, 875, 877, 876
*ELEMENT, type=CPS3, ELSET=Surface162
3506, 741, 186, 226
3507, 227, 741, 226
3508, 227, 226, 878
3509, 227, 878, 257
3510, 879, 878, 256
3511, 257, 878, 879
*ELEMENT, type=CPS3, ELSET=Surface163
3512, 227, 228, 742
3513, 227, 1427, 228
3514, 257, 1430, 227
3515, 227, 1430, 1427
3516, 228, 1427, 229
3517, 229, 1433, 745
3518, 1427, 1433, 229
3519, 230, 1428, 231
3520, 745, 1433, 230
3521, 230, 1433, 1428
3522, 231, 1429, 750
3523, 1428, 1429, 231
3524, 233, 1429, 258
3525, 750, 1429, 233
3526, 880, 1430, 257
3527, 258, 1431, 880
3528, 1429, 1431, 258
3529, 880, 1432, 1430
3530, 1431, 1432, 880
3531, 1430, 1432, 1427
3532, 1432, 1433, 1427
3533, 1428, 1431, 1429
3534, 1428, 1432, 1431
3535, 1428, 1433, 1432
*ELEMENT, type=CPS3, ELSET=Surface164
3536, 748, 882, 232
3537, 258, 882, 233
3538, 233, 882, 748
3539, 258, 881, 882
3540, 881, 259, 882
*ELEMENT, type=CPS3, ELSET=Surface165
3541, 11, 1435, 9
3542, 9, 1435, 659
3543, 849, 1435, 11
3544, 160, 1434, 194
3545, 659, 1434, 160
3546, 194, 1434, 849
3547, 849, 1434, 659
3548, 659, 1435, 849
*ELEMENT, type=CPS3, ELSET=Surface166
3549, 114, 883, 616
3550, 616, 619, 116
3551, 619, 884, 118
3552, 883, 260, 884
3553, 616, 883, 619
3554, 883, 884, 619
*ELEMENT, type=CPS3, ELSET=Surface167
3555, 155, 1436, 655
3556, 885, 1436, 155
3557, 655, 1438, 156
3558, 156, 1438, 656
3559, 656, 1437, 159
3560, 159, 1437, 886
3561, 261, 1436, 885
3562, 886, 1436, 261
3563, 655, 1436, 886
3564, 886, 1437, 655
3565, 1437, 1438, 655
3566, 656, 1438, 1437
*ELEMENT, type=CPS3, ELSET=Surface168
3567, 125, 155, 154
3568, 125, 154, 630
3569, 155, 125, 885
3570, 885, 125, 261
3571, 887, 128, 630
3572, 154, 887, 630
*ELEMENT, type=CPS3, ELSET=Surface169
3573, 111, 1439, 612
3574, 632, 1439, 111
3575, 612, 1439, 112
3576, 112, 1439, 654
3577, 632, 128, 887
3578, 654, 887, 154
3579, 887, 654, 632
3580, 654, 1439, 632
*ELEMENT, type=CPS3, ELSET=Surface170
3581, 261, 125, 627
3582, 126, 261, 627
*ELEMENT, type=CPS3, ELSET=Surface171
3583, 5, 647, 3
3584, 647, 5, 658
3585, 126, 1440, 261
3586, 647, 1441, 126
3587, 126, 1441, 1440
3588, 159, 1441, 658
3589, 886, 1441, 159
3590, 261, 1440, 886
3591, 658, 1441, 647
3592, 1440, 1441, 886
*ELEMENT, type=CPS3, ELSET=Surface172
3593, 232, 882, 1442
3594, 888, 232, 1442
3595, 882, 259, 1443
3596, 259, 890, 1443
3597, 262, 888, 1442
3598, 889, 262, 1442
3599, 263, 889, 1443
3600, 890, 263, 1443
3601, 1442, 882, 1443
3602, 889, 1442, 1443
*ELEMENT, type=CPS3, ELSET=Surface173
3603, 749, 891, 176
3604, 891, 749, 232
3605, 888, 891, 232
3606, 888, 262, 1444
3607, 262, 892, 1444
3608, 264, 891, 1444
3609, 892, 264, 1444
3610, 891, 888, 1444
*ELEMENT, type=CPS3, ELSET=Surface174
3611, 891, 679, 176
3612, 177, 679, 1445
3613, 893, 177, 1445
3614, 891, 264, 1446
3615, 264, 894, 1446
3616, 265, 893, 1446
3617, 894, 265, 1446
3618, 679, 891, 1445
3619, 1445, 891, 1446
3620, 893, 1445, 1446
*ELEMENT, type=CPS3, ELSET=Surface175
3621, 680, 177, 1448
3622, 177, 893, 1448
3623, 266, 178, 1447
3624, 178, 680, 1447
3625, 893, 265, 1448
3626, 265, 895, 1448
3627, 895, 266, 1447
3628, 680, 895, 1447
3629, 895, 680, 1448
*ELEMENT, type=CPS3, ELSET=Surface176
3630, 178, 266, 1449
3631, 681, 178, 1449
3632, 896, 267, 180
3633, 681, 896, 180
3634, 266, 896, 1449
3635, 896, 681, 1449
*ELEMENT, type=CPS3, ELSET=Surface177
3636, 899, 878, 226
3637, 878, 897, 256
3638, 897, 898, 268
3639, 898, 899, 269
3640, 898, 897, 878
3641, 899, 898, 878
*ELEMENT, type=CPS3, ELSET=Surface178
3642, 270, 182, 180
3643, 270, 180, 267
*ELEMENT, type=CPS3, ELSET=Surface179
3644, 740, 185, 1450
3645, 185, 902, 1450
3646, 226, 740, 1452
3647, 899, 226, 1452
3648, 269, 899, 1453
3649, 900, 269, 1453
3650, 271, 900, 1451
3651, 901, 271, 1450
3652, 1450, 271, 1451
3653, 902, 272, 901
3654, 740, 1450, 1451
3655, 740, 1451, 1452
3656, 899, 1452, 1453
3657, 1451, 900, 1452
3658, 1452, 900, 1453
3659, 902, 901, 1450
*ELEMENT, type=CPS3, ELSET=Surface180
3660, 270, 904, 182
3661, 904, 683, 182
3662, 683, 903, 184
3663, 235, 903, 904
3664, 904, 903, 683
*ELEMENT, type=CPS3, ELSET=Surface181
3665, 684, 184, 1455
3666, 184, 903, 1455
3667, 684, 902, 185
3668, 903, 235, 905
3669, 272, 902, 1454
3670, 905, 272, 1454
3671, 902, 684, 1454
3672, 1454, 684, 1455
3673, 903, 905, 1455
3674, 905, 1454, 1455
*ELEMENT, type=CPS3, ELSET=Surface182
3675, 139, 273, 137
3676, 190, 273, 139
*ELEMENT, type=CPS3, ELSET=Surface183
3677, 907, 687, 189
3678, 190, 906, 273
3679, 190, 687, 906
3680, 906, 907, 239
3681, 687, 907, 906
*ELEMENT, type=CPS3, ELSET=Surface184
3682, 909, 686, 187
3683, 189, 686, 1457
3684, 907, 189, 1457
3685, 907, 908, 239
3686, 274, 908, 1456
3687, 909, 274, 1456
3688, 686, 909, 1456
3689, 686, 1456, 1457
3690, 908, 907, 1457
3691, 1456, 908, 1457
*ELEMENT, type=CPS3, ELSET=Surface185
3692, 187, 699, 1458
3693, 909, 187, 1458
3694, 699, 199, 1459
3695, 199, 912, 1459
3696, 909, 910, 274
3697, 275, 910, 1458
3698, 911, 275, 1460
3699, 275, 1458, 1460
3700, 276, 911, 1459
3701, 912, 276, 1459
3702, 1458, 699, 1460
3703, 699, 1459, 1460
3704, 910, 909, 1458
3705, 1459, 911, 1460
*ELEMENT, type=CPS3, ELSET=Surface186
3706, 402, 851, 28
3707, 402, 30, 913
3708, 851, 912, 199
3709, 276, 912, 913
3710, 851, 402, 913
3711, 912, 851, 913
*ELEMENT, type=CPS3, ELSET=Surface187
3712, 149, 914, 150
3713, 914, 149, 915
3714, 915, 277, 278
3715, 914, 915, 278
*ELEMENT, type=CPS3, ELSET=Surface188
3716, 916, 240, 196
3717, 917, 240, 916
3718, 279, 917, 916
*ELEMENT, type=CPS3, ELSET=Surface189
3719, 147, 918, 148
3720, 918, 919, 148
3721, 919, 241, 240
3722, 241, 919, 918
*ELEMENT, type=CPS3, ELSET=Surface190
3723, 148, 1463, 650
3724, 919, 1463, 148
3725, 650, 1466, 149
3726, 149, 1466, 915
3727, 917, 1467, 240
3728, 240, 1467, 919
3729, 921, 277, 915
3730, 279, 1461, 917
3731, 920, 1465, 279
3732, 279, 1465, 1461
3733, 915, 280, 921
3734, 915, 1462, 280
3735, 280, 1462, 920
3736, 1463, 1464, 650
3737, 1464, 1466, 650
3738, 915, 1466, 1462
3739, 1461, 1467, 917
3740, 919, 1467, 1463
3741, 1462, 1465, 920
3742, 1461, 1464, 1463
3743, 1463, 1467, 1461
3744, 1461, 1465, 1464
3745, 1464, 1465, 1462
3746, 1462, 1466, 1464
*ELEMENT, type=CPS3, ELSET=Surface191
3747, 620, 119, 1468
3748, 119, 645, 1468
3749, 120, 620, 1471
3750, 922, 120, 1471
3751, 645, 144, 1469
3752, 144, 850, 1469
3753, 850, 241, 1470
3754, 241, 922, 1470
3755, 620, 1468, 1472
3756, 1471, 620, 1472
3757, 1468, 645, 1469
3758, 1469, 850, 1472
3759, 850, 1470, 1472
3760, 1470, 922, 1471
3761, 1468, 1469, 1472
3762, 1470, 1471, 1472
*ELEMENT, type=CPS3, ELSET=Surface192
3763, 621, 120, 922
3764, 241, 121, 922
3765, 121, 621, 922
*ELEMENT, type=CPS3, ELSET=Surface193
3766, 121, 241, 1473
3767, 692, 121, 1473
3768, 147, 692, 1473
3769, 918, 147, 1473
3770, 241, 918, 1473
*ELEMENT, type=CPS3, ELSET=Surface194
3771, 279, 694, 195
3772, 694, 916, 196
3773, 916, 694, 279
*ELEMENT, type=CPS3, ELSET=Surface195
3774, 923, 693, 193
3775, 923, 279, 195
3776, 693, 923, 195
3777, 920, 279, 923
3778, 920, 923, 280
*ELEMENT, type=CPS3, ELSET=Surface196
3779, 689, 192, 924
3780, 923, 193, 689
3781, 921, 924, 277
3782, 280, 923, 921
3783, 923, 689, 924
3784, 923, 924, 921
*ELEMENT, type=CPS3, ELSET=Surface197
3785, 192, 142, 1474
3786, 142, 925, 1474
3787, 924, 192, 1474
3788, 278, 277, 1475
3789, 277, 924, 1475
3790, 925, 278, 1475
3791, 924, 1474, 1475
3792, 1474, 925, 1475
*ELEMENT, type=CPS3, ELSET=Surface198
3793, 643, 925, 142
3794, 143, 926, 643
3795, 643, 278, 925
3796, 926, 278, 643
*ELEMENT, type=CPS3, ELSET=Surface199
3797, 143, 660, 926
3798, 660, 150, 914
3799, 926, 914, 278
3800, 926, 660, 914
*ELEMENT, type=CPS3, ELSET=Surface200
3801, 898, 929, 268
3802, 928, 898, 269
3803, 929, 927, 281
3804, 927, 928, 282
3805, 898, 928, 927
3806, 898, 927, 929
*ELEMENT, type=CPS3, ELSET=Surface201
3807, 234, 930, 1487
3808, 751, 234, 1487
3809, 235, 765, 905
3810, 272, 905, 1488
3811, 930, 272, 1488
3812, 758, 757, 1485
3813, 759, 758, 1478
3814, 1478, 758, 1485
3815, 764, 763, 905
3816, 765, 764, 905
3817, 905, 763, 1479
3818, 905, 1479, 1482
3819, 905, 1482, 1483
3820, 905, 1483, 1488
3821, 930, 1484, 1487
3822, 1484, 930, 1488
3823, 754, 753, 1486
3824, 755, 754, 1476
3825, 1476, 754, 1486
3826, 762, 761, 1479
3827, 763, 762, 1479
3828, 752, 751, 1487
3829, 753, 752, 1481
3830, 1481, 752, 1487
3831, 756, 755, 1476
3832, 757, 756, 1477
3833, 756, 1476, 1477
3834, 760, 759, 1479
3835, 761, 760, 1479
3836, 753, 1481, 1486
3837, 757, 1477, 1485
3838, 759, 1478, 1479
3839, 1477, 1476, 1480
3840, 1480, 1476, 1484
3841, 1484, 1476, 1486
3842, 1477, 1480, 1482
3843, 1477, 1482, 1485
3844, 1479, 1478, 1482
3845, 1482, 1478, 1485
3846, 1482, 1480, 1483
3847, 1483, 1480, 1484
3848, 1481, 1484, 1486
3849, 1484, 1481, 1487
3850, 1483, 1484, 1488
*ELEMENT, type=CPS3, ELSET=Surface202
3851, 236, 931, 1491
3852, 932, 236, 1491
3853, 269, 900, 1490
3854, 928, 269, 1490
3855, 900, 271, 1489
3856, 271, 932, 1489
3857, 282, 928, 1490
3858, 931, 282, 1490
3859, 900, 1489, 1490
3860, 931, 1490, 1491
3861, 1489, 932, 1491
3862, 1490, 1489, 1491
*ELEMENT, type=CPS3, ELSET=Surface203
3863, 234, 780, 930
3864, 766, 236, 932
3865, 932, 271, 901
3866, 272, 930, 901
3867, 773, 772, 1492
3868, 774, 773, 1492
3869, 901, 930, 932
3870, 932, 930, 1492
3871, 930, 778, 777
3872, 930, 777, 1492
3873, 778, 930, 779
3874, 930, 780, 779
3875, 766, 932, 1493
3876, 932, 1492, 1493
3877, 769, 768, 1493
3878, 770, 769, 1493
3879, 777, 776, 1492
3880, 767, 766, 1493
3881, 768, 767, 1493
3882, 771, 770, 1493
3883, 772, 771, 1492
3884, 1492, 771, 1493
3885, 775, 774, 1492
3886, 776, 775, 1492
*ELEMENT, type=CPS3, ELSET=Surface204
3887, 403, 913, 30
3888, 403, 31, 934
3889, 913, 933, 276
3890, 933, 934, 283
3891, 913, 403, 934
3892, 933, 913, 934
*ELEMENT, type=CPS3, ELSET=Surface205
3893, 237, 935, 1496
3894, 936, 237, 1496
3895, 275, 911, 1494
3896, 935, 275, 1494
3897, 911, 276, 1495
3898, 276, 933, 1495
3899, 933, 283, 1495
3900, 283, 936, 1495
3901, 1494, 911, 1495
3902, 935, 1494, 1496
3903, 1495, 936, 1496
3904, 1494, 1495, 1496
*ELEMENT, type=CPS3, ELSET=Surface206
3905, 935, 237, 818
3906, 804, 238, 937
3907, 274, 910, 937
3908, 275, 935, 910
3909, 811, 810, 1497
3910, 812, 811, 1497
3911, 910, 935, 937
3912, 937, 935, 1497
3913, 935, 818, 1498
3914, 1497, 935, 1498
3915, 807, 806, 937
3916, 807, 937, 1497
3917, 805, 804, 937
3918, 806, 805, 937
3919, 808, 807, 1497
3920, 815, 814, 1498
3921, 816, 815, 1498
3922, 809, 808, 1497
3923, 810, 809, 1497
3924, 813, 812, 1497
3925, 814, 813, 1498
3926, 813, 1497, 1498
3927, 817, 816, 1498
3928, 818, 817, 1498
*ELEMENT, type=CPS3, ELSET=Surface207
3929, 833, 937, 238
3930, 819, 239, 908
3931, 908, 274, 1511
3932, 274, 937, 1511
3933, 826, 825, 1501
3934, 827, 826, 1509
3935, 826, 1501, 1509
3936, 820, 819, 908
3937, 821, 820, 908
3938, 821, 908, 1502
3939, 1502, 908, 1507
3940, 1505, 908, 1506
3941, 908, 1505, 1507
3942, 1506, 908, 1511
3943, 937, 833, 1504
3944, 937, 1504, 1508
3945, 937, 1508, 1511
3946, 822, 821, 1502
3947, 823, 822, 1502
3948, 830, 829, 1499
3949, 831, 830, 1499
3950, 824, 823, 1502
3951, 825, 824, 1502
3952, 828, 827, 1500
3953, 829, 828, 1510
3954, 828, 1500, 1510
3955, 832, 831, 1504
3956, 833, 832, 1504
3957, 1501, 825, 1502
3958, 1500, 827, 1509
3959, 1499, 829, 1510
3960, 831, 1499, 1504
3961, 1499, 1503, 1508
3962, 1503, 1499, 1510
3963, 1504, 1499, 1508
3964, 1503, 1500, 1505
3965, 1500, 1503, 1510
3966, 1505, 1500, 1509
3967, 1501, 1502, 1507
3968, 1505, 1501, 1507
3969, 1501, 1505, 1509
3970, 1503, 1505, 1506
3971, 1503, 1506, 1508
3972, 1508, 1506, 1511
*ELEMENT, type=CPS3, ELSET=Surface208
3973, 284, 938, 1514
3974, 941, 284, 1514
3975, 938, 285, 1513
3976, 285, 939, 1513
3977, 939, 286, 1513
3978, 286, 940, 1513
3979, 940, 287, 1512
3980, 287, 941, 1512
3981, 938, 1513, 1514
3982, 940, 1512, 1513
3983, 1512, 941, 1514
3984, 1513, 1512, 1514
*ELEMENT, type=CPS3, ELSET=Surface209
3985, 285, 1515, 939
3986, 944, 1515, 285
3987, 939, 1516, 286
3988, 286, 1516, 943
3989, 942, 1515, 288
3990, 288, 1515, 944
3991, 289, 1516, 942
3992, 943, 1516, 289
3993, 1515, 1516, 939
3994, 942, 1516, 1515
*ELEMENT, type=CPS3, ELSET=Surface210
3995, 947, 940, 286
3996, 945, 287, 940
3997, 945, 946, 287
3998, 291, 290, 940
3999, 290, 945, 940
4000, 291, 940, 947
4001, 945, 292, 946
*ELEMENT, type=CPS3, ELSET=Surface211
4002, 941, 948, 284
4003, 941, 287, 950
4004, 941, 293, 948
4005, 941, 949, 293
4006, 941, 294, 949
4007, 941, 950, 294
*ELEMENT, type=CPS3, ELSET=Surface212
4008, 284, 951, 938
4009, 284, 953, 951
4010, 285, 938, 952
4011, 953, 295, 951
4012, 938, 296, 297
4013, 938, 951, 296
4014, 938, 297, 952
*ELEMENT, type=CPS3, ELSET=Surface213
4015, 870, 954, 248
4016, 249, 956, 870
4017, 954, 955, 290
4018, 956, 298, 955
4019, 956, 954, 870
4020, 956, 955, 954
*ELEMENT, type=CPS3, ELSET=Surface214
4021, 248, 1518, 250
4022, 954, 1518, 248
4023, 250, 1518, 299
4024, 954, 290, 291
4025, 291, 1517, 954
4026, 957, 1517, 291
4027, 299, 1517, 957
4028, 299, 1518, 1517
4029, 1517, 1518, 954
*ELEMENT, type=CPS3, ELSET=Surface215
4030, 299, 872, 250
4031, 958, 289, 251
4032, 958, 251, 872
4033, 299, 958, 872
*ELEMENT, type=CPS3, ELSET=Surface216
4034, 251, 289, 1519
4035, 873, 251, 1519
4036, 288, 252, 1520
4037, 252, 873, 1520
4038, 942, 288, 1520
4039, 289, 942, 1519
4040, 873, 1519, 1520
4041, 1519, 942, 1520
*ELEMENT, type=CPS3, ELSET=Surface217
4042, 252, 288, 959
4043, 252, 959, 874
4044, 874, 300, 253
4045, 874, 959, 300
*ELEMENT, type=CPS3, ELSET=Surface218
4046, 253, 1522, 254
4047, 300, 1522, 253
4048, 254, 1522, 960
4049, 297, 296, 960
4050, 960, 1521, 297
4051, 297, 1521, 961
4052, 961, 1521, 300
4053, 1521, 1522, 300
4054, 960, 1522, 1521
*ELEMENT, type=CPS3, ELSET=Surface219
4055, 877, 254, 960
4056, 255, 877, 962
4057, 960, 296, 963
4058, 962, 963, 301
4059, 960, 962, 877
4060, 960, 963, 962
*ELEMENT, type=CPS3, ELSET=Surface220
4061, 966, 268, 929
4062, 929, 281, 964
4063, 964, 302, 965
4064, 303, 966, 965
4065, 964, 966, 929
4066, 964, 965, 966
*ELEMENT, type=CPS3, ELSET=Surface221
4067, 967, 256, 897
4068, 897, 268, 966
4069, 966, 303, 304
4070, 304, 967, 966
4071, 967, 897, 966
*ELEMENT, type=CPS3, ELSET=Surface222
4072, 879, 256, 967
4073, 257, 967, 306
4074, 257, 879, 967
4075, 968, 304, 305
4076, 967, 304, 306
4077, 306, 304, 968
*ELEMENT, type=CPS3, ELSET=Surface223
4078, 306, 1527, 257
4079, 257, 1526, 880
4080, 257, 1527, 1526
4081, 258, 1525, 311
4082, 880, 1525, 258
4083, 969, 307, 306
4084, 307, 1523, 306
4085, 1523, 1527, 306
4086, 308, 1523, 307
4087, 970, 1528, 308
4088, 308, 1528, 1523
4089, 310, 1524, 309
4090, 309, 1528, 970
4091, 1524, 1528, 309
4092, 311, 310, 971
4093, 311, 1525, 310
4094, 310, 1525, 1524
4095, 880, 1526, 1525
4096, 1526, 1527, 1523
4097, 1523, 1528, 1526
4098, 1525, 1526, 1524
4099, 1526, 1528, 1524
*ELEMENT, type=CPS3, ELSET=Surface224
4100, 258, 311, 973
4101, 258, 973, 881
4102, 881, 973, 259
4103, 311, 972, 973
4104, 972, 312, 973
*ELEMENT, type=CPS3, ELSET=Surface225
4105, 259, 1530, 890
4106, 973, 1530, 259
4107, 890, 1530, 263
4108, 263, 1530, 975
4109, 312, 1529, 973
4110, 974, 1529, 312
4111, 313, 1529, 974
4112, 975, 1529, 313
4113, 1529, 1530, 973
4114, 975, 1530, 1529
*ELEMENT, type=CPS3, ELSET=Surface226
4115, 943, 947, 286
4116, 289, 1531, 943
4117, 958, 1531, 289
4118, 957, 291, 947
4119, 957, 1531, 299
4120, 299, 1531, 958
4121, 943, 957, 947
4122, 943, 1531, 957
*ELEMENT, type=CPS3, ELSET=Surface227
4123, 944, 285, 952
4124, 944, 1532, 288
4125, 288, 1532, 959
4126, 961, 952, 297
4127, 959, 1532, 300
4128, 300, 1532, 961
4129, 961, 944, 952
4130, 961, 1532, 944
*ELEMENT, type=CPS3, ELSET=Surface228
4131, 945, 290, 955
4132, 976, 314, 292
4133, 945, 976, 292
4134, 955, 298, 976
4135, 945, 955, 976
*ELEMENT, type=CPS3, ELSET=Surface229
4136, 977, 287, 946
4137, 950, 287, 977
4138, 977, 946, 292
4139, 294, 950, 977
*ELEMENT, type=CPS3, ELSET=Surface230
4140, 948, 978, 284
4141, 978, 953, 284
4142, 293, 978, 948
4143, 978, 295, 953
*ELEMENT, type=CPS3, ELSET=Surface231
4144, 979, 295, 315
4145, 951, 295, 979
4146, 963, 296, 951
4147, 963, 979, 301
4148, 951, 979, 963
*ELEMENT, type=CPS3, ELSET=Surface232
4149, 312, 981, 974
4150, 980, 981, 312
4151, 982, 313, 974
4152, 980, 316, 981
4153, 981, 317, 982
4154, 982, 974, 981
*ELEMENT, type=CPS3, ELSET=Surface233
4155, 985, 981, 316
4156, 981, 1534, 317
4157, 317, 1534, 984
4158, 983, 1533, 318
4159, 318, 1533, 985
4160, 319, 1534, 983
4161, 984, 1534, 319
4162, 985, 1533, 981
4163, 1533, 1534, 981
4164, 983, 1534, 1533
*ELEMENT, type=CPS3, ELSET=Surface234
4165, 986, 318, 320
4166, 983, 318, 986
4167, 986, 319, 983
4168, 986, 320, 321
*ELEMENT, type=CPS3, ELSET=Surface235
4169, 988, 321, 320
4170, 988, 987, 321
4171, 987, 322, 323
4172, 988, 322, 987
*ELEMENT, type=CPS3, ELSET=Surface236
4173, 322, 325, 323
4174, 322, 324, 325
*ELEMENT, type=CPS3, ELSET=Surface237
4175, 324, 990, 325
4176, 991, 990, 324
4177, 991, 326, 989
4178, 327, 990, 989
4179, 989, 990, 991
*ELEMENT, type=CPS3, ELSET=Surface238
4180, 328, 329, 331
4181, 330, 328, 331
*ELEMENT, type=CPS3, ELSET=Surface239
4182, 330, 995, 992
4183, 992, 993, 332
4184, 333, 993, 1535
4185, 994, 333, 1535
4186, 334, 994, 1535
4187, 995, 334, 1535
4188, 993, 992, 995
4189, 993, 995, 1535
*ELEMENT, type=CPS3, ELSET=Surface240
4190, 997, 332, 993
4191, 333, 996, 993
4192, 336, 1536, 335
4193, 335, 1536, 996
4194, 997, 1536, 336
4195, 993, 996, 997
4196, 996, 1536, 997
*ELEMENT, type=CPS3, ELSET=Surface241
4197, 335, 999, 336
4198, 999, 998, 336
4199, 999, 338, 337
4200, 999, 337, 998
*ELEMENT, type=CPS3, ELSET=Surface242
4201, 338, 1537, 337
4202, 337, 1537, 1001
4203, 1000, 1537, 338
4204, 340, 1538, 339
4205, 339, 1538, 1000
4206, 1001, 1538, 340
4207, 1001, 1537, 1000
4208, 1000, 1538, 1001
*ELEMENT, type=CPS3, ELSET=Surface243
4209, 339, 1539, 340
4210, 1002, 1539, 339
4211, 340, 1539, 1004
4212, 341, 1003, 1002
4213, 342, 1540, 1003
4214, 1004, 1540, 342
4215, 1003, 1540, 1002
4216, 1002, 1540, 1539
4217, 1539, 1540, 1004
*ELEMENT, type=CPS3, ELSET=Surface244
4218, 302, 1542, 965
4219, 1005, 1542, 302
4220, 965, 1542, 303
4221, 303, 1542, 1007
4222, 343, 1543, 1005
4223, 1006, 1543, 343
4224, 344, 1541, 1006
4225, 1007, 1541, 344
4226, 1005, 1543, 1542
4227, 1541, 1543, 1006
4228, 1007, 1542, 1541
4229, 1542, 1543, 1541
*ELEMENT, type=CPS3, ELSET=Surface245
4230, 978, 293, 1008
4231, 315, 295, 1008
4232, 1008, 295, 978
*ELEMENT, type=CPS3, ELSET=Surface246
4233, 292, 314, 1009
4234, 292, 1009, 977
4235, 1009, 294, 977
*ELEMENT, type=CPS3, ELSET=Surface247
4236, 303, 1546, 304
4237, 1007, 1546, 303
4238, 304, 1546, 1011
4239, 344, 1545, 1007
4240, 1010, 1544, 344
4241, 1544, 1545, 344
4242, 346, 1544, 345
4243, 345, 1544, 1010
4244, 1011, 1544, 346
4245, 1545, 1546, 1007
4246, 1011, 1545, 1544
4247, 1011, 1546, 1545
*ELEMENT, type=CPS3, ELSET=Surface248
4248, 305, 304, 1011
4249, 346, 305, 1011
*ELEMENT, type=CPS3, ELSET=Surface249
4250, 305, 1547, 968
4251, 1012, 1547, 305
4252, 968, 1547, 306
4253, 306, 1547, 969
4254, 969, 1013, 307
4255, 1012, 347, 1013
4256, 1013, 969, 1012
4257, 969, 1547, 1012
*ELEMENT, type=CPS3, ELSET=Surface250
4258, 1014, 308, 307
4259, 1013, 1014, 307
4260, 348, 1014, 347
4261, 347, 1014, 1013
*ELEMENT, type=CPS3, ELSET=Surface251
4262, 308, 1548, 970
4263, 1014, 1548, 308
4264, 970, 1549, 309
4265, 309, 1549, 1016
4266, 348, 1552, 1014
4267, 1015, 1552, 348
4268, 349, 1550, 1015
4269, 1016, 1550, 349
4270, 1548, 1551, 970
4271, 970, 1551, 1549
4272, 1014, 1552, 1548
4273, 1550, 1551, 1015
4274, 1551, 1552, 1015
4275, 1549, 1550, 1016
4276, 1548, 1552, 1551
4277, 1549, 1551, 1550
*ELEMENT, type=CPS3, ELSET=Surface252
4278, 1017, 310, 309
4279, 1016, 1017, 309
4280, 350, 1017, 349
4281, 349, 1017, 1016
*ELEMENT, type=CPS3, ELSET=Surface253
4282, 310, 1554, 971
4283, 1017, 1554, 310
4284, 971, 1557, 311
4285, 311, 1557, 972
4286, 972, 1555, 312
4287, 312, 1555, 980
4288, 980, 1553, 316
4289, 316, 1556, 1018
4290, 1553, 1556, 316
4291, 350, 1018, 1017
4292, 1554, 1557, 971
4293, 972, 1557, 1555
4294, 980, 1555, 1553
4295, 1018, 1554, 1017
4296, 1018, 1556, 1554
4297, 1555, 1557, 1553
4298, 1553, 1557, 1556
4299, 1556, 1557, 1554
*ELEMENT, type=CPS3, ELSET=Surface254
4300, 985, 316, 1018
4301, 318, 1558, 350
4302, 985, 1558, 318
4303, 350, 1558, 1018
4304, 1018, 1558, 985
*ELEMENT, type=CPS3, ELSET=Surface255
4305, 320, 318, 349
4306, 318, 350, 349
*ELEMENT, type=CPS3, ELSET=Surface256
4307, 320, 348, 322
4308, 988, 320, 322
4309, 320, 1015, 348
4310, 320, 349, 1015
*ELEMENT, type=CPS3, ELSET=Surface257
4311, 324, 322, 1559
4312, 322, 348, 1559
4313, 347, 324, 1559
4314, 348, 347, 1559
*ELEMENT, type=CPS3, ELSET=Surface258
4315, 326, 1560, 989
4316, 1020, 1560, 326
4317, 1019, 327, 989
4318, 345, 1561, 346
4319, 1019, 1561, 345
4320, 346, 1561, 1020
4321, 989, 1560, 1019
4322, 1560, 1561, 1019
4323, 1020, 1561, 1560
*ELEMENT, type=CPS3, ELSET=Surface259
4324, 346, 1563, 305
4325, 305, 1563, 1012
4326, 347, 1562, 324
4327, 324, 1562, 991
4328, 991, 1562, 326
4329, 326, 1562, 1020
4330, 1020, 1563, 346
4331, 1012, 1562, 347
4332, 1012, 1563, 1562
4333, 1562, 1563, 1020
*ELEMENT, type=CPS3, ELSET=Surface260
4334, 1019, 1565, 327
4335, 327, 1565, 1021
4336, 345, 1567, 1019
4337, 1028, 1567, 345
4338, 1028, 351, 1027
4339, 1019, 1568, 1565
4340, 1567, 1568, 1019
4341, 1023, 1568, 1024
4342, 1024, 1566, 1025
4343, 1024, 1568, 1566
4344, 1027, 1569, 1028
4345, 1028, 1569, 1567
4346, 1021, 1565, 1022
4347, 1022, 1565, 1023
4348, 1025, 1564, 1026
4349, 1026, 1569, 1027
4350, 1564, 1569, 1026
4351, 1565, 1568, 1023
4352, 1025, 1566, 1564
4353, 1566, 1567, 1564
4354, 1567, 1569, 1564
4355, 1566, 1568, 1567
*ELEMENT, type=CPS3, ELSET=Surface261
4356, 1035, 1006, 343
4357, 344, 1006, 1010
4358, 345, 1010, 1028
4359, 1029, 351, 1028
4360, 1010, 1006, 1028
4361, 1006, 1570, 1028
4362, 1035, 1034, 1006
4363, 1034, 1570, 1006
4364, 1028, 1570, 1029
4365, 1031, 1570, 1032
4366, 1032, 1570, 1033
4367, 1029, 1570, 1030
4368, 1030, 1570, 1031
4369, 1033, 1570, 1034
*ELEMENT, type=CPS3, ELSET=Surface262
4370, 331, 995, 330
4371, 995, 331, 1036
4372, 995, 1036, 334
*ELEMENT, type=CPS3, ELSET=Surface263
4373, 333, 1038, 996
4374, 996, 1037, 335
4375, 1039, 352, 1037
4376, 1038, 353, 1039
4377, 996, 1039, 1037
4378, 1038, 1039, 996
*ELEMENT, type=CPS3, ELSET=Surface264
4379, 1037, 999, 335
4380, 1040, 338, 999
4381, 352, 1041, 1037
4382, 354, 1040, 1041
4383, 1041, 999, 1037
4384, 1041, 1040, 999
*ELEMENT, type=CPS3, ELSET=Surface265
4385, 338, 1040, 1000
4386, 1000, 1042, 339
4387, 1040, 354, 1043
4388, 1043, 355, 1042
4389, 1040, 1043, 1000
4390, 1043, 1042, 1000
*ELEMENT, type=CPS3, ELSET=Surface266
4391, 356, 1044, 1050
4392, 1056, 1045, 356
4393, 1050, 1056, 356
4394, 1044, 357, 1050
4395, 357, 1057, 1050
4396, 358, 1049, 1051
4397, 358, 1051, 1050
4398, 1057, 358, 1050
4399, 359, 1050, 1051
4400, 1056, 1050, 359
4401, 1055, 1046, 1045
4402, 1055, 1045, 1056
4403, 1047, 1046, 1054
4404, 1054, 1046, 1055
4405, 1048, 1047, 1053
4406, 1053, 1047, 1054
4407, 1049, 1048, 1052
4408, 1052, 1048, 1053
4409, 1051, 1049, 1052
*ELEMENT, type=CPS3, ELSET=Surface267
4410, 360, 1063, 361
4411, 360, 1062, 1578
4412, 1063, 360, 1578
4413, 1058, 361, 1572
4414, 361, 1063, 1572
4415, 363, 362, 1063
4416, 1063, 362, 1577
4417, 362, 1068, 1577
4418, 363, 1063, 1571
4419, 1064, 363, 1571
4420, 1059, 1058, 1573
4421, 1058, 1572, 1573
4422, 1060, 1059, 1574
4423, 1059, 1573, 1574
4424, 1061, 1060, 1575
4425, 1060, 1574, 1575
4426, 1062, 1061, 1576
4427, 1061, 1575, 1576
4428, 1062, 1576, 1578
4429, 1571, 1063, 1578
4430, 1572, 1063, 1577
4431, 1065, 1064, 1576
4432, 1064, 1571, 1576
4433, 1066, 1065, 1575
4434, 1575, 1065, 1576
4435, 1067, 1066, 1574
4436, 1574, 1066, 1575
4437, 1068, 1067, 1573
4438, 1573, 1067, 1574
4439, 1068, 1573, 1577
4440, 1576, 1571, 1578
4441, 1573, 1572, 1577
*ELEMENT, type=CPS3, ELSET=Surface268
4442, 1051, 1069, 359
4443, 1069, 1056, 359
4444, 360, 361, 1069
4445, 1051, 1062, 360
4446, 1051, 360, 1069
4447, 1058, 1056, 361
4448, 361, 1056, 1069
4449, 1052, 1062, 1051
4450, 1053, 1061, 1052
4451, 1061, 1062, 1052
4452, 1054, 1060, 1053
4453, 1060, 1061, 1053
4454, 1055, 1059, 1054
4455, 1059, 1060, 1054
4456, 1056, 1058, 1055
4457, 1058, 1059, 1055
*ELEMENT, type=CPS3, ELSET=Surface269
4458, 1044, 356, 1075
4459, 356, 1045, 1074
4460, 356, 1074, 1075
4461, 357, 1044, 1075
4462, 1057, 357, 1075
4463, 364, 1070, 358
4464, 364, 358, 1075
4465, 358, 1070, 1049
4466, 358, 1057, 1075
4467, 364, 1075, 1074
4468, 1045, 1046, 365
4469, 1074, 1045, 365
4470, 365, 1046, 1073
4471, 1046, 1047, 1073
4472, 1047, 1048, 1072
4473, 1073, 1047, 1072
4474, 1048, 1049, 1071
4475, 1072, 1048, 1071
4476, 1071, 1049, 1070
*ELEMENT, type=CPS3, ELSET=Surface270
4477, 1067, 1068, 102
4478, 573, 1067, 102
4479, 102, 1068, 580
4480, 578, 1076, 103
4481, 103, 1076, 1579
4482, 577, 103, 1579
4483, 362, 363, 1076
4484, 362, 578, 1068
4485, 362, 1076, 578
4486, 363, 1064, 577
4487, 1076, 363, 1579
4488, 363, 577, 1579
4489, 574, 1066, 573
4490, 575, 1066, 574
4491, 1064, 1065, 576
4492, 577, 1064, 576
4493, 576, 1065, 575
4494, 578, 579, 1068
4495, 580, 1068, 579
4496, 1065, 1066, 575
4497, 1066, 1067, 573
*ELEMENT, type=CPS3, ELSET=Surface271
4498, 857, 242, 1599
4499, 242, 1078, 1598
4500, 1080, 242, 1598
4501, 242, 1080, 1599
4502, 243, 856, 1591
4503, 1077, 243, 1583
4504, 1583, 243, 1591
4505, 1070, 364, 1580
4506, 364, 1074, 1585
4507, 1580, 364, 1585
4508, 365, 1073, 1600
4509, 1074, 365, 1597
4510, 365, 1079, 1597
4511, 1079, 365, 1600
4512, 856, 857, 1596
4513, 1591, 856, 1596
4514, 857, 1582, 1596
4515, 1582, 857, 1599
4516, 1071, 1070, 1586
4517, 1070, 1580, 1586
4518, 1072, 1071, 1581
4519, 1581, 1071, 1586
4520, 1073, 1072, 1588
4521, 1072, 1581, 1588
4522, 1073, 1588, 1600
4523, 1585, 1074, 1597
4524, 1078, 1077, 1593
4525, 1077, 1583, 1593
4526, 1584, 1078, 1593
4527, 1078, 1584, 1598
4528, 1079, 1080, 1594
4529, 1080, 1079, 1595
4530, 1079, 1594, 1597
4531, 1595, 1079, 1600
4532, 1594, 1080, 1598
4533, 1080, 1595, 1599
4534, 1580, 1585, 1592
4535, 1586, 1580, 1590
4536, 1590, 1580, 1592
4537, 1581, 1586, 1587
4538, 1581, 1587, 1589
4539, 1588, 1581, 1589
4540, 1582, 1588, 1589
4541, 1588, 1582, 1595
4542, 1582, 1589, 1596
4543, 1595, 1582, 1599
4544, 1583, 1587, 1590
4545, 1587, 1583, 1591
4546, 1583, 1590, 1593
4547, 1592, 1584, 1593
4548, 1584, 1592, 1594
4549, 1584, 1594, 1598
4550, 1592, 1585, 1594
4551, 1594, 1585, 1597
4552, 1587, 1586, 1590
4553, 1589, 1587, 1591
4554, 1588, 1595, 1600
4555, 1589, 1591, 1596
4556, 1590, 1592, 1593
*ELEMENT, type=CPS3, ELSET=Surface272
4557, 118, 1601, 108
4558, 108, 1601, 609
4559, 109, 1602, 117
4560, 608, 1602, 109
4561, 117, 1602, 1083
4562, 1081, 1601, 118
4563, 609, 1603, 608
4564, 1083, 1602, 608
4565, 608, 1603, 1083
4566, 609, 1601, 1081
4567, 1081, 1603, 609
4568, 1082, 1603, 1081
4569, 1083, 1603, 1082
*ELEMENT, type=CPS3, ELSET=Surface273
4570, 1084, 115, 618
4571, 1083, 618, 117
4572, 118, 884, 1081
4573, 884, 260, 1086
4574, 1084, 618, 1083
4575, 884, 1086, 1081
4576, 1082, 1081, 1086
4577, 1083, 1082, 1084
4578, 1084, 1082, 1085
4579, 1082, 1086, 1085
*ELEMENT, type=CPS3, ELSET=Surface274
4580, 1084, 2, 380
4581, 1097, 2, 1084
4582, 4, 115, 380
4583, 4, 646, 115
4584, 80, 1096, 1095
4585, 127, 114, 629
4586, 631, 114, 127
4587, 615, 629, 114
4588, 631, 1638, 114
4589, 114, 1638, 883
4590, 1084, 380, 115
4591, 646, 615, 115
4592, 123, 625, 615
4593, 123, 615, 646
4594, 625, 124, 615
4595, 124, 629, 615
4596, 130, 1610, 129
4597, 129, 1638, 631
4598, 1610, 1674, 129
4599, 129, 1674, 1638
4600, 633, 1624, 130
4601, 130, 1624, 1610
4602, 132, 1624, 633
4603, 635, 1671, 132
4604, 132, 1671, 1608
4605, 1608, 1696, 132
4606, 132, 1696, 1624
4607, 134, 1646, 635
4608, 638, 1687, 134
4609, 1639, 1646, 134
4610, 134, 1666, 1639
4611, 134, 1687, 1666
4612, 273, 1605, 137
4613, 137, 1605, 638
4614, 235, 904, 848
4615, 906, 239, 834
4616, 883, 1615, 260
4617, 260, 1614, 1086
4618, 1087, 1614, 260
4619, 260, 1615, 1087
4620, 889, 1644, 262
4621, 262, 1629, 892
4622, 262, 1644, 1629
4623, 263, 1628, 889
4624, 975, 1678, 263
4625, 1088, 1628, 263
4626, 263, 1678, 1088
4627, 892, 1643, 264
4628, 264, 1604, 894
4629, 264, 1643, 1604
4630, 894, 1653, 265
4631, 265, 1617, 895
4632, 265, 1688, 1617
4633, 1653, 1688, 265
4634, 895, 1685, 266
4635, 266, 1646, 896
4636, 266, 1685, 1646
4637, 267, 1613, 270
4638, 896, 1639, 267
4639, 267, 1692, 1613
4640, 1639, 1692, 267
4641, 270, 1676, 904
4642, 1613, 1675, 270
4643, 1675, 1676, 270
4644, 906, 1680, 273
4645, 273, 1667, 1605
4646, 273, 1668, 1667
4647, 273, 1680, 1668
4648, 313, 1678, 975
4649, 982, 1678, 313
4650, 317, 1619, 982
4651, 984, 1609, 317
4652, 1609, 1686, 317
4653, 317, 1686, 1619
4654, 319, 1609, 984
4655, 986, 1635, 319
4656, 319, 1635, 1609
4657, 321, 1618, 986
4658, 987, 1626, 321
4659, 321, 1626, 1618
4660, 325, 1612, 323
4661, 323, 1625, 987
4662, 1612, 1647, 323
4663, 323, 1647, 1625
4664, 990, 1640, 325
4665, 325, 1641, 1612
4666, 1640, 1641, 325
4667, 990, 327, 1089
4668, 330, 1681, 328
4669, 328, 1650, 1096
4670, 328, 1681, 1642
4671, 1642, 1690, 328
4672, 1645, 1650, 328
4673, 328, 1690, 1645
4674, 992, 1681, 330
4675, 332, 1655, 992
4676, 997, 1620, 332
4677, 1620, 1655, 332
4678, 336, 1694, 997
4679, 998, 1633, 336
4680, 1633, 1654, 336
4681, 1654, 1694, 336
4682, 337, 1621, 998
4683, 1001, 1637, 337
4684, 337, 1637, 1621
4685, 340, 1085, 1001
4686, 340, 1004, 1085
4687, 1004, 342, 1084
4688, 342, 1097, 1084
4689, 1646, 1685, 635
4690, 635, 1685, 1671
4691, 1605, 1687, 638
4692, 841, 1677, 840
4693, 842, 1606, 841
4694, 1606, 1677, 841
4695, 883, 1697, 1615
4696, 1638, 1697, 883
4697, 1628, 1644, 889
4698, 1629, 1643, 892
4699, 1604, 1653, 894
4700, 1617, 1685, 895
4701, 896, 1646, 1639
4702, 847, 904, 846
4703, 848, 904, 847
4704, 904, 1630, 846
4705, 904, 1676, 1630
4706, 906, 834, 835
4707, 836, 906, 835
4708, 836, 1689, 906
4709, 906, 1689, 1680
4710, 1619, 1678, 982
4711, 1618, 1635, 986
4712, 1625, 1626, 987
4713, 1090, 990, 1089
4714, 1090, 1640, 990
4715, 1655, 1681, 992
4716, 997, 1694, 1620
4717, 1621, 1651, 998
4718, 998, 1651, 1633
4719, 1085, 1637, 1001
4720, 1004, 1084, 1085
4721, 1086, 1637, 1085
4722, 1614, 1664, 1086
4723, 1086, 1664, 1637
4724, 1088, 1614, 1087
4725, 1087, 1691, 1088
4726, 1615, 1691, 1087
4727, 1088, 1652, 1614
4728, 1619, 1652, 1088
4729, 1088, 1678, 1619
4730, 1088, 1648, 1628
4731, 1088, 1691, 1648
4732, 1092, 1616, 1091
4733, 1093, 1645, 1092
4734, 1092, 1645, 1616
4735, 1095, 1096, 1094
4736, 1096, 1650, 1094
4737, 837, 1689, 836
4738, 838, 1627, 837
4739, 1627, 1689, 837
4740, 845, 1656, 844
4741, 846, 1630, 845
4742, 1630, 1656, 845
4743, 1091, 1640, 1090
4744, 1094, 1650, 1093
4745, 839, 1695, 838
4746, 840, 1607, 839
4747, 1607, 1695, 839
4748, 843, 1662, 842
4749, 844, 1611, 843
4750, 1611, 1662, 843
4751, 1616, 1640, 1091
4752, 1093, 1650, 1645
4753, 838, 1695, 1627
4754, 840, 1677, 1607
4755, 842, 1662, 1606
4756, 844, 1656, 1611
4757, 1643, 1693, 1604
4758, 1604, 1693, 1653
4759, 1667, 1687, 1605
4760, 1658, 1659, 1606
4761, 1606, 1662, 1658
4762, 1659, 1677, 1606
4763, 1677, 1682, 1607
4764, 1682, 1683, 1607
4765, 1683, 1695, 1607
4766, 1631, 1669, 1608
4767, 1608, 1671, 1631
4768, 1669, 1670, 1608
4769, 1670, 1696, 1608
4770, 1635, 1636, 1609
4771, 1636, 1686, 1609
4772, 1624, 1684, 1610
4773, 1673, 1674, 1610
4774, 1610, 1684, 1673
4775, 1656, 1657, 1611
4776, 1657, 1658, 1611
4777, 1658, 1662, 1611
4778, 1641, 1642, 1612
4779, 1642, 1655, 1612
4780, 1612, 1655, 1647
4781, 1613, 1665, 1660
4782, 1660, 1675, 1613
4783, 1613, 1666, 1665
4784, 1613, 1692, 1666
4785, 1652, 1664, 1614
4786, 1679, 1691, 1615
4787, 1615, 1697, 1679
4788, 1616, 1641, 1640
4789, 1616, 1690, 1641
4790, 1645, 1690, 1616
4791, 1623, 1631, 1617
4792, 1617, 1688, 1623
4793, 1631, 1671, 1617
4794, 1671, 1685, 1617
4795, 1626, 1654, 1618
4796, 1618, 1663, 1635
4797, 1654, 1663, 1618
4798, 1619, 1686, 1652
4799, 1625, 1647, 1620
4800, 1620, 1694, 1625
4801, 1647, 1655, 1620
4802, 1637, 1664, 1621
4803, 1621, 1652, 1651
4804, 1621, 1664, 1652
4805, 1622, 1672, 1648
4806, 1648, 1691, 1622
4807, 1622, 1673, 1672
4808, 1622, 1679, 1673
4809, 1622, 1691, 1679
4810, 1623, 1632, 1631
4811, 1623, 1634, 1632
4812, 1623, 1653, 1634
4813, 1623, 1688, 1653
4814, 1624, 1696, 1684
4815, 1625, 1694, 1626
4816, 1626, 1694, 1654
4817, 1627, 1683, 1680
4818, 1680, 1689, 1627
4819, 1627, 1695, 1683
4820, 1628, 1649, 1644
4821, 1648, 1649, 1628
4822, 1629, 1649, 1643
4823, 1644, 1649, 1629
4824, 1630, 1676, 1656
4825, 1632, 1669, 1631
4826, 1634, 1672, 1632
4827, 1632, 1672, 1669
4828, 1651, 1663, 1633
4829, 1633, 1663, 1654
4830, 1634, 1649, 1648
4831, 1648, 1672, 1634
4832, 1634, 1693, 1649
4833, 1653, 1693, 1634
4834, 1635, 1663, 1636
4835, 1636, 1663, 1651
4836, 1651, 1686, 1636
4837, 1674, 1697, 1638
4838, 1666, 1692, 1639
4839, 1641, 1690, 1642
4840, 1642, 1681, 1655
4841, 1649, 1693, 1643
4842, 1652, 1686, 1651
4843, 1656, 1676, 1657
4844, 1657, 1675, 1658
4845, 1657, 1676, 1675
4846, 1658, 1660, 1659
4847, 1658, 1675, 1660
4848, 1660, 1661, 1659
4849, 1661, 1682, 1659
4850, 1659, 1682, 1677
4851, 1660, 1665, 1661
4852, 1665, 1667, 1661
4853, 1667, 1668, 1661
4854, 1668, 1682, 1661
4855, 1666, 1667, 1665
4856, 1666, 1687, 1667
4857, 1680, 1683, 1668
4858, 1668, 1683, 1682
4859, 1669, 1672, 1670
4860, 1672, 1673, 1670
4861, 1673, 1684, 1670
4862, 1684, 1696, 1670
4863, 1673, 1679, 1674
4864, 1679, 1697, 1674
*ELEMENT, type=CPS3, ELSET=Surface275
4865, 1108, 31, 405
4866, 1108, 934, 31
4867, 1107, 405, 32
4868, 446, 1107, 32
4869, 68, 1713, 446
4870, 1098, 1713, 68
4871, 236, 1702, 931
4872, 781, 1702, 236
4873, 936, 1723, 237
4874, 237, 1723, 803
4875, 927, 1113, 281
4876, 281, 1113, 964
4877, 282, 1724, 927
4878, 931, 1702, 282
4879, 1702, 1724, 282
4880, 934, 1703, 283
4881, 283, 1703, 936
4882, 964, 1726, 302
4883, 302, 1726, 1005
4884, 1005, 1726, 343
4885, 343, 1704, 1122
4886, 343, 1726, 1704
4887, 366, 1725, 1105
4888, 1105, 1727, 366
4889, 366, 1727, 1104
4890, 1116, 1725, 366
4891, 367, 1715, 1105
4892, 1105, 1725, 367
4893, 1106, 1715, 367
4894, 367, 1707, 1115
4895, 1701, 1707, 367
4896, 367, 1725, 1701
4897, 368, 1717, 1106
4898, 1107, 1705, 368
4899, 1705, 1718, 368
4900, 368, 1718, 1717
4901, 1108, 405, 1107
4902, 446, 1713, 1107
4903, 788, 1706, 787
4904, 789, 1706, 788
4905, 1110, 1708, 796
4906, 796, 1709, 1110
4907, 796, 1708, 795
4908, 797, 1709, 796
4909, 927, 1724, 1113
4910, 1108, 1703, 934
4911, 1703, 1723, 936
4912, 964, 1113, 1114
4913, 1114, 1726, 964
4914, 1101, 1718, 1100
4915, 1102, 1717, 1101
4916, 1717, 1718, 1101
4917, 1715, 1727, 1105
4918, 1106, 1716, 1715
4919, 1106, 1717, 1716
4920, 1107, 1713, 1705
4921, 1109, 1703, 1108
4922, 1110, 1698, 1109
4923, 1698, 1710, 1109
4924, 1109, 1723, 1703
4925, 1710, 1723, 1109
4926, 1111, 1699, 1110
4927, 1110, 1709, 1698
4928, 1699, 1708, 1110
4929, 1112, 1700, 1111
4930, 1111, 1706, 789
4931, 789, 1711, 1111
4932, 1111, 1711, 1699
4933, 1700, 1706, 1111
4934, 1113, 1702, 1112
4935, 1112, 1714, 1700
4936, 1702, 1719, 1112
4937, 1112, 1719, 1714
4938, 1113, 1724, 1702
4939, 1115, 1722, 1114
4940, 1114, 1722, 1704
4941, 1704, 1726, 1114
4942, 1707, 1712, 1115
4943, 1712, 1721, 1115
4944, 1115, 1721, 1720
4945, 1720, 1722, 1115
4946, 1119, 1712, 1118
4947, 1120, 1721, 1119
4948, 1119, 1721, 1712
4949, 784, 1714, 783
4950, 785, 1714, 784
4951, 792, 1711, 791
4952, 793, 1699, 792
4953, 1699, 1711, 792
4954, 800, 1698, 799
4955, 801, 1698, 800
4956, 1099, 1705, 1098
4957, 1100, 1705, 1099
4958, 1103, 1716, 1102
4959, 1104, 1715, 1103
4960, 1715, 1716, 1103
4961, 1117, 1701, 1116
4962, 1118, 1707, 1117
4963, 1117, 1707, 1701
4964, 1121, 1720, 1120
4965, 1122, 1722, 1121
4966, 1121, 1722, 1720
4967, 782, 1719, 781
4968, 783, 1714, 782
4969, 1714, 1719, 782
4970, 786, 1700, 785
4971, 787, 1706, 786
4972, 786, 1706, 1700
4973, 790, 1711, 789
4974, 791, 1711, 790
4975, 794, 1699, 793
4976, 795, 1708, 794
4977, 794, 1708, 1699
4978, 798, 1709, 797
4979, 799, 1709, 798
4980, 802, 1710, 801
4981, 803, 1723, 802
4982, 802, 1723, 1710
4983, 1705, 1713, 1098
4984, 1100, 1718, 1705
4985, 1716, 1717, 1102
4986, 1104, 1727, 1715
4987, 1701, 1725, 1116
4988, 1118, 1712, 1707
4989, 1720, 1721, 1120
4990, 1704, 1722, 1122
4991, 781, 1719, 1702
4992, 1700, 1714, 785
4993, 1698, 1709, 799
4994, 801, 1710, 1698
*ELEMENT, type=CPS3, ELSET=Surface276
4995, 1115, 369, 367
4996, 369, 1131, 367
4997, 1106, 367, 1131
4998, 1106, 1132, 368
4999, 368, 1132, 1107
5000, 1123, 369, 1115
5001, 370, 1106, 1131
5002, 370, 1132, 1106
5003, 1107, 370, 1130
5004, 1132, 370, 1107
5005, 1107, 1130, 1108
5006, 1108, 1129, 1109
5007, 1130, 1129, 1108
5008, 1109, 1128, 1110
5009, 1129, 1128, 1109
5010, 1110, 1127, 1111
5011, 1128, 1127, 1110
5012, 1111, 1126, 1112
5013, 1127, 1126, 1111
5014, 1112, 1125, 1113
5015, 1126, 1125, 1112
5016, 1113, 1124, 1114
5017, 1125, 1124, 1113
5018, 1114, 1123, 1115
5019, 1124, 1123, 1114
*ELEMENT, type=CPS3, ELSET=Surface277
5020, 457, 33, 370
5021, 33, 1130, 370
5022, 33, 406, 1130
5023, 34, 1130, 406
5024, 1129, 34, 852
5025, 1129, 1130, 34
5026, 420, 1817, 49
5027, 49, 1760, 855
5028, 49, 1817, 1760
5029, 50, 1755, 420
5030, 447, 1809, 50
5031, 50, 1757, 1755
5032, 50, 1809, 1757
5033, 70, 1733, 447
5034, 450, 1828, 70
5035, 70, 1828, 1733
5036, 71, 1772, 450
5037, 454, 1802, 71
5038, 71, 1802, 1772
5039, 455, 370, 73
5040, 370, 1769, 73
5041, 73, 1731, 454
5042, 73, 1769, 1731
5043, 75, 370, 455
5044, 75, 457, 370
5045, 727, 1827, 163
5046, 163, 1773, 729
5047, 163, 1826, 1773
5048, 163, 1827, 1826
5049, 729, 1782, 164
5050, 164, 1729, 730
5051, 164, 1739, 1729
5052, 164, 1782, 1739
5053, 735, 1730, 169
5054, 169, 1810, 736
5055, 1730, 1736, 169
5056, 1736, 1810, 169
5057, 736, 1774, 173
5058, 173, 1825, 737
5059, 1774, 1825, 173
5060, 725, 1827, 218
5061, 218, 1827, 727
5062, 1125, 725, 219
5063, 1125, 219, 876
5064, 730, 1729, 220
5065, 220, 1759, 732
5066, 1729, 1759, 220
5067, 732, 1734, 221
5068, 221, 1777, 871
5069, 1734, 1777, 221
5070, 733, 1756, 222
5071, 222, 1730, 735
5072, 222, 1756, 1730
5073, 223, 1735, 733
5074, 855, 1775, 223
5075, 223, 1775, 1735
5076, 224, 737, 1127
5077, 738, 224, 1127
5078, 1128, 225, 738
5079, 1128, 852, 225
5080, 246, 1815, 867
5081, 1133, 1787, 246
5082, 1787, 1815, 246
5083, 863, 1789, 247
5084, 247, 1818, 1138
5085, 1789, 1818, 247
5086, 871, 1761, 249
5087, 249, 1829, 956
5088, 1761, 1829, 249
5089, 1124, 876, 255
5090, 962, 1123, 255
5091, 1123, 1124, 255
5092, 949, 1820, 293
5093, 293, 1135, 1008
5094, 293, 1728, 1135
5095, 293, 1820, 1728
5096, 294, 1807, 949
5097, 294, 1009, 1134
5098, 1134, 1747, 294
5099, 1747, 1807, 294
5100, 956, 1785, 298
5101, 298, 1788, 976
5102, 1785, 1788, 298
5103, 369, 301, 979
5104, 301, 369, 1123
5105, 301, 1123, 962
5106, 976, 1788, 314
5107, 1009, 314, 1134
5108, 314, 1788, 1134
5109, 315, 369, 979
5110, 1135, 369, 315
5111, 1135, 315, 1008
5112, 369, 1728, 1131
5113, 1135, 1728, 369
5114, 1131, 1769, 370
5115, 371, 1748, 1133
5116, 1134, 1748, 371
5117, 371, 1795, 1134
5118, 1136, 1795, 371
5119, 1755, 1817, 420
5120, 1733, 1809, 447
5121, 1772, 1828, 450
5122, 1731, 1753, 454
5123, 1753, 1802, 454
5124, 1125, 1126, 725
5125, 1126, 1827, 725
5126, 1773, 1814, 729
5127, 729, 1814, 1782
5128, 732, 1793, 1734
5129, 1759, 1793, 732
5130, 1735, 1756, 733
5131, 736, 1810, 1732
5132, 1732, 1823, 736
5133, 736, 1823, 1774
5134, 737, 1825, 1127
5135, 1128, 738, 1127
5136, 1129, 852, 1128
5137, 1760, 1775, 855
5138, 864, 1821, 863
5139, 863, 1821, 1789
5140, 865, 1797, 864
5141, 1797, 1799, 864
5142, 1799, 1821, 864
5143, 866, 1779, 865
5144, 1779, 1806, 865
5145, 865, 1806, 1797
5146, 867, 1808, 866
5147, 866, 1790, 1779
5148, 866, 1808, 1790
5149, 867, 1815, 1808
5150, 871, 1800, 1761
5151, 1777, 1800, 871
5152, 1124, 1125, 876
5153, 949, 1792, 1758
5154, 1758, 1820, 949
5155, 949, 1807, 1792
5156, 956, 1829, 1785
5157, 1127, 1746, 1126
5158, 1746, 1826, 1126
5159, 1826, 1827, 1126
5160, 1127, 1825, 1746
5161, 1728, 1816, 1131
5162, 1131, 1819, 1769
5163, 1131, 1816, 1796
5164, 1796, 1819, 1131
5165, 1748, 1787, 1133
5166, 1134, 1795, 1747
5167, 1134, 1785, 1748
5168, 1134, 1788, 1785
5169, 1137, 1768, 1136
5170, 1768, 1795, 1136
5171, 1138, 1783, 1137
5172, 1137, 1803, 1768
5173, 1783, 1803, 1137
5174, 1138, 1784, 1783
5175, 1138, 1818, 1784
5176, 1728, 1820, 1816
5177, 1739, 1740, 1729
5178, 1740, 1759, 1729
5179, 1730, 1737, 1736
5180, 1730, 1756, 1737
5181, 1731, 1754, 1753
5182, 1731, 1819, 1754
5183, 1769, 1819, 1731
5184, 1762, 1764, 1732
5185, 1732, 1810, 1762
5186, 1764, 1765, 1732
5187, 1765, 1823, 1732
5188, 1733, 1822, 1809
5189, 1812, 1822, 1733
5190, 1733, 1828, 1812
5191, 1734, 1778, 1777
5192, 1734, 1793, 1778
5193, 1735, 1780, 1756
5194, 1775, 1776, 1735
5195, 1776, 1780, 1735
5196, 1737, 1738, 1736
5197, 1738, 1762, 1736
5198, 1762, 1810, 1736
5199, 1737, 1744, 1738
5200, 1737, 1756, 1744
5201, 1744, 1798, 1738
5202, 1738, 1763, 1762
5203, 1738, 1798, 1763
5204, 1739, 1741, 1740
5205, 1739, 1745, 1741
5206, 1739, 1782, 1745
5207, 1741, 1742, 1740
5208, 1742, 1793, 1740
5209, 1740, 1793, 1759
5210, 1741, 1743, 1742
5211, 1741, 1786, 1743
5212, 1745, 1786, 1741
5213, 1743, 1749, 1742
5214, 1749, 1793, 1742
5215, 1743, 1750, 1749
5216, 1743, 1751, 1750
5217, 1743, 1786, 1751
5218, 1756, 1780, 1744
5219, 1780, 1781, 1744
5220, 1781, 1798, 1744
5221, 1782, 1813, 1745
5222, 1745, 1805, 1786
5223, 1745, 1813, 1805
5224, 1746, 1791, 1773
5225, 1773, 1826, 1746
5226, 1774, 1823, 1746
5227, 1746, 1825, 1774
5228, 1746, 1823, 1791
5229, 1747, 1771, 1770
5230, 1770, 1807, 1747
5231, 1747, 1794, 1771
5232, 1747, 1795, 1794
5233, 1785, 1787, 1748
5234, 1750, 1779, 1749
5235, 1779, 1790, 1749
5236, 1790, 1793, 1749
5237, 1751, 1752, 1750
5238, 1752, 1806, 1750
5239, 1750, 1806, 1779
5240, 1751, 1824, 1752
5241, 1786, 1801, 1751
5242, 1801, 1824, 1751
5243, 1781, 1797, 1752
5244, 1752, 1798, 1781
5245, 1797, 1806, 1752
5246, 1752, 1824, 1798
5247, 1754, 1770, 1753
5248, 1770, 1771, 1753
5249, 1771, 1802, 1753
5250, 1754, 1792, 1770
5251, 1754, 1796, 1792
5252, 1754, 1819, 1796
5253, 1757, 1783, 1755
5254, 1783, 1784, 1755
5255, 1784, 1817, 1755
5256, 1757, 1803, 1783
5257, 1757, 1804, 1803
5258, 1757, 1822, 1804
5259, 1809, 1822, 1757
5260, 1792, 1796, 1758
5261, 1796, 1816, 1758
5262, 1816, 1820, 1758
5263, 1760, 1789, 1775
5264, 1760, 1818, 1789
5265, 1817, 1818, 1760
5266, 1761, 1815, 1787
5267, 1787, 1829, 1761
5268, 1800, 1815, 1761
5269, 1763, 1764, 1762
5270, 1763, 1801, 1764
5271, 1798, 1824, 1763
5272, 1763, 1824, 1801
5273, 1764, 1766, 1765
5274, 1764, 1801, 1766
5275, 1766, 1767, 1765
5276, 1767, 1791, 1765
5277, 1791, 1823, 1765
5278, 1766, 1805, 1767
5279, 1766, 1801, 1786
5280, 1786, 1805, 1766
5281, 1767, 1814, 1791
5282, 1805, 1813, 1767
5283, 1813, 1814, 1767
5284, 1794, 1795, 1768
5285, 1768, 1804, 1794
5286, 1803, 1804, 1768
5287, 1792, 1807, 1770
5288, 1794, 1811, 1771
5289, 1771, 1811, 1802
5290, 1802, 1811, 1772
5291, 1811, 1812, 1772
5292, 1812, 1828, 1772
5293, 1791, 1814, 1773
5294, 1775, 1789, 1776
5295, 1776, 1799, 1780
5296, 1789, 1821, 1776
5297, 1776, 1821, 1799
5298, 1778, 1800, 1777
5299, 1778, 1793, 1790
5300, 1790, 1808, 1778
5301, 1778, 1808, 1800
5302, 1780, 1799, 1781
5303, 1781, 1799, 1797
5304, 1782, 1814, 1813
5305, 1784, 1818, 1817
5306, 1785, 1829, 1787
5307, 1804, 1811, 1794
5308, 1808, 1815, 1800
5309, 1804, 1812, 1811
5310, 1804, 1822, 1812
*ELEMENT, type=CPS3, ELSET=Surface278
5311, 862, 244, 1133
5312, 1133, 244, 1142
5313, 245, 868, 1138
5314, 245, 1138, 1139
5315, 862, 1133, 246
5316, 1138, 868, 247
5317, 1133, 1142, 371
5318, 371, 1141, 1136
5319, 1142, 1141, 371
5320, 1136, 1140, 1137
5321, 1141, 1140, 1136
5322, 1138, 1137, 1139
5323, 1140, 1139, 1137
*ELEMENT, type=CPS3, ELSET=Surface279
5324, 1139, 242, 245
5325, 1078, 242, 1139
5326, 244, 243, 1142
5327, 1142, 243, 1077
5328, 1078, 1830, 1077
5329, 1142, 1077, 1141
5330, 1077, 1830, 1141
5331, 1140, 1078, 1139
5332, 1140, 1830, 1078
5333, 1141, 1830, 1140
*ELEMENT, type=CPS3, ELSET=Surface280
5334, 1, 377, 1834
5335, 1143, 1, 1834
5336, 377, 2, 1832
5337, 2, 1097, 1832
5338, 1003, 341, 1833
5339, 341, 1143, 1833
5340, 342, 1003, 1831
5341, 1097, 342, 1831
5342, 377, 1832, 1834
5343, 1831, 1003, 1833
5344, 1097, 1831, 1832
5345, 1833, 1143, 1834
5346, 1832, 1831, 1833
5347, 1832, 1833, 1834
*ELEMENT, type=CPS3, ELSET=Surface281
5348, 68, 469, 1098
5349, 79, 477, 1098
5350, 475, 79, 1098
5351, 80, 1095, 1839
5352, 483, 80, 1844
5353, 80, 1839, 1844
5354, 327, 1021, 1836
5355, 1089, 327, 1840
5356, 1120, 327, 1836
5357, 327, 1120, 1840
5358, 1122, 1035, 343
5359, 1122, 351, 1029
5360, 1122, 1027, 351
5361, 1092, 366, 1838
5362, 366, 1092, 1843
5363, 366, 1104, 1838
5364, 1116, 366, 1843
5365, 471, 472, 1098
5366, 472, 473, 1098
5367, 1099, 479, 480
5368, 1099, 480, 1835
5369, 480, 481, 1835
5370, 1024, 1025, 1121
5371, 1024, 1121, 1841
5372, 1023, 1024, 1841
5373, 1122, 1031, 1032
5374, 1122, 1032, 1033
5375, 1092, 1091, 1843
5376, 1093, 1092, 1838
5377, 1102, 1101, 1095
5378, 1095, 1101, 1839
5379, 1101, 1100, 1839
5380, 1119, 1089, 1840
5381, 1089, 1119, 1842
5382, 1119, 1118, 1842
5383, 1120, 1119, 1840
5384, 1122, 1029, 1030
5385, 1122, 1030, 1031
5386, 1122, 1033, 1034
5387, 1122, 1034, 1035
5388, 1021, 1022, 1836
5389, 1022, 1023, 1841
5390, 1836, 1022, 1841
5391, 1025, 1026, 1122
5392, 1026, 1027, 1122
5393, 1091, 1090, 1117
5394, 1090, 1118, 1117
5395, 1090, 1089, 1842
5396, 1118, 1090, 1842
5397, 1094, 1093, 1103
5398, 1103, 1102, 1094
5399, 1102, 1095, 1094
5400, 477, 478, 1099
5401, 1099, 478, 479
5402, 481, 482, 1835
5403, 482, 483, 1837
5404, 1835, 482, 1837
5405, 469, 470, 1098
5406, 470, 471, 1098
5407, 473, 474, 1098
5408, 474, 475, 1098
5409, 1098, 477, 1099
5410, 1100, 1099, 1835
5411, 1103, 1093, 1104
5412, 1116, 1091, 1117
5413, 1025, 1122, 1121
5414, 1121, 1120, 1836
5415, 1121, 1836, 1841
5416, 1091, 1116, 1843
5417, 1104, 1093, 1838
5418, 1837, 483, 1844
5419, 1100, 1835, 1837
5420, 1100, 1837, 1844
5421, 1839, 1100, 1844
*ELEMENT, type=CPS3, ELSET=Surface282
5422, 1096, 80, 484
5423, 484, 81, 1144
5424, 329, 328, 1096
5425, 329, 1096, 1144
5426, 1144, 1096, 484
*ELEMENT, type=CPS3, ELSET=Surface283
5427, 1143, 6, 1
5428, 341, 6, 1143
*ELEMENT, type=CPS3, ELSET=Surface284
5429, 27, 1850, 65
5430, 441, 1850, 27
5431, 372, 1845, 64
5432, 64, 1845, 441
5433, 65, 1847, 485
5434, 65, 1850, 1847
5435, 485, 1846, 81
5436, 81, 1848, 1144
5437, 1846, 1849, 81
5438, 81, 1849, 1848
5439, 1144, 373, 329
5440, 1145, 1849, 372
5441, 372, 1846, 1845
5442, 372, 1849, 1846
5443, 1144, 1848, 373
5444, 373, 1848, 1145
5445, 1845, 1847, 441
5446, 1847, 1850, 441
5447, 485, 1847, 1846
5448, 1848, 1849, 1145
5449, 1846, 1847, 1845
*ELEMENT, type=CPS3, ELSET=Surface285
5450, 495, 334, 86
5451, 353, 334, 89
5452, 89, 334, 495
5453, 1038, 333, 994
5454, 1038, 334, 353
5455, 994, 334, 1038
*ELEMENT, type=CPS3, ELSET=Surface286
5456, 423, 6, 341
5457, 341, 355, 52
5458, 52, 423, 341
5459, 1042, 1002, 339
5460, 341, 1002, 355
5461, 355, 1002, 1042
*ELEMENT, type=CPS3, ELSET=Surface287
5462, 51, 1852, 53
5463, 424, 1864, 51
5464, 51, 1864, 1852
5465, 355, 1854, 52
5466, 52, 1864, 424
5467, 1854, 1864, 52
5468, 53, 1855, 486
5469, 1852, 1855, 53
5470, 55, 1851, 56
5471, 488, 1855, 55
5472, 55, 1855, 1851
5473, 56, 1861, 57
5474, 1851, 1861, 56
5475, 57, 1862, 430
5476, 1861, 1862, 57
5477, 58, 1860, 60
5478, 430, 1862, 58
5479, 58, 1865, 1860
5480, 1862, 1865, 58
5481, 60, 84, 492
5482, 60, 1860, 84
5483, 486, 1855, 82
5484, 82, 1855, 488
5485, 84, 1874, 88
5486, 1860, 1874, 84
5487, 88, 1853, 89
5488, 88, 1874, 1853
5489, 89, 1869, 353
5490, 1853, 1869, 89
5491, 1039, 1871, 352
5492, 352, 1868, 1041
5493, 352, 1871, 1868
5494, 353, 1871, 1039
5495, 1869, 1871, 353
5496, 1041, 1866, 354
5497, 354, 1872, 1043
5498, 1866, 1872, 354
5499, 1043, 1872, 355
5500, 355, 1872, 1854
5501, 1041, 1873, 1866
5502, 1868, 1873, 1041
5503, 1855, 1856, 1851
5504, 1856, 1857, 1851
5505, 1857, 1861, 1851
5506, 1852, 1856, 1855
5507, 1852, 1870, 1856
5508, 1864, 1870, 1852
5509, 1865, 1867, 1853
5510, 1853, 1874, 1865
5511, 1867, 1869, 1853
5512, 1854, 1870, 1864
5513, 1854, 1875, 1870
5514, 1872, 1875, 1854
5515, 1856, 1858, 1857
5516, 1856, 1870, 1858
5517, 1858, 1859, 1857
5518, 1859, 1863, 1857
5519, 1857, 1863, 1861
5520, 1858, 1873, 1859
5521, 1870, 1875, 1858
5522, 1858, 1875, 1873
5523, 1859, 1867, 1863
5524, 1859, 1868, 1867
5525, 1859, 1873, 1868
5526, 1865, 1874, 1860
5527, 1861, 1863, 1862
5528, 1863, 1865, 1862
5529, 1863, 1867, 1865
5530, 1866, 1875, 1872
5531, 1873, 1875, 1866
5532, 1868, 1871, 1867
5533, 1867, 1871, 1869
*ELEMENT, type=CPS3, ELSET=Surface288
5534, 63, 1888, 64
5535, 497, 1888, 63
5536, 64, 1894, 372
5537, 1888, 1894, 64
5538, 92, 1886, 91
5539, 91, 1895, 497
5540, 1886, 1895, 91
5541, 374, 1877, 92
5542, 1877, 1886, 92
5543, 329, 1885, 331
5544, 373, 1884, 329
5545, 1884, 1885, 329
5546, 331, 1885, 376
5547, 372, 1878, 1145
5548, 372, 1879, 1878
5549, 372, 1894, 1879
5550, 1145, 1878, 373
5551, 1878, 1884, 373
5552, 1146, 1877, 374
5553, 375, 1890, 1146
5554, 1147, 1890, 375
5555, 376, 1876, 1147
5556, 376, 1885, 1876
5557, 497, 1895, 1888
5558, 1146, 1890, 1877
5559, 1876, 1890, 1147
5560, 1885, 1892, 1876
5561, 1876, 1891, 1890
5562, 1876, 1892, 1891
5563, 1877, 1887, 1886
5564, 1877, 1893, 1887
5565, 1890, 1891, 1877
5566, 1891, 1893, 1877
5567, 1879, 1880, 1878
5568, 1880, 1884, 1878
5569, 1879, 1881, 1880
5570, 1879, 1894, 1881
5571, 1881, 1882, 1880
5572, 1882, 1883, 1880
5573, 1883, 1884, 1880
5574, 1881, 1893, 1882
5575, 1889, 1893, 1881
5576, 1881, 1894, 1889
5577, 1882, 1892, 1883
5578, 1891, 1892, 1882
5579, 1882, 1893, 1891
5580, 1883, 1885, 1884
5581, 1883, 1892, 1885
5582, 1887, 1888, 1886
5583, 1888, 1895, 1886
5584, 1887, 1889, 1888
5585, 1887, 1893, 1889
5586, 1889, 1894, 1888
*ELEMENT, type=CPS3, ELSET=Surface289
5587, 86, 334, 1896
5588, 1148, 86, 1896
5589, 331, 376, 1897
5590, 1036, 331, 1897
5591, 334, 1036, 1897
5592, 1896, 334, 1897
5593, 375, 1148, 1147
5594, 376, 1147, 1896
5595, 376, 1896, 1897
5596, 1147, 1148, 1896
*ELEMENT, type=CPS3, ELSET=Surface290
5597, 1148, 87, 86
5598, 1148, 501, 87
5599, 1146, 374, 92
5600, 1146, 92, 501
5601, 1146, 501, 375
5602, 375, 501, 1148
*ELEMENT, type=CPS3, ELSET=Surface291
5603, 724, 161, 1900
5604, 161, 728, 1900
5605, 165, 713, 1898
5606, 728, 165, 1898
5607, 713, 210, 1899
5608, 210, 719, 1899
5609, 719, 214, 1901
5610, 214, 724, 1901
5611, 1898, 713, 1899
5612, 1899, 719, 1901
5613, 724, 1900, 1901
5614, 728, 1898, 1900
5615, 1898, 1899, 1900
5616, 1900, 1899, 1901
*ELEMENT, type=C3D4, ELSET=Volume1
5617, 1909, 1936, 1933, 2028
5618, 1061, 1048, 1053, 1052
5619, 1916, 1970, 1924, 2068
5620, 1455, 1454, 905, 2003
5621, 1054, 1046, 1059, 1055
5622, 1880, 1879, 1878, 1979
5623, 579, 1921, 2028, 2043
5624, 740, 1450, 185, 1930
5625, 2016, 2085, 1989, 2096
5626, 1315, 1409, 1980, 2030
5627, 749, 1376, 1373, 1377
5628, 1112, 1702, 1113, 2067
5629, 1413, 1955, 1915, 1965
5630, 1721, 1119, 1712, 2015
5631, 525, 526, 1233, 1989
5632, 1413, 1955, 1965, 2041
5633, 1274, 1980, 1946, 1992
5634, 520, 517, 525, 516
5635, 1640, 1091, 1090, 1954
5636, 1967, 2049, 1941, 2097
5637, 1151, 1977, 1931, 2014
5638, 842, 843, 1395, 2122
5639, 844, 1397, 843, 2122
5640, 2, 1284, 1920, 2073
5641, 629, 617, 615, 616
5642, 2010, 2035, 1913, 2102
5643, 1251, 579, 553, 2028
5644, 1941, 1967, 1957, 2049
5645, 1721, 1120, 1119, 2015
5646, 1879, 1921, 1979, 2088
5647, 1495, 276, 911, 1948
5648, 1631, 1669, 1632, 2009
5649, 1339, 1946, 1441, 2004
5650, 527, 1914, 1238, 2096
5651, 1695, 1607, 839, 2130
5652, 525, 517, 526, 1989
5653, 1712, 1118, 1954, 2015
5654, 1701, 1707, 1954, 2001
5655, 1121, 1025, 1024, 1929
5656, 1322, 1946, 1339, 2004
5657, 1838, 1092, 1093, 2024
5658, 1152, 2012, 1931, 2033
5659, 1275, 604, 2128, 2137
5660, 889, 1443, 1442, 1940
5661, 1946, 1274, 1992, 2069
5662, 1921, 1979, 1909, 2028
5663, 380, 1920, 1284, 2014
5664, 1750, 1751, 1743, 2149
5665, 1909, 1933, 1921, 2028
5666, 911, 1494, 1495, 1948
5667, 1960, 1997, 1968, 2138
5668, 1332, 1322, 1339, 2004
5669, 1924, 2034, 1447, 2062
5670, 1666, 1963, 1692, 1970
5671, 2012, 2033, 1870, 2111
5672, 1909, 1968, 2028, 2031
5673, 588, 2010, 1270, 2099
5674, 1930, 2062, 1982, 2071
5675, 1233, 1989, 526, 2096
5676, 1498, 1496, 935, 1956
5677, 1933, 1936, 580, 2028
5678, 1913, 2034, 1982, 2062
5679, 1979, 2028, 1921, 2031
5680, 1940, 1989, 525, 2035
5681, 1448, 1986, 680, 2034
5682, 1657, 1675, 1676, 2091
5683, 1909, 2028, 1979, 2031
5684, 1446, 1445, 893, 1986
5685, 1403, 847, 1405, 2083
5686, 1982, 2034, 1924, 2062
5687, 1540, 1002, 1539, 2073
5688, 53, 7, 8, 1152
5689, 1913, 2010, 1982, 2035
5690, 1447, 2034, 1924, 2055
5691, 1960, 1968, 1269, 2138
5692, 1616, 1645, 1092, 2024
5693, 965, 966, 303, 2110
5694, 1289, 1946, 1274, 2104
5695, 922, 1470, 1471, 2030
5696, 1870, 2013, 2012, 2111
5697, 1470, 1472, 1471, 2030
5698, 1982, 2034, 1913, 2035
5699, 2070, 2103, 1926, 2104
5700, 1938, 1993, 1990, 2047
5701, 380, 2, 1284, 1920
5702, 1852, 1870, 2012, 2033
5703, 1332, 1339, 1441, 2004
5704, 1963, 2047, 1914, 2096
5705, 1931, 2033, 2012, 2111
5706, 1616, 1092, 1091, 2024
5707, 1095, 1096, 80, 2043
5708, 1977, 2128, 604, 2137
5709, 1142, 371, 1141, 1077
5710, 1924, 2034, 1982, 2035
5711, 1389, 824, 823, 1910
5712, 505, 506, 1224, 1670
5713, 1898, 728, 1900, 2022
5714, 1713, 1907, 1107, 2081
5715, 1360, 671, 1418, 1999
5716, 579, 2043, 2028, 2132
5717, 1414, 671, 1359, 1999
5718, 1076, 1985, 1642, 2132
5719, 1117, 1116, 1701, 1954
5720, 553, 1251, 557, 579
5721, 1099, 477, 1098, 2081
5722, 869, 1898, 1899, 2022
5723, 1149, 2012, 1864, 2079
5724, 1631, 1224, 1669, 2009
5725, 1283, 2014, 1977, 2070
5726, 1233, 525, 1989, 2035
5727, 1879, 1979, 1881, 2088
5728, 474, 475, 1191, 1950
5729, 1968, 1973, 1909, 2028
5730, 523, 1229, 1236, 2019
5731, 1692, 1963, 1639, 1970
5732, 888, 891, 1444, 1940
5733, 237, 1496, 1498, 1956
5734, 1940, 2035, 525, 2102
5735, 1629, 262, 892, 2009
5736, 1921, 2028, 2043, 2132
5737, 1856, 1870, 2033, 2111
5738, 1418, 671, 1346, 1999
5739, 1957, 1967, 1941, 2097
5740, 1864, 1149, 1150, 2012
5741, 1269, 535, 1968, 2031
5742, 1696, 1670, 1608, 1224
5743, 1277, 1284, 4, 1294
5744, 1225, 2019, 1663, 2042
5745, 1395, 1393, 842, 2122
5746, 102, 573, 569, 2041
5747, 1858, 1875, 1870, 2111
5748, 1089, 990, 1090, 2015
5749, 1951, 1909, 2031, 2060
5750, 781, 782, 752, 2146
5751, 892, 1444, 264, 1940
5752, 1963, 2016, 1989, 2096
5753, 1879, 1878, 1979, 2050
5754, 1326, 2090, 1333, 2104
5755, 1864, 1152, 1852, 2012
5756, 9, 1987, 1977, 1992
5757, 1925, 1982, 1974, 2010
5758, 345, 1010, 1544, 2110
5759, 1677, 1682, 1659, 1947
5760, 1116, 1091, 1843, 2024
5761, 1913, 1974, 2010, 2102
5762, 1181, 1179, 442, 1933
5763, 1670, 1696, 1684, 506
5764, 1315, 1980, 1409, 2092
5765, 1238, 1914, 527, 2048
5766, 2012, 2014, 1920, 2079
5767, 1938, 2047, 1990, 2114
5768, 1712, 1119, 1118, 2015
5769, 1560, 1019, 1561, 2032
5770, 939, 1517, 1516, 1994
5771, 1879, 1894, 1921, 2088
5772, 1980, 2090, 507, 2104
5773, 1986, 2034, 1913, 2062
5774, 892, 262, 1444, 1940
5775, 357, 1057, 1075, 1958
5776, 1269, 534, 1232, 1968
5777, 1543, 1541, 1006, 2145
5778, 1332, 1441, 1440, 2004
5779, 939, 1515, 1521, 1994
5780, 1980, 1992, 1223, 2063
5781, 2082, 2111, 1931, 2137
5782, 1075, 1044, 357, 1958
5783, 1875, 2012, 1870, 2013
5784, 1672, 1669, 1670, 1224
5785, 1671, 1989, 1224, 2009
5786, 1276, 1977, 2069, 2070
5787, 1913, 1974, 1982, 2010
5788, 1152, 1852, 2012, 2033
5789, 1326, 1320, 1333, 2090
5790, 1283, 379, 2014, 2070
5791, 1121, 1024, 1841, 1905
5792, 1274, 1946, 1289, 2069
5793, 1495, 1496, 936, 1912
5794, 1919, 1966, 1909, 1968
5795, 397, 1955, 1936, 1966
5796, 1987, 2082, 1931, 2137
5797, 1105, 1727, 1715, 1958
5798, 1114, 1704, 1722, 2000
5799, 1987, 2033, 1931, 2082
5800, 508, 1987, 1228, 2108
5801, 1968, 535, 2028, 2031
5802, 1670, 1696, 506, 1224
5803, 1284, 1920, 1287, 2014
5804, 1879, 1979, 1921, 2050
5805, 1963, 1990, 1914, 2047
5806, 394, 20, 1176, 1860
5807, 1270, 2010, 1932, 2099
5808, 1283, 1284, 4, 1277
5809, 1232, 1269, 1968, 2138
5810, 1977, 1992, 1987, 2108
5811, 1430, 1982, 1930, 2062
5812, 1446, 891, 1445, 1986
5813, 841, 842, 1393, 2054
5814, 1909, 1968, 1966, 1973
5815, 1489, 900, 1490, 1923
5816, 2012, 2013, 1931, 2111
5817, 753, 752, 782, 1908
5818, 1238, 2047, 1914, 2048
5819, 1898, 1900, 1899, 2022
5820, 1946, 2092, 1980, 2104
5821, 1360, 1418, 705, 1999
5822, 1448, 893, 1913, 1940
5823, 841, 1677, 1606, 2054
5824, 1639, 1692, 1666, 1963
5825, 1223, 2063, 1992, 2108
5826, 1279, 340, 1001, 1978
5827, 1270, 2010, 588, 2087
5828, 1610, 1684, 1624, 506
5829, 1414, 1359, 705, 1999
5830, 1669, 1631, 1608, 1224
5831, 1869, 1896, 1997, 2060
5832, 1076, 1642, 1985, 2135
5833, 1982, 2007, 1930, 2071
5834, 1931, 2111, 2013, 2137
5835, 531, 1271, 588, 532
5836, 567, 574, 544, 1253
5837, 1909, 1966, 1936, 1973
5838, 1125, 725, 1126, 2120
5839, 523, 524, 1229, 2019
5840, 1339, 1946, 2092, 2152
5841, 340, 1978, 1279, 2073
5842, 895, 1940, 1448, 2034
5843, 538, 1271, 587, 2035
5844, 869, 1581, 1898, 2022
5845, 671, 1414, 853, 1999
5846, 1941, 2049, 1919, 2097
5847, 1338, 1335, 1315, 1980
5848, 1320, 1326, 1319, 2090
5849, 1852, 1856, 1870, 2033
5850, 1335, 1330, 1315, 2030
5851, 1448, 177, 680, 1986
5852, 1629, 892, 1643, 2009
5853, 1706, 789, 788, 2122
5854, 269, 1490, 900, 1923
5855, 590, 534, 1269, 1968
5856, 642, 1313, 643, 1939
5857, 1650, 1096, 1094, 2020
5858, 671, 705, 1359, 1999
5859, 1233, 1234, 2074, 2096
5860, 382, 1931, 2012, 2014
5861, 1360, 705, 671, 1999
5862, 1339, 1946, 1322, 2092
5863, 1424, 1994, 1422, 2006
5864, 1540, 1003, 1002, 2073
5865, 1350, 185, 684, 1916
5866, 1114, 2000, 1123, 2046
5867, 893, 1448, 1913, 1986
5868, 1269, 1968, 1960, 1985
5869, 869, 1581, 731, 1898
5870, 1497, 1498, 935, 1956
5871, 1326, 1319, 2090, 2104
5872, 1913, 1982, 1431, 2062
5873, 382, 1931, 1152, 2012
5874, 1509, 826, 827, 1910
5875, 1963, 1990, 638, 1993
5876, 1229, 1236, 2019, 2138
5877, 869, 1899, 2006, 2022
5878, 1025, 1566, 1024, 1929
5879, 1093, 1650, 1094, 2106
5880, 1423, 1426, 1994, 2006
5881, 1269, 1968, 1985, 2031
5882, 1875, 2013, 1870, 2111
5883, 1936, 1955, 397, 2041
5884, 241, 1470, 1328, 850
5885, 1909, 1951, 1919, 2060
5886, 1980, 2092, 1333, 2104
5887, 1909, 1966, 1919, 2089
5888, 123, 2065, 1926, 2070
5889, 1152, 1931, 383, 2033
5890, 1228, 2049, 1987, 2137
5891, 1666, 1963, 1970, 1990
5892, 1930, 1916, 2062, 2071
5893, 1941, 1957, 392, 2049
5894, 1301, 1303, 1976, 2077
5895, 1240, 1968, 1242, 2138
5896, 1944, 1982, 1925, 2010
5897, 1731, 1753, 1585, 454
5898, 573, 567, 1253, 1990
5899, 935, 818, 237, 1498
5900, 535, 1973, 1968, 2028
5901, 1443, 1442, 1940, 1974
5902, 954, 1517, 939, 1994
5903, 525, 2035, 1235, 2102
5904, 383, 1931, 1987, 2033
5905, 1233, 1235, 525, 2035
5906, 1120, 1721, 1720, 2001
5907, 1963, 2074, 1234, 2096
5908, 1500, 1509, 827, 1910
5909, 784, 1390, 783, 1928
5910, 1639, 1970, 1963, 2055
5911, 510, 1989, 2085, 2096
5912, 1666, 1687, 1963, 1990
5913, 382, 1151, 1931, 2014
5914, 1224, 1989, 511, 2009
5915, 1333, 2090, 1980, 2104
5916, 1921, 2031, 2028, 2132
5917, 1521, 960, 939, 1994
5918, 1322, 2092, 1946, 2104
5919, 1121, 1836, 1120, 1905
5920, 1516, 1517, 942, 1994
5921, 1731, 1753, 1754, 364
5922, 1242, 1968, 1240, 1973
5923, 1967, 2111, 2082, 2137
5924, 986, 1925, 2099, 2141
5925, 1269, 535, 590, 1968
5926, 392, 1941, 1919, 2129
5927, 1919, 1941, 392, 2049
5928, 1455, 684, 1454, 1916
5929, 1151, 1977, 9, 1987
5930, 1884, 1880, 1878, 1979
5931, 1917, 1965, 1915, 2114
5932, 680, 2034, 1986, 2062
5933, 1656, 844, 1611, 2083
5934, 1454, 902, 272, 1916
5935, 1968, 2031, 1909, 2060
5936, 1931, 2082, 2033, 2111
5937, 1233, 2074, 1989, 2096
5938, 380, 1284, 1283, 2014
5939, 1515, 942, 1521, 1994
5940, 380, 377, 1920, 2014
5941, 506, 507, 1222, 1937
5942, 895, 1989, 1940, 2034
5943, 599, 1289, 1274, 2104
5944, 928, 898, 927, 2007
5945, 1751, 1750, 2059, 2149
5946, 1121, 1841, 1836, 1905
5947, 588, 533, 1270, 589
5948, 1271, 587, 531, 588
5949, 1924, 1970, 2055, 2068
5950, 1705, 1713, 1107, 2081
5951, 1418, 1346, 854, 1999
5952, 1909, 1919, 1968, 2060
5953, 1663, 2019, 1635, 2042
5954, 1413, 397, 1955, 2041
5955, 473, 1191, 1189, 1950
5956, 1180, 1181, 442, 1933
5957, 1458, 910, 275, 2121
5958, 142, 1412, 1939, 2114
5959, 1940, 1989, 1617, 2009
5960, 1163, 1999, 1166, 2038
5961, 1617, 895, 1685, 1989
5962, 1909, 1973, 1936, 2028
5963, 474, 1191, 473, 1950
5964, 1270, 2099, 1932, 2119
5965, 1250, 548, 1266, 562
5966, 1416, 1415, 1414, 1999
5967, 873, 1994, 1424, 2006
5968, 1659, 1660, 1658, 2091
5969, 794, 1394, 793, 2054
5970, 377, 2014, 2012, 2079
5971, 1617, 1940, 895, 1989
5972, 1926, 2065, 1277, 2070
5973, 1430, 1930, 1982, 2007
5974, 808, 809, 1497, 1956
5975, 1283, 379, 380, 2014
5976, 2, 1602, 1284, 2073
5977, 507, 599, 1274, 2104
5978, 1696, 1624, 1684, 506
5979, 1447, 1989, 2034, 2055
5980, 1247, 544, 574, 1253
5981, 577, 561, 576, 2086
5982, 1968, 1997, 1918, 2138
5983, 2010, 2099, 1925, 2141
5984, 939, 1516, 942, 1994
5985, 1392, 792, 793, 2054
5986, 1271, 2010, 1231, 2035
5987, 1670, 1669, 1608, 1224
5988, 1304, 1976, 631, 2077
5989, 1670, 600, 1684, 2113
5990, 1416, 1414, 705, 1999
5991, 901, 1450, 271, 1930
5992, 869, 2006, 1586, 2022
5993, 1179, 1181, 67, 1933
5994, 1123, 962, 2000, 2001
5995, 522, 1236, 1242, 2138
5996, 1554, 971, 1557, 1556
5997, 535, 1258, 1973, 2028
5998, 173, 676, 737, 1983
5999, 1232, 1960, 1269, 2138
6000, 1162, 1999, 1164, 2038
6001, 475, 474, 1098, 1907
6002, 1230, 2047, 1963, 2096
6003, 939, 942, 1515, 1994
6004, 1229, 2019, 524, 2099
6005, 1982, 2010, 1271, 2035
6006, 237, 936, 1496, 1956
6007, 1967, 2082, 1987, 2137
6008, 1879, 1881, 1894, 2088
6009, 1915, 1939, 1938, 2048
6010, 575, 576, 563, 2071
6011, 986, 1925, 2042, 2099
6012, 588, 532, 2010, 2099
6013, 1418, 1417, 705, 1999
6014, 1055, 1045, 1058, 1056
6015, 1379, 827, 826, 1910
6016, 1338, 1980, 1315, 2092
6017, 1586, 2006, 1994, 2022
6018, 873, 1423, 1994, 2006
6019, 937, 1497, 935, 1956
6020, 986, 2019, 1932, 2099
6021, 895, 265, 1448, 1940
6022, 1401, 1403, 787, 2083
6023, 898, 928, 269, 2007
6024, 1579, 2032, 991, 2148
6025, 1284, 4, 380, 1283
6026, 1879, 1880, 1881, 1979
6027, 1989, 2074, 1963, 2096
6028, 1968, 2061, 1242, 2138
6029, 906, 573, 1962, 1995
6030, 321, 1932, 986, 2019
6031, 1617, 1989, 1671, 2009
6032, 333, 994, 1535, 1997
6033, 809, 810, 1497, 1956
6034, 910, 1458, 909, 2121
6035, 392, 1957, 1941, 2129
6036, 1997, 2060, 1918, 2097
6037, 1977, 2014, 1276, 2128
6038, 728, 1900, 2022, 2045
6039, 1671, 1224, 1631, 2009
6040, 1441, 1946, 658, 2004
6041, 1987, 2049, 1228, 2108
6042, 2049, 2061, 1919, 2097
6043, 913, 933, 934, 1912
6044, 1712, 1118, 1707, 1954
6045, 502, 503, 1227, 2098
6046, 2013, 2111, 2098, 2137
6047, 1229, 2019, 2119, 2138
6048, 869, 870, 1586, 2006
6049, 870, 1994, 1586, 2006
6050, 1684, 1610, 600, 506
6051, 1448, 265, 893, 1940
6052, 1823, 1791, 1765, 2150
6053, 986, 1635, 1618, 2019
6054, 1447, 1989, 895, 2034
6055, 1251, 2028, 535, 2031
6056, 1916, 575, 1970, 2068
6057, 1955, 1966, 397, 2115
6058, 380, 377, 2, 1920
6059, 1317, 1323, 1937, 2039
6060, 1987, 1992, 11, 2108
6061, 1721, 2001, 1120, 2015
6062, 93, 604, 1977, 2069
6063, 534, 589, 590, 1269
6064, 1319, 1314, 2090, 2144
6065, 1093, 1092, 1645, 2024
6066, 512, 2019, 1225, 2042
6067, 1028, 1006, 1010, 2110
6068, 1914, 1993, 1963, 2016
6069, 624, 1410, 1992, 2108
6070, 646, 1277, 4, 1294
6071, 1276, 1977, 1283, 2014
6072, 419, 417, 2038, 2133
6073, 1521, 942, 1520, 1994
6074, 1089, 990, 2015, 2134
6075, 529, 1268, 585, 2047
6076, 123, 1298, 1926, 2112
6077, 1979, 2031, 1921, 2132
6078, 934, 403, 913, 2131
6079, 1923, 2003, 1902, 2072
6080, 1764, 1766, 1801, 2149
6081, 1228, 508, 93, 1987
6082, 176, 749, 1373, 1377
6083, 522, 1242, 2061, 2138
6084, 9, 1992, 1977, 2152
6085, 1269, 1985, 535, 2031
6086, 1538, 1001, 340, 1978
6087, 1521, 1520, 1522, 1994
6088, 942, 1517, 1519, 1994
6089, 986, 2099, 1932, 2141
6090, 1418, 1419, 1417, 1999
6091, 1636, 1225, 1663, 2042
6092, 1270, 1932, 2010, 2087
6093, 1977, 1987, 93, 2108
6094, 684, 902, 1454, 1916
6095, 1658, 1675, 1657, 2091
6096, 1336, 1322, 1332, 2004
6097, 173, 675, 676, 1983
6098, 732, 166, 711, 2026
6099, 810, 811, 1497, 1956
6100, 1224, 1671, 510, 1989
6101, 1913, 1974, 1431, 1982
6102, 385, 1987, 1967, 2082
6103, 1670, 505, 1672, 1224
6104, 1126, 1127, 1111, 2123
6105, 1951, 2060, 2031, 2118
6106, 1564, 1566, 1025, 1929
6107, 1234, 1963, 530, 2074
6108, 129, 2077, 1285, 2103
6109, 1374, 678, 1375, 750
6110, 1389, 1387, 824, 1910
6111, 778, 777, 781, 2146
6112, 1301, 1976, 2052, 2077
6113, 1914, 1990, 1963, 1993
6114, 531, 587, 1271, 2035
6115, 1283, 4, 380, 379
6116, 93, 1977, 1992, 2069
6117, 1168, 1169, 424, 381
6118, 1659, 1606, 1677, 1947
6119, 1346, 1999, 671, 2142
6120, 934, 933, 283, 1912
6121, 1383, 800, 1406, 1949
6122, 1242, 1968, 1973, 2061
6123, 1276, 1283, 1977, 2070
6124, 1932, 2099, 2010, 2141
6125, 1940, 2034, 1989, 2035
6126, 1091, 1092, 1843, 2024
6127, 1230, 1238, 1241, 2047
6128, 1684, 600, 1610, 2113
6129, 1447, 266, 1989, 2055
6130, 1666, 1990, 1970, 2091
6131, 1898, 1581, 728, 2022
6132, 1869, 1941, 1896, 2060
6133, 1872, 2013, 1978, 2079
6134, 531, 1271, 1231, 2035
6135, 1702, 1724, 1113, 2067
6136, 825, 824, 1387, 1910
6137, 928, 1923, 269, 2007
6138, 902, 684, 185, 1916
6139, 377, 1920, 2014, 2079
6140, 854, 419, 1999, 2142
6141, 1238, 1241, 2047, 2048
6142, 895, 1447, 266, 1989
6143, 478, 1099, 479, 2080
6144, 1688, 265, 1617, 1940
6145, 1279, 1284, 1602, 2073
6146, 1364, 1421, 719, 2006
6147, 384, 2033, 1987, 2082
6148, 530, 1272, 586, 531
6149, 1977, 93, 1992, 2108
6150, 1687, 1666, 1667, 1990
6151, 1455, 1916, 1454, 2003
6152, 123, 1926, 628, 2070
6153, 624, 1992, 2063, 2108
6154, 1974, 1925, 2010, 2102
6155, 1371, 1369, 745, 1372
6156, 1727, 1105, 366, 1958
6157, 2055, 2068, 1970, 2074
6158, 264, 1643, 892, 2009
6159, 1135, 1008, 315, 1971
6160, 965, 1911, 966, 2110
6161, 1978, 2013, 1920, 2079
6162, 1230, 1990, 1963, 2047
6163, 1229, 1232, 1236, 2138
6164, 1963, 2055, 1970, 2074
6165, 1644, 262, 1629, 2151
6166, 906, 1680, 1689, 1962
6167, 1449, 266, 1447, 2055
6168, 1703, 2017, 1984, 2084
6169, 1443, 1940, 889, 2005
6170, 442, 26, 1180, 1933
6171, 1147, 2060, 2078, 2117
6172, 1916, 1924, 1348, 2062
6173, 2013, 2128, 1931, 2137
6174, 1940, 1913, 2034, 2035
6175, 1951, 1909, 1979, 2031
6176, 986, 2042, 2019, 2099
6177, 870, 248, 1994, 2006
6178, 1650, 2020, 1094, 2106
6179, 1495, 936, 283, 1912
6180, 646, 1277, 2065, 2070
6181, 1987, 2049, 1967, 2137
6182, 658, 2004, 1946, 2070
6183, 1936, 1966, 1955, 1973
6184, 1498, 813, 814, 1956
6185, 1272, 586, 531, 587
6186, 869, 719, 1421, 2006
6187, 812, 1497, 811, 1956
6188, 1519, 1517, 1518, 1994
6189, 823, 1380, 1389, 1949
6190, 1617, 1671, 1631, 2009
6191, 1916, 2068, 1924, 2071
6192, 1896, 1897, 1997, 2060
6193, 1733, 1828, 70, 2027
6194, 1176, 20, 434, 1860
6195, 600, 1670, 1684, 506
6196, 1301, 2077, 2052, 2112
6197, 1939, 1938, 2048, 2063
6198, 471, 472, 1189, 2066
6199, 1498, 814, 815, 1956
6200, 1921, 2023, 1879, 2050
6201, 1938, 1914, 1993, 2047
6202, 671, 1999, 853, 2142
6203, 1960, 2064, 1997, 2138
6204, 1673, 1670, 1684, 2113
6205, 1887, 1877, 1886, 2117
6206, 1990, 2047, 1965, 2114
6207, 1228, 1967, 2049, 2137
6208, 1944, 1974, 1925, 1982
6209, 1695, 838, 1627, 2130
6210, 1918, 1997, 1536, 2064
6211, 1863, 1859, 1967, 2097
6212, 1275, 93, 604, 2137
6213, 578, 1985, 1076, 2132
6214, 1661, 1660, 1659, 2091
6215, 123, 625, 1298, 2112
6216, 1915, 1939, 1412, 2114
6217, 498, 1212, 1213, 1945
6218, 1498, 815, 816, 1956
6219, 1854, 2013, 1872, 2079
6220, 1909, 1951, 1979, 2088
6221, 538, 1924, 2035, 2074
6222, 1721, 1712, 2001, 2015
6223, 1282, 1285, 2077, 2103
6224, 1090, 1842, 1089, 2015
6225, 1647, 1625, 1620, 2101
6226, 1328, 1470, 241, 918
6227, 1282, 1926, 1277, 2070
6228, 1229, 2119, 1232, 2138
6229, 641, 1310, 1311, 1938
6230, 1918, 1997, 1968, 2060
6231, 1863, 1967, 1957, 2097
6232, 1282, 1277, 1926, 2065
6233, 1298, 1297, 1299, 2112
6234, 1681, 1642, 1985, 2132
6235, 1635, 2019, 986, 2042
6236, 1441, 1339, 658, 1946
6237, 1854, 2012, 2013, 2079
6238, 11, 1987, 9, 1992
6239, 1235, 2099, 524, 2102
6240, 1977, 2069, 604, 2128
6241, 513, 1663, 1225, 2019
6242, 1856, 1858, 1870, 2111
6243, 48, 1999, 419, 2038
6244, 1498, 816, 817, 1956
6245, 1298, 625, 1297, 2112
6246, 987, 988, 321, 1932
6247, 2069, 2070, 1977, 2152
6248, 1431, 1986, 1913, 2062
6249, 35, 407, 1999, 2038
6250, 1430, 1432, 1982, 2062
6251, 1617, 1685, 1671, 1989
6252, 1657, 1676, 1981, 2091
6253, 1936, 1973, 1258, 2028
6254, 839, 1607, 840, 2054
6255, 843, 842, 1662, 1947
6256, 1977, 2070, 5, 2152
6257, 644, 1939, 1915, 2063
6258, 1447, 178, 1449, 2055
6259, 1611, 1657, 1656, 1947
6260, 949, 1758, 1792, 364
6261, 1388, 783, 1381, 2025
6262, 380, 1602, 4, 1284
6263, 1920, 2013, 2012, 2079
6264, 454, 1731, 73, 1961
6265, 1230, 530, 1234, 1963
6266, 812, 813, 1497, 1956
6267, 1939, 2039, 1938, 2063
6268, 1932, 2019, 321, 2101
6269, 407, 2038, 408, 2133
6270, 728, 1048, 1927, 2045
6271, 1260, 555, 580, 2136
6272, 826, 1387, 1379, 1910
6273, 806, 937, 1497, 807
6274, 826, 825, 1387, 1910
6275, 509, 1980, 1223, 2063
6276, 1164, 1999, 413, 2038
6277, 2012, 2013, 1920, 2014
6278, 1413, 1915, 1411, 1965
6279, 1165, 417, 463, 2038
6280, 367, 369, 1115, 2001
6281, 226, 1452, 740, 1930
6282, 817, 818, 1498, 1956
6283, 840, 1607, 1677, 2054
6284, 1352, 686, 187, 2121
6285, 1738, 1737, 1736, 2059
6286, 1884, 1979, 1878, 2050
6287, 67, 443, 1179, 1975
6288, 671, 853, 1344, 2142
6289, 1863, 2082, 1967, 2111
6290, 1151, 5, 1977, 2014
6291, 1894, 1879, 1921, 2023
6292, 1052, 1051, 1062, 1972
6293, 898, 929, 927, 2007
6294, 1187, 1165, 463, 2038
6295, 1966, 1968, 1919, 2061
6296, 1380, 823, 822, 1949
6297, 573, 1253, 543, 1246
6298, 1289, 2069, 1946, 2070
6299, 1427, 1348, 1433, 2062
6300, 1750, 1752, 1751, 2059
6301, 1446, 893, 1940, 1986
6302, 1853, 1865, 1941, 2097
6303, 556, 1261, 1244, 2028
6304, 363, 1616, 1091, 2024
6305, 1428, 680, 1986, 2062
6306, 176, 1375, 678, 750
6307, 1489, 271, 900, 1923
6308, 1489, 1490, 1491, 2021
6309, 966, 1911, 965, 2145
6310, 1223, 94, 2063, 2108
6311, 413, 1999, 1163, 2038
6312, 1181, 444, 67, 2127
6313, 1921, 1933, 1909, 2089
6314, 538, 1982, 1271, 2035
6315, 93, 1228, 1987, 2137
6316, 639, 1309, 641, 1993
6317, 2010, 2086, 1932, 2141
6318, 1636, 1663, 1635, 2042
6319, 1229, 1237, 1232, 2119
6320, 1616, 1640, 363, 1091
6321, 529, 1955, 1268, 2047
6322, 1939, 1938, 2039, 2076
6323, 1289, 1926, 2070, 2103
6324, 585, 530, 529, 1990
6325, 1931, 2013, 2012, 2014
6326, 538, 2068, 1924, 2074
6327, 1317, 2039, 1937, 2116
6328, 1618, 1635, 1663, 2019
6329, 1530, 1529, 973, 1988
6330, 1079, 1999, 365, 2133
6331, 1412, 694, 1474, 1939
6332, 1960, 2119, 2019, 2138
6333, 1871, 1869, 1997, 2097
6334, 990, 325, 1640, 2135
6335, 1937, 2039, 1323, 2090
6336, 552, 1251, 1252, 1985
6337, 1692, 1613, 1666, 1970
6338, 683, 1981, 1916, 2003
6339, 798, 1709, 799, 1964
6340, 979, 301, 369, 2001
6341, 577, 1579, 103, 2093
6342, 1442, 888, 1940, 1986
6343, 1620, 1960, 332, 1985
6344, 1432, 1431, 1982, 2062
6345, 1706, 788, 1942, 2122
6346, 503, 2013, 998, 2098
6347, 1448, 1940, 1913, 2034
6348, 126, 1440, 1441, 2004
6349, 1457, 1456, 686, 1917
6350, 840, 1677, 841, 2054
6351, 394, 1945, 1860, 2129
6352, 1880, 1882, 1881, 1979
6353, 1899, 1900, 1901, 2022
6354, 68, 446, 1713, 1907
6355, 1079, 1999, 419, 2142
6356, 1288, 1279, 1001, 1978
6357, 1674, 1285, 1697, 2113
6358, 1308, 1993, 639, 2076
6359, 1230, 529, 530, 1990
6360, 1963, 1989, 1646, 2055
6361, 2036, 2090, 1937, 2144
6362, 1654, 1626, 2019, 2101
6363, 823, 824, 1502, 1910
6364, 1198, 482, 483, 2125
6365, 932, 1493, 236, 766
6366, 1715, 1727, 1104, 1958
6367, 1863, 1967, 1859, 2111
6368, 507, 2090, 2036, 2104
6369, 1381, 783, 1390, 1928
6370, 1261, 554, 1244, 2028
6371, 535, 590, 1968, 1973
6372, 1654, 2019, 1694, 2101
6373, 895, 1617, 265, 1940
6374, 1181, 1180, 444, 1933
6375, 1230, 1963, 1234, 2096
6376, 1496, 936, 1912, 1956
6377, 1212, 493, 498, 1213
6378, 1344, 1346, 671, 2142
6379, 538, 1272, 2068, 2074
6380, 1020, 1560, 1561, 1922
6381, 1863, 1857, 2082, 2111
6382, 1498, 1497, 813, 1956
6383, 1654, 1694, 1626, 2101
6384, 1938, 2039, 1914, 2048
6385, 1946, 1992, 1980, 2092
6386, 925, 1474, 1475, 2011
6387, 2036, 2090, 1319, 2104
6388, 1393, 792, 1392, 2054
6389, 1718, 1717, 1101, 2107
6390, 2, 1602, 380, 1284
6391, 1421, 869, 210, 719
6392, 1743, 1749, 1750, 1589
6393, 1232, 534, 1240, 1968
6394, 1960, 1985, 1620, 2094
6395, 1242, 1973, 1966, 2061
6396, 877, 1994, 2022, 2046
6397, 530, 1963, 1230, 1990
6398, 644, 1412, 1915, 1939
6399, 1448, 1913, 1986, 2034
6400, 1863, 1957, 1865, 2097
6401, 1430, 2007, 1982, 2109
6402, 1099, 478, 477, 2081
6403, 1243, 580, 555, 2136
6404, 1253, 567, 574, 1990
6405, 1990, 1993, 1914, 2047
6406, 340, 1539, 1538, 1978
6407, 1989, 2016, 635, 2085
6408, 826, 1509, 1501, 1910
6409, 345, 1028, 1010, 2110
6410, 1712, 1954, 2001, 2015
6411, 128, 1301, 1976, 2052
6412, 1543, 1542, 1541, 2145
6413, 1159, 1966, 1919, 2049
6414, 1334, 1338, 1315, 2092
6415, 1233, 2035, 1989, 2074
6416, 505, 506, 1670, 600
6417, 1863, 1865, 1867, 2097
6418, 1151, 383, 382, 1931
6419, 1851, 2033, 1153, 2082
6420, 1529, 313, 974, 2005
6421, 1774, 1073, 1823, 736
6422, 1679, 1674, 1697, 2113
6423, 1871, 1997, 1918, 2097
6424, 1152, 382, 383, 1931
6425, 1253, 540, 1965, 1990
6426, 870, 1994, 954, 2147
6427, 1607, 1683, 1682, 1962
6428, 1337, 1935, 1324, 2039
6429, 1285, 1697, 1615, 1286
6430, 1234, 2035, 1233, 2074
6431, 1278, 1978, 337, 2013
6432, 528, 1966, 1242, 1973
6433, 2043, 2050, 484, 2100
6434, 389, 392, 1957, 2049
6435, 1893, 1891, 1877, 2117
6436, 1870, 1864, 1852, 2012
6437, 138, 1308, 639, 2076
6438, 873, 1519, 251, 1994
6439, 1096, 484, 80, 2043
6440, 1409, 1980, 849, 2092
6441, 1857, 1851, 2082, 2111
6442, 1769, 1731, 1819, 1961
6443, 1400, 1402, 836, 1964
6444, 1475, 1474, 196, 2011
6445, 826, 1501, 825, 1910
6446, 1932, 2087, 1270, 2119
6447, 249, 1586, 956, 1829
6448, 1863, 1867, 1859, 2097
6449, 646, 2065, 123, 2070
6450, 252, 1520, 873, 1994
6451, 658, 1946, 1339, 2152
6452, 960, 939, 1994, 2147
6453, 1193, 1192, 1189, 1950
6454, 869, 1586, 1581, 2022
6455, 1071, 2022, 1994, 2046
6456, 1920, 1978, 1290, 2013
6457, 791, 1393, 1395, 2122
6458, 510, 511, 1224, 1989
6459, 539, 2068, 1272, 2074
6460, 894, 1604, 264, 2009
6461, 1863, 1957, 1967, 2082
6462, 1363, 1425, 717, 2006
6463, 93, 1987, 508, 2108
6464, 836, 1402, 835, 1964
6465, 1754, 1770, 1792, 364
6466, 1239, 1230, 1241, 2047
6467, 248, 1422, 1994, 2006
6468, 1545, 1007, 1546, 1991
6469, 392, 1919, 2018, 2129
6470, 647, 628, 2004, 2070
6471, 1073, 1343, 172, 700
6472, 1230, 529, 1990, 2047
6473, 532, 1237, 2010, 2099
6474, 1914, 2047, 1938, 2048
6475, 1939, 1935, 2011, 2063
6476, 1324, 1935, 1335, 1980
6477, 1853, 1867, 1865, 2097
6478, 275, 1494, 911, 1948
6479, 757, 1485, 1477, 2025
6480, 854, 1999, 1346, 2142
6481, 1364, 717, 1421, 2006
6482, 1925, 1944, 1525, 1974
6483, 1931, 2014, 1977, 2128
6484, 1909, 1979, 1921, 2089
6485, 471, 1189, 1190, 2066
6486, 1301, 127, 1303, 2077
6487, 1165, 414, 1163, 2038
6488, 1240, 1968, 534, 1973
6489, 1979, 2088, 1921, 2089
6490, 1642, 1655, 1985, 2135
6491, 680, 1447, 2034, 2062
6492, 1187, 414, 1165, 2038
6493, 1647, 1620, 2094, 2101
6494, 1425, 1423, 717, 2006
6495, 1765, 1767, 1766, 2150
6496, 1970, 2091, 1990, 2139
6497, 1424, 1421, 717, 2006
6498, 283, 934, 1912, 1984
6499, 1750, 1743, 1589, 2149
6500, 1053, 1060, 1575, 1061
6501, 1002, 1978, 1539, 2073
6502, 1415, 853, 1414, 1999
6503, 178, 1924, 1447, 2062
6504, 254, 1994, 1426, 2006
6505, 1951, 2031, 1979, 2118
6506, 600, 1670, 505, 2113
6507, 1059, 1054, 1060, 1574
6508, 366, 1105, 1725, 1958
6509, 1318, 2011, 1935, 2039
6510, 1490, 931, 1491, 2021
6511, 177, 1428, 680, 1986
6512, 321, 986, 1618, 2019
6513, 839, 838, 1695, 2130
6514, 869, 871, 1581, 1586
6515, 414, 1161, 1164, 2038
6516, 1611, 843, 1662, 1947
6517, 1955, 1966, 528, 1973
6518, 793, 1394, 1392, 2054
6519, 1901, 1900, 875, 2022
6520, 1455, 903, 184, 1916
6521, 1900, 1901, 875, 724
6522, 180, 1924, 1916, 1970
6523, 269, 928, 1490, 1923
6524, 407, 853, 1999, 2142
6525, 1186, 1161, 414, 2038
6526, 842, 1606, 1662, 1947
6527, 538, 2035, 587, 2074
6528, 1672, 505, 1670, 2113
6529, 502, 2128, 2013, 2137
6530, 1523, 1991, 1922, 2140
6531, 585, 1990, 529, 2047
6532, 1179, 443, 66, 2100
6533, 509, 1980, 2063, 2090
6534, 1319, 2090, 2036, 2144
6535, 220, 1729, 730, 2026
6536, 1992, 2069, 1977, 2152
6537, 1939, 2039, 2011, 2076
6538, 849, 1980, 1992, 2092
6539, 1623, 1617, 1631, 2009
6540, 794, 795, 1396, 2130
6541, 740, 1451, 1450, 1930
6542, 539, 1970, 1963, 1990
6543, 1460, 1458, 275, 2121
6544, 1285, 1674, 1280, 2113
6545, 94, 508, 1228, 2108
6546, 1074, 458, 72, 1214
6547, 1149, 1, 2012, 2079
6548, 1731, 1585, 1753, 364
6549, 1626, 321, 2019, 2101
6550, 11, 1154, 9, 1987
6551, 546, 2068, 1254, 2139
6552, 1802, 1753, 454, 1998
6553, 250, 248, 1422, 1994
6554, 1663, 513, 1654, 2019
6555, 1285, 1638, 1286, 2077
6556, 1290, 1920, 2013, 2014
6557, 834, 835, 1404, 1964
6558, 1586, 1994, 1071, 2022
6559, 539, 1970, 1990, 2139
6560, 1333, 1320, 1324, 2090
6561, 1192, 1193, 1194, 1950
6562, 1166, 1165, 1163, 2038
6563, 1666, 1667, 1990, 2091
6564, 728, 1072, 729, 1927
6565, 1455, 184, 684, 1916
6566, 375, 501, 1146, 2078
6567, 644, 2108, 2063, 2115
6568, 1074, 454, 1731, 364
6569, 686, 1456, 909, 1917
6570, 927, 1724, 282, 1959
6571, 237, 1498, 818, 1956
6572, 513, 1654, 2019, 2064
6573, 1274, 93, 1992, 2069
6574, 624, 2063, 644, 2108
6575, 1585, 1731, 454, 364
6576, 332, 1997, 1960, 2064
6577, 576, 2007, 1982, 2071
6578, 304, 1011, 1546, 2140
6579, 254, 253, 1426, 1994
6580, 2034, 2035, 1924, 2074
6581, 586, 1963, 539, 2074
6582, 1472, 1469, 1468, 1935
6583, 1926, 2004, 628, 2070
6584, 1922, 1944, 1523, 2141
6585, 9, 1977, 1340, 2152
6586, 454, 1074, 452, 1998
6587, 1925, 2099, 2010, 2102
6588, 1071, 1994, 1972, 2046
6589, 503, 504, 1225, 1651
6590, 283, 933, 1495, 1912
6591, 2098, 2111, 1967, 2137
6592, 996, 1536, 1997, 2064
6593, 528, 1966, 1955, 2115
6594, 888, 891, 1940, 1986
6595, 1166, 1999, 48, 2038
6596, 413, 40, 1416, 1999
6597, 1339, 2092, 659, 2152
6598, 1298, 1299, 1926, 2112
6599, 845, 1656, 1630, 2083
6600, 869, 713, 1899, 1898
6601, 1166, 44, 48, 1999
6602, 194, 1315, 1409, 2092
6603, 94, 509, 1223, 2063
6604, 1447, 1924, 178, 2055
6605, 1324, 1335, 1338, 1980
6606, 1989, 2034, 1924, 2074
6607, 679, 176, 678, 750
6608, 1938, 1993, 1914, 2076
6609, 378, 2012, 377, 2014
6610, 1692, 1639, 267, 1970
6611, 1232, 1968, 1240, 2138
6612, 413, 1417, 42, 1999
6613, 1707, 1115, 1712, 2001
6614, 1287, 1978, 1920, 2073
6615, 1617, 1688, 1940, 2009
6616, 1235, 1231, 2099, 2102
6617, 1697, 1295, 1615, 1286
6618, 1333, 1336, 1326, 2104
6619, 987, 1932, 321, 2101
6620, 1913, 2035, 1940, 2102
6621, 891, 1446, 1940, 1986
6622, 1164, 1161, 1162, 2038
6623, 536, 1252, 1985, 2093
6624, 2013, 2014, 1931, 2128
6625, 1202, 476, 484, 2100
6626, 1533, 981, 1534, 1988
6627, 728, 2022, 1581, 2045
6628, 530, 586, 1963, 1990
6629, 1535, 993, 333, 1997
6630, 1378, 783, 1386, 2025
6631, 719, 869, 1899, 2006
6632, 841, 1393, 1392, 2054
6633, 1426, 1423, 1425, 2006
6634, 321, 986, 1932, 2141
6635, 1507, 1502, 1501, 1910
6636, 454, 1074, 1731, 1961
6637, 525, 1940, 511, 1989
6638, 1272, 538, 587, 2074
6639, 1656, 845, 844, 2083
6640, 1329, 1335, 1324, 1935
6641, 161, 723, 1900, 2045
6642, 1915, 1955, 1413, 2115
6643, 1989, 2035, 2034, 2074
6644, 1223, 509, 507, 1980
6645, 1422, 1421, 1424, 2006
6646, 1340, 1977, 5, 2152
6647, 1284, 1287, 1283, 2014
6648, 1238, 527, 1241, 2048
6649, 870, 871, 869, 1586
6650, 1819, 1958, 1769, 1961
6651, 1397, 1395, 843, 2122
6652, 2039, 2048, 1938, 2063
6653, 1960, 2094, 1620, 2101
6654, 1887, 1886, 2088, 2117
6655, 1863, 1859, 1857, 2111
6656, 1233, 1230, 1234, 2096
6657, 2052, 2077, 1976, 2103
6658, 1497, 807, 808, 1956
6659, 585, 1268, 540, 2047
6660, 514, 522, 2061, 2138
6661, 363, 1091, 1640, 1954
6662, 909, 187, 686, 2121
6663, 70, 69, 447, 1998
6664, 1935, 2039, 2011, 2063
6665, 1011, 1545, 1546, 2140
6666, 1742, 1749, 1743, 1589
6667, 556, 579, 1261, 2028
6668, 1946, 1992, 2092, 2152
6669, 1096, 1144, 484, 2043
6670, 795, 1708, 796, 1953
6671, 509, 2063, 2039, 2090
6672, 1412, 142, 1353, 2114
6673, 1985, 2031, 1681, 2132
6674, 1560, 326, 989, 1922
6675, 1712, 1954, 1707, 2001
6676, 282, 1959, 1724, 2067
6677, 575, 2091, 1970, 2139
6678, 1935, 1939, 144, 2063
6679, 1921, 2088, 2023, 2089
6680, 1620, 1694, 1960, 2101
6681, 1100, 1839, 1844, 2125
6682, 161, 728, 1927, 2045
6683, 898, 269, 1930, 2007
6684, 733, 1756, 1735, 2058
6685, 899, 898, 269, 1930
6686, 1936, 397, 1969, 2041
6687, 1873, 2098, 2013, 2111
6688, 526, 1989, 517, 2096
6689, 512, 524, 2019, 2099
6690, 1655, 2094, 1985, 2135
6691, 1027, 1122, 351, 1929
6692, 2060, 2061, 1918, 2097
6693, 1277, 1294, 646, 2065
6694, 1618, 1626, 321, 2019
6695, 1443, 1974, 1940, 2005
6696, 2019, 2064, 1694, 2101
6697, 1024, 1566, 1568, 2134
6698, 984, 317, 1609, 2042
6699, 366, 1116, 1843, 2024
6700, 991, 990, 989, 2032
6701, 1037, 352, 1868, 1041
6702, 2033, 2082, 1851, 2111
6703, 1290, 2014, 2013, 2128
6704, 1564, 1025, 1026, 1929
6705, 1400, 836, 837, 2130
6706, 1966, 1973, 1968, 2061
6707, 2052, 2077, 1926, 2112
6708, 728, 1048, 1072, 1927
6709, 590, 534, 1968, 1973
6710, 525, 517, 519, 526
6711, 1665, 1667, 1666, 2091
6712, 1938, 1915, 2047, 2114
6713, 1865, 1957, 1941, 2097
6714, 1639, 267, 1970, 2055
6715, 530, 585, 586, 1990
6716, 340, 1603, 1279, 1001
6717, 1610, 1280, 1674, 2113
6718, 604, 2069, 107, 2128
6719, 1400, 797, 1402, 1964
6720, 514, 2061, 1918, 2138
6721, 573, 1253, 1965, 1990
6722, 318, 986, 320, 2141
6723, 989, 1019, 1560, 2032
6724, 1076, 2094, 2093, 2135
6725, 1951, 2078, 2060, 2117
6726, 1418, 854, 1419, 1999
6727, 1579, 1571, 991, 2032
6728, 1431, 1428, 1986, 2062
6729, 1337, 1318, 1935, 2039
6730, 1538, 1539, 339, 1978
6731, 1586, 1972, 1994, 2147
6732, 1162, 35, 37, 1999
6733, 528, 1955, 2048, 2115
6734, 144, 1939, 1935, 2011
6735, 644, 144, 1939, 2063
6736, 1091, 1954, 363, 2024
6737, 1485, 757, 758, 2025
6738, 1252, 1249, 551, 2093
6739, 1511, 274, 908, 1948
6740, 1364, 1421, 210, 719
6741, 365, 1999, 1079, 2142
6742, 1631, 1632, 1623, 2009
6743, 1944, 2010, 1925, 2141
6744, 837, 836, 1689, 1962
6745, 1333, 1980, 1338, 2092
6746, 1680, 1627, 1689, 1962
6747, 1921, 1894, 2023, 2088
6748, 1997, 2064, 1918, 2138
6749, 1425, 1901, 875, 2006
6750, 786, 1706, 787, 1942
6751, 1309, 1938, 641, 1993
6752, 586, 530, 1963, 2074
6753, 1921, 2050, 2043, 2100
6754, 35, 1999, 1162, 2038
6755, 1742, 1743, 1741, 2149
6756, 1289, 599, 2036, 2104
6757, 421, 420, 50, 1998
6758, 1083, 1097, 342, 2073
6759, 1116, 1117, 1091, 1954
6760, 502, 2013, 2098, 2137
6761, 1914, 2016, 1963, 2096
6762, 603, 1273, 104, 1955
6763, 484, 2043, 1144, 2050
6764, 1966, 1919, 2049, 2061
6765, 1939, 2048, 1915, 2063
6766, 158, 1334, 1315, 2092
6767, 514, 2049, 1967, 2097
6768, 1164, 413, 1163, 2038
6769, 1412, 1411, 1915, 2114
6770, 1522, 960, 1521, 1994
6771, 2010, 2099, 1231, 2102
6772, 334, 86, 1896, 1869
6773, 1152, 1864, 7, 2012
6774, 511, 1989, 1940, 2009
6775, 1378, 758, 757, 2025
6776, 1328, 850, 1935, 1952
6777, 1271, 2010, 1982, 2086
6778, 1966, 2049, 18, 2115
6779, 1968, 2060, 1919, 2061
6780, 605, 1966, 2049, 2061
6781, 1232, 1240, 1242, 2138
6782, 1255, 560, 550, 2087
6783, 1659, 1658, 1606, 1947
6784, 871, 1581, 731, 869
6785, 1982, 2062, 1924, 2071
6786, 1521, 285, 939, 960
6787, 1737, 1744, 1756, 2059
6788, 220, 166, 732, 2026
6789, 1020, 326, 1560, 1922
6790, 1658, 1611, 1662, 1947
6791, 1695, 1683, 1607, 1962
6792, 573, 906, 190, 1995
6793, 1663, 1654, 1618, 2019
6794, 1586, 1972, 1071, 1994
6795, 1662, 1606, 1658, 1947
6796, 1659, 1658, 1947, 2091
6797, 1324, 1318, 1329, 1935
6798, 1328, 1475, 1952, 2011
6799, 2004, 2052, 1316, 2104
6800, 1298, 1299, 1300, 2004
6801, 1229, 524, 1235, 2099
6802, 532, 1237, 1231, 2010
6803, 1019, 327, 1565, 2134
6804, 1216, 1998, 452, 2133
6805, 1298, 1926, 1299, 2004
6806, 250, 1518, 248, 1994
6807, 2004, 2103, 2052, 2104
6808, 1655, 1620, 332, 1985
6809, 1926, 2077, 2052, 2103
6810, 1391, 800, 801, 1949
6811, 1266, 1250, 562, 2086
6812, 1489, 1491, 932, 2021
6813, 1627, 837, 1689, 1962
6814, 877, 1972, 1994, 2046
6815, 1854, 2012, 1875, 2013
6816, 588, 2010, 537, 2087
6817, 139, 1990, 1938, 1993
6818, 1561, 1019, 345, 2032
6819, 2036, 2103, 1289, 2104
6820, 711, 731, 1581, 1898
6821, 574, 1247, 1253, 1990
6822, 1864, 51, 1149, 424
6823, 507, 1980, 509, 2090
6824, 1880, 1884, 1883, 1979
6825, 644, 2063, 1915, 2115
6826, 729, 1814, 1773, 2150
6827, 1658, 1657, 1947, 2091
6828, 1856, 1852, 1855, 2033
6829, 928, 927, 1959, 2007
6830, 1780, 1735, 1756, 2059
6831, 332, 993, 1997, 2064
6832, 983, 1925, 986, 2141
6833, 1939, 2011, 2039, 2063
6834, 586, 539, 1272, 2074
6835, 1610, 1280, 506, 2036
6836, 1915, 1917, 1411, 1965
6837, 1289, 1282, 1926, 2103
6838, 346, 1020, 1561, 2140
6839, 1604, 1643, 264, 2009
6840, 529, 1239, 1955, 2047
6841, 1160, 397, 1936, 2089
6842, 1880, 1883, 1882, 1979
6843, 599, 507, 2036, 2104
6844, 537, 2010, 1271, 2086
6845, 889, 1442, 262, 1940
6846, 1279, 1602, 608, 2073
6847, 1231, 1235, 1233, 2035
6848, 1290, 1276, 2014, 2128
6849, 1853, 1941, 1869, 2097
6850, 1096, 1095, 1094, 2020
6851, 990, 1640, 1571, 2135
6852, 1411, 1917, 1915, 2114
6853, 1289, 1926, 1282, 2070
6854, 1588, 1765, 1764, 1766
6855, 1256, 547, 1267, 563
6856, 1119, 1120, 1840, 2015
6857, 658, 2070, 1946, 2152
6858, 161, 1900, 728, 2045
6859, 1658, 1657, 1611, 1947
6860, 514, 2061, 2049, 2097
6861, 1563, 1020, 346, 2140
6862, 1944, 2086, 2010, 2141
6863, 1523, 1944, 1922, 1991
6864, 392, 19, 1957, 2129
6865, 357, 1050, 1057, 1958
6866, 1290, 1920, 1287, 1978
6867, 383, 1987, 384, 2033
6868, 1655, 1620, 1985, 2094
6869, 1359, 170, 671, 1414
6870, 2019, 2099, 1229, 2119
6871, 332, 1620, 997, 1960
6872, 1919, 1966, 1159, 2089
6873, 1889, 1888, 1894, 2088
6874, 1129, 1109, 1128, 2017
6875, 1223, 93, 508, 2108
6876, 512, 2019, 2042, 2099
6877, 1617, 1623, 1688, 2009
6878, 1271, 532, 1231, 2010
6879, 123, 1926, 2065, 2112
6880, 1757, 1809, 50, 2027
6881, 1871, 2097, 1918, 2143
6882, 1820, 1816, 1758, 1971
6883, 719, 869, 210, 1899
6884, 2063, 2108, 94, 2115
6885, 934, 283, 1703, 1984
6886, 357, 1044, 1050, 1958
6887, 105, 1691, 610, 2113
6888, 1144, 2050, 2043, 2132
6889, 1624, 506, 1696, 2057
6890, 1066, 1661, 1682, 1659
6891, 949, 1758, 364, 1971
6892, 1909, 2088, 1979, 2089
6893, 1933, 1936, 1160, 1969
6894, 1518, 1517, 954, 1994
6895, 1, 378, 1150, 2012
6896, 1809, 1733, 447, 2027
6897, 507, 1222, 1937, 2090
6898, 1622, 1691, 505, 2113
6899, 1638, 1697, 1285, 1286
6900, 1601, 1614, 1288, 1664
6901, 924, 916, 923, 1952
6902, 1474, 1939, 196, 2011
6903, 990, 1090, 1571, 1640
6904, 1916, 1924, 2062, 2071
6905, 1682, 1683, 1668, 1962
6906, 998, 1278, 337, 2013
6907, 1852, 1864, 7, 1152
6908, 1701, 1707, 1117, 1954
6909, 788, 1399, 1401, 2083
6910, 1946, 2069, 1992, 2152
6911, 1926, 2103, 2004, 2104
6912, 1215, 463, 417, 2038
6913, 1276, 2069, 1977, 2128
6914, 1918, 2061, 1968, 2138
6915, 514, 1228, 1967, 2049
6916, 1120, 2001, 1905, 2015
6917, 1854, 1875, 1872, 2013
6918, 524, 2099, 512, 2102
6919, 1937, 2085, 1317, 2116
6920, 1674, 1638, 1697, 1285
6921, 626, 2052, 1299, 2112
6922, 180, 1924, 1970, 2055
6923, 1435, 1992, 9, 2152
6924, 1588, 1732, 1823, 736
6925, 1926, 2052, 2004, 2103
6926, 533, 589, 1960, 2119
6927, 997, 1620, 1694, 1960
6928, 1691, 1622, 505, 1648
6929, 1026, 1569, 1564, 1929
6930, 1076, 1985, 2094, 2135
6931, 1363, 717, 719, 2006
6932, 1919, 1951, 1909, 2089
6933, 1650, 1096, 1577, 2043
6934, 1754, 1819, 1731, 364
6935, 1089, 327, 990, 2134
6936, 1673, 1684, 1610, 2113
6937, 1824, 1751, 1752, 2059
6938, 1144, 373, 2050, 2132
6939, 1232, 533, 1960, 2119
6940, 1270, 588, 537, 2087
6941, 1514, 941, 1512, 2147
6942, 1280, 600, 1610, 506
6943, 1153, 2033, 384, 2082
6944, 1925, 2042, 2099, 2102
6945, 378, 379, 3, 2014
6946, 913, 1912, 934, 2131
6947, 72, 452, 1074, 1214
6948, 1859, 1967, 2097, 2098
6949, 127, 2077, 1301, 2112
6950, 129, 1285, 1280, 2103
6951, 1924, 2034, 1989, 2055
6952, 129, 1638, 1285, 2077
6953, 1245, 1265, 569, 2040
6954, 1364, 719, 717, 2006
6955, 1923, 1930, 269, 2007
6956, 1223, 1992, 93, 2108
6957, 98, 1955, 528, 1973
6958, 783, 1378, 782, 1908
6959, 1627, 1680, 1683, 1962
6960, 1760, 855, 1775, 1595
6961, 1324, 1337, 2039, 2090
6962, 1337, 1318, 1324, 1935
6963, 895, 266, 1685, 1989
6964, 925, 1939, 1474, 2011
6965, 1268, 1955, 1273, 2041
6966, 687, 190, 906, 1995
6967, 729, 1773, 163, 1927
6968, 1637, 1288, 1279, 1001
6969, 1010, 344, 1544, 2110
6970, 647, 2004, 658, 2070
6971, 2005, 2102, 1940, 2151
6972, 1472, 1468, 620, 2030
6973, 172, 1343, 1073, 673
6974, 951, 284, 1514, 1971
6975, 380, 379, 378, 2014
6976, 1055, 1058, 1573, 1059
6977, 1586, 1994, 870, 2147
6978, 1739, 1740, 1741, 2149
6979, 1052, 1061, 1576, 1062
6980, 1913, 1940, 2005, 2102
6981, 1921, 2023, 1933, 2089
6982, 253, 254, 1522, 1994
6983, 782, 1908, 752, 2146
6984, 1687, 1605, 638, 1990
6985, 1650, 328, 1096, 2043
6986, 1657, 1676, 1656, 1981
6987, 1457, 189, 907, 1917
6988, 603, 1955, 104, 1973
6989, 1419, 48, 44, 1999
6990, 877, 1994, 1972, 2147
6991, 1239, 2047, 1241, 2048
6992, 991, 2032, 1922, 2148
6993, 991, 1571, 990, 2032
6994, 1273, 1955, 603, 2041
6995, 1938, 1914, 2039, 2076
6996, 1477, 756, 757, 1908
6997, 1920, 2073, 1978, 2079
6998, 1672, 1224, 505, 2009
6999, 1253, 567, 573, 543
7000, 1738, 1736, 1762, 2059
7001, 1412, 1411, 1413, 1915
7002, 1831, 1832, 1833, 2073
7003, 1334, 1333, 1338, 2092
7004, 989, 990, 327, 2134
7005, 644, 391, 2108, 2115
7006, 1237, 1231, 2010, 2099
7007, 1642, 1655, 1681, 1985
7008, 928, 1959, 1923, 2007
7009, 133, 1305, 2057, 2144
7010, 2086, 1932, 2141, 2148
7011, 1927, 1902, 1942, 2044
7012, 628, 123, 1298, 1926
7013, 397, 1159, 1966, 2089
7014, 1722, 1704, 1929, 2000
7015, 1416, 705, 1417, 1999
7016, 49, 855, 1760, 1079
7017, 1855, 1852, 53, 2033
7018, 1097, 1832, 1831, 2073
7019, 787, 1706, 788, 1942
7020, 222, 735, 1730, 2058
7021, 484, 2002, 80, 2043
7022, 949, 1820, 1758, 1971
7023, 1560, 1561, 1922, 2032
7024, 903, 1916, 1455, 2003
7025, 137, 1605, 273, 1990
7026, 1023, 1024, 1568, 2134
7027, 762, 1381, 1407, 2025
7028, 1333, 1324, 1980, 2090
7029, 1674, 129, 1285, 1280
7030, 1177, 60, 434, 1860
7031, 1832, 1833, 2073, 2079
7032, 1620, 1625, 1694, 2101
7033, 507, 1937, 2036, 2090
7034, 1274, 604, 93, 2069
7035, 1791, 1767, 1765, 2150
7036, 262, 2009, 1629, 2151
7037, 1477, 1480, 1476, 1908
7038, 986, 1925, 983, 2042
7039, 794, 1396, 1394, 2130
7040, 1005, 343, 1726, 2000
7041, 580, 1068, 1933, 2028
7042, 1237, 1229, 2099, 2119
7043, 1199, 1201, 1197, 2080
7044, 1403, 1405, 786, 1942
7045, 835, 1402, 1404, 1964
7046, 1660, 1675, 1658, 2091
7047, 897, 268, 898, 2109
7048, 1743, 1751, 1786, 2149
7049, 1239, 1955, 2047, 2048
7050, 893, 177, 1448, 1986
7051, 1443, 890, 1974, 2005
7052, 1321, 2052, 1976, 2103
7053, 1864, 1150, 7, 2012
7054, 1319, 1314, 1320, 2090
7055, 1764, 1801, 1763, 2059
7056, 1989, 2055, 1963, 2074
7057, 1442, 1940, 1913, 1986
7058, 783, 784, 1928, 2044
7059, 1801, 1751, 1824, 2059
7060, 1073, 673, 1343, 2142
7061, 1200, 478, 1197, 2080
7062, 330, 1985, 1968, 2031
7063, 659, 2092, 1992, 2152
7064, 1028, 345, 1567, 2032
7065, 1380, 822, 1408, 1949
7066, 1413, 1955, 397, 2115
7067, 603, 590, 535, 1973
7068, 1282, 2077, 1926, 2103
7069, 1114, 1124, 1113, 2046
7070, 1582, 1589, 1588, 2059
7071, 673, 2058, 1345, 2142
7072, 1926, 2077, 2065, 2112
7073, 1156, 1987, 11, 2108
7074, 517, 1914, 527, 2096
7075, 1654, 1694, 2019, 2064
7076, 877, 960, 1994, 2147
7077, 1924, 2068, 2055, 2074
7078, 1764, 1763, 1762, 2059
7079, 1654, 1626, 1618, 2019
7080, 9, 1435, 11, 1992
7081, 1454, 1916, 272, 1923
7082, 1006, 344, 1010, 2110
7083, 1913, 1940, 1442, 1974
7084, 511, 1940, 525, 2102
7085, 1911, 2109, 966, 2110
7086, 756, 1378, 757, 1908
7087, 1867, 1853, 1869, 2097
7088, 1472, 1470, 850, 1935
7089, 1097, 2, 1832, 2073
7090, 901, 930, 272, 2072
7091, 1671, 1608, 1631, 1224
7092, 502, 1967, 1228, 2137
7093, 35, 1415, 37, 1999
7094, 1918, 2060, 1968, 2061
7095, 1159, 1919, 392, 2049
7096, 1655, 992, 1681, 1985
7097, 452, 1074, 1214, 2133
7098, 1989, 1924, 2055, 2074
7099, 1236, 1232, 1242, 2138
7100, 1, 1150, 1149, 2012
7101, 855, 734, 1600, 2142
7102, 1274, 1289, 595, 2069
7103, 1913, 1940, 893, 1986
7104, 998, 2013, 999, 2098
7105, 1075, 1958, 1819, 1961
7106, 1896, 2060, 1941, 2078
7107, 1923, 1902, 2021, 2072
7108, 1724, 2046, 1113, 2067
7109, 1388, 1386, 783, 2025
7110, 512, 2099, 2042, 2102
7111, 540, 1253, 1247, 1990
7112, 1427, 1916, 1348, 2062
7113, 1242, 1966, 95, 2061
7114, 1123, 301, 962, 2001
7115, 538, 2035, 1924, 2071
7116, 1769, 1961, 1958, 2107
7117, 1186, 414, 463, 2038
7118, 189, 1457, 686, 1917
7119, 1215, 408, 463, 2038
7120, 1393, 2054, 842, 2122
7121, 241, 850, 1328, 1952
7122, 942, 1519, 1520, 1994
7123, 1234, 1231, 1233, 2035
7124, 1187, 463, 414, 2038
7125, 1235, 2035, 1231, 2102
7126, 719, 1899, 1901, 2006
7127, 1394, 839, 840, 2054
7128, 1967, 2098, 1859, 2111
7129, 1810, 736, 1732, 2058
7130, 1403, 846, 847, 2083
7131, 644, 144, 196, 1939
7132, 964, 966, 965, 2145
7133, 196, 1474, 694, 1939
7134, 1179, 1975, 443, 2100
7135, 79, 1191, 475, 1950
7136, 1267, 1256, 563, 576
7137, 29, 444, 1180, 1933
7138, 1620, 1655, 1647, 2094
7139, 1869, 1896, 1941, 1996
7140, 653, 153, 1317, 2144
7141, 539, 2068, 1970, 2139
7142, 262, 1940, 892, 2009
7143, 1982, 2007, 576, 2109
7144, 1297, 626, 1299, 2112
7145, 94, 1228, 2049, 2108
7146, 880, 1974, 1944, 1982
7147, 1864, 1149, 7, 1150
7148, 499, 501, 1941, 2078
7149, 726, 1900, 723, 2045
7150, 1511, 908, 1506, 2105
7151, 876, 1124, 255, 2046
7152, 870, 869, 248, 2006
7153, 1333, 1334, 1322, 2092
7154, 504, 1652, 106, 1088
7155, 623, 624, 1410, 1992
7156, 841, 1392, 840, 2054
7157, 259, 1530, 973, 1974
7158, 1148, 375, 1147, 2078
7159, 1637, 1279, 1603, 1001
7160, 345, 2110, 1544, 2140
7161, 1706, 2122, 1942, 2123
7162, 1819, 1075, 1796, 1958
7163, 510, 1989, 635, 2085
7164, 1859, 2097, 1867, 2098
7165, 542, 1245, 569, 2041
7166, 906, 273, 1680, 1962
7167, 789, 1399, 788, 2122
7168, 313, 1529, 975, 2005
7169, 873, 1424, 1423, 2006
7170, 1766, 1767, 1805, 2150
7171, 1287, 1279, 1978, 2073
7172, 1990, 2091, 574, 2139
7173, 1603, 340, 1279, 2073
7174, 937, 1956, 935, 2105
7175, 139, 1938, 1990, 2114
7176, 1627, 838, 837, 2130
7177, 1411, 1965, 1917, 2056
7178, 504, 505, 1226, 1088
7179, 1740, 1729, 1759, 2026
7180, 1881, 1979, 1882, 2088
7181, 503, 998, 1227, 2098
7182, 95, 522, 1242, 2061
7183, 531, 2035, 1234, 2074
7184, 1231, 2035, 2010, 2102
7185, 646, 123, 628, 2070
7186, 1857, 1851, 1861, 2082
7187, 794, 1708, 795, 1953
7188, 1503, 1500, 1510, 2029
7189, 1604, 894, 1653, 2009
7190, 392, 2018, 1158, 2129
7191, 1881, 1882, 1893, 2088
7192, 98, 1239, 528, 1955
7193, 1147, 2078, 375, 2117
7194, 1655, 332, 992, 1985
7195, 48, 419, 417, 2038
7196, 960, 1513, 939, 2147
7197, 1235, 1231, 1229, 2099
7198, 332, 1960, 997, 2064
7199, 849, 1980, 623, 1992
7200, 1287, 1920, 1290, 2014
7201, 1189, 1191, 1193, 1950
7202, 172, 1073, 700, 1983
7203, 523, 1236, 515, 2019
7204, 372, 1879, 2023, 2050
7205, 1006, 1028, 1929, 2032
7206, 1916, 575, 2068, 2071
7207, 1446, 893, 265, 1940
7208, 123, 646, 1294, 2065
7209, 1251, 535, 1985, 2031
7210, 1619, 1088, 1226, 2151
7211, 1742, 1589, 1743, 2149
7212, 898, 268, 929, 2007
7213, 600, 1280, 1610, 2113
7214, 1190, 1189, 1192, 2066
7215, 1, 377, 378, 2012
7216, 1339, 1441, 159, 1332
7217, 504, 505, 1088, 106
7218, 1609, 1636, 1635, 2042
7219, 1134, 314, 1592, 1788
7220, 1663, 513, 1225, 1633
7221, 1395, 790, 791, 2122
7222, 2086, 2087, 1932, 2148
7223, 728, 729, 1072, 1581
7224, 377, 1832, 2, 2073
7225, 1666, 1970, 1613, 2091
7226, 1893, 2088, 1891, 2117
7227, 1740, 1739, 1729, 2026
7228, 1609, 317, 1686, 2042
7229, 1589, 2059, 1750, 2149
7230, 1148, 1896, 1941, 2078
7231, 392, 1919, 1158, 2018
7232, 1800, 1587, 1778, 1777
7233, 1561, 2032, 345, 2110
7234, 1227, 2098, 998, 2143
7235, 539, 1963, 586, 1990
7236, 1866, 1873, 1041, 2013
7237, 1885, 329, 331, 2132
7238, 1048, 728, 1581, 2045
7239, 2018, 2088, 1886, 2117
7240, 2019, 2064, 1960, 2138
7241, 989, 1922, 991, 2032
7242, 1627, 1683, 1695, 1962
7243, 1672, 1622, 505, 2113
7244, 1796, 1075, 1816, 1958
7245, 196, 1952, 1475, 2011
7246, 1938, 2047, 1915, 2048
7247, 1066, 1667, 1668, 1661
7248, 665, 728, 165, 2026
7249, 421, 1597, 420, 1998
7250, 265, 1940, 1688, 2009
7251, 854, 734, 855, 2142
7252, 1402, 797, 798, 1964
7253, 713, 869, 208, 1898
7254, 889, 2005, 1940, 2151
7255, 849, 1409, 623, 1980
7256, 869, 731, 208, 1898
7257, 2086, 2141, 1944, 2148
7258, 1737, 1738, 1744, 2059
7259, 531, 587, 2035, 2074
7260, 1477, 1482, 1480, 2025
7261, 1835, 481, 480, 2125
7262, 800, 801, 1949, 1983
7263, 1472, 850, 1469, 1935
7264, 875, 1900, 724, 2022
7265, 1582, 1588, 1595, 2059
7266, 35, 408, 407, 2038
7267, 236, 1491, 931, 2146
7268, 1633, 1663, 513, 1654
7269, 1256, 576, 1250, 1982
7270, 1324, 1323, 1337, 2090
7271, 1232, 2119, 1960, 2138
7272, 644, 196, 1412, 1939
7273, 503, 1278, 601, 1621
7274, 1089, 1840, 327, 2134
7275, 109, 1284, 1277, 1294
7276, 158, 1434, 1334, 2092
7277, 1863, 1857, 1861, 2082
7278, 1073, 739, 700, 1983
7279, 1394, 1396, 839, 2130
7280, 1873, 1041, 2013, 2098
7281, 1272, 1234, 530, 2074
7282, 1687, 1667, 1605, 1990
7283, 801, 1379, 1387, 1910
7284, 1585, 1074, 454, 1998
7285, 1147, 2060, 1896, 2078
7286, 1918, 2097, 514, 2143
7287, 1090, 990, 1571, 2015
7288, 1271, 588, 532, 2010
7289, 414, 1165, 43, 1187
7290, 1299, 2052, 1926, 2112
7291, 659, 1992, 1435, 2152
7292, 3, 5, 378, 2014
7293, 129, 1280, 2036, 2103
7294, 1965, 2047, 1915, 2114
7295, 880, 1431, 1974, 1982
7296, 942, 288, 1521, 1520
7297, 129, 1674, 1610, 1280
7298, 1979, 2118, 2031, 2132
7299, 11, 1992, 1410, 2108
7300, 1922, 2141, 1559, 2148
7301, 1643, 1604, 1693, 2009
7302, 1734, 732, 221, 2026
7303, 1953, 1964, 1054, 1983
7304, 1873, 1858, 1859, 2111
7305, 270, 1676, 1675, 2091
7306, 512, 513, 1225, 2019
7307, 1387, 1389, 801, 1910
7308, 1163, 1165, 43, 414
7309, 203, 1416, 1414, 705
7310, 123, 2065, 625, 2112
7311, 966, 1911, 2007, 2109
7312, 1686, 1636, 1609, 2042
7313, 602, 2013, 502, 2128
7314, 1489, 932, 271, 1923
7315, 1230, 1233, 1238, 2096
7316, 1261, 579, 580, 2028
7317, 1285, 1286, 1281, 2077
7318, 1290, 1978, 1278, 2013
7319, 1086, 1601, 1288, 1664
7320, 1846, 2050, 2023, 2100
7321, 124, 617, 629, 2065
7322, 288, 1521, 1515, 942
7323, 1414, 1359, 203, 705
7324, 517, 525, 511, 1989
7325, 1612, 2094, 1655, 2135
7326, 982, 512, 317, 2042
7327, 1059, 1983, 1903, 2017
7328, 1608, 510, 1671, 2057
7329, 956, 1586, 1590, 1829
7330, 531, 1234, 1272, 2074
7331, 174, 700, 738, 1983
7332, 1638, 1296, 1286, 2077
7333, 1646, 1989, 266, 2055
7334, 1378, 1386, 758, 2025
7335, 1960, 1694, 2064, 2101
7336, 610, 1652, 1278, 1288
7337, 1922, 1944, 2141, 2148
7338, 1600, 1079, 855, 2142
7339, 107, 2069, 1276, 2128
7340, 1579, 991, 324, 2148
7341, 1428, 1433, 680, 2062
7342, 421, 417, 420, 2133
7343, 382, 2012, 378, 2014
7344, 1640, 1090, 1571, 1954
7345, 1527, 1991, 1523, 2140
7346, 1135, 293, 1008, 1971
7347, 1866, 1978, 1872, 2013
7348, 285, 939, 1515, 1521
7349, 1833, 1003, 2073, 2079
7350, 1752, 1806, 1582, 1750
7351, 1615, 1285, 1286, 610
7352, 1842, 1118, 1119, 2015
7353, 2002, 2043, 484, 2100
7354, 1630, 1656, 1676, 1981
7355, 1225, 503, 1651, 1633
7356, 1163, 414, 1164, 2038
7357, 1583, 1761, 1815, 1787
7358, 468, 1950, 1201, 2126
7359, 557, 1251, 578, 579
7360, 537, 588, 1271, 2010
7361, 414, 41, 1164, 1161
7362, 204, 1418, 1417, 705
7363, 212, 717, 1421, 1364
7364, 1424, 212, 717, 1421
7365, 1328, 1952, 1935, 2011
7366, 578, 2043, 579, 2132
7367, 526, 1238, 1233, 2096
7368, 1161, 414, 41, 1186
7369, 1425, 717, 213, 1363
7370, 1742, 1740, 1793, 2026
7371, 1327, 2085, 2016, 2116
7372, 1638, 1674, 129, 1285
7373, 1750, 1749, 1779, 1596
7374, 1802, 1998, 1772, 2027
7375, 1652, 1288, 1614, 1664
7376, 1581, 1586, 1071, 2022
7377, 1430, 1427, 1432, 2062
7378, 289, 1519, 942, 1517
7379, 213, 717, 1425, 1423
7380, 1672, 1634, 1632, 2009
7381, 538, 1924, 2068, 2071
7382, 951, 979, 295, 1971
7383, 450, 71, 449, 1998
7384, 1007, 303, 1546, 1991
7385, 1932, 2086, 2010, 2087
7386, 125, 1299, 626, 2052
7387, 1567, 345, 1019, 2032
7388, 1687, 638, 134, 1990
7389, 1652, 105, 106, 1088
7390, 531, 1272, 587, 2074
7391, 1642, 1612, 1655, 2135
7392, 974, 313, 982, 2042
7393, 1254, 546, 1248, 2068
7394, 1833, 1832, 1834, 2079
7395, 1828, 1812, 1772, 2027
7396, 1122, 1704, 343, 1929
7397, 1764, 1801, 2059, 2149
7398, 942, 1516, 289, 1517
7399, 1418, 204, 1360, 705
7400, 450, 1772, 71, 1998
7401, 1215, 408, 77, 463
7402, 1451, 271, 1450, 1930
7403, 1757, 1804, 1822, 2027
7404, 683, 1916, 903, 2003
7405, 1585, 454, 1753, 1998
7406, 1871, 1867, 1869, 2097
7407, 1791, 1072, 1746, 1773
7408, 509, 1914, 2039, 2048
7409, 528, 95, 1242, 1966
7410, 1525, 1944, 1925, 2141
7411, 1317, 1325, 1323, 2039
7412, 1477, 1485, 1482, 2025
7413, 805, 1497, 804, 1956
7414, 1759, 1729, 220, 2026
7415, 2043, 2050, 1921, 2132
7416, 628, 1298, 1300, 2004
7417, 1220, 1221, 498, 2129
7418, 1158, 2018, 1919, 2089
7419, 1244, 1261, 556, 554
7420, 787, 1403, 786, 1942
7421, 1770, 1792, 364, 1580
7422, 1825, 1953, 1054, 1983
7423, 912, 276, 913, 2056
7424, 1946, 2070, 2069, 2152
7425, 1276, 2069, 1289, 2070
7426, 890, 1530, 259, 1974
7427, 2019, 1960, 2101, 2119
7428, 1116, 1954, 1091, 2024
7429, 332, 997, 993, 2064
7430, 683, 184, 903, 1916
7431, 35, 407, 853, 1999
7432, 509, 2039, 1914, 2116
7433, 1851, 55, 1153, 2033
7434, 69, 448, 447, 1998
7435, 344, 1545, 1544, 2110
7436, 1295, 1615, 1286, 610
7437, 1788, 314, 1592, 1590
7438, 1646, 1685, 266, 1989
7439, 593, 1290, 1278, 2013
7440, 1706, 1927, 1942, 2044
7441, 783, 1714, 784, 2044
7442, 1610, 129, 1280, 2036
7443, 103, 1985, 1252, 2093
7444, 1646, 1639, 1963, 2055
7445, 1290, 1276, 1283, 2014
7446, 1490, 1923, 928, 1959
7447, 33, 1130, 406, 2037
7448, 1065, 1930, 2007, 2071
7449, 1636, 1225, 1651, 1663
7450, 1902, 1923, 1065, 2003
7451, 1089, 2015, 1840, 2134
7452, 1734, 1778, 1589, 1777
7453, 284, 941, 1514, 1971
7454, 1754, 1792, 1796, 364
7455, 1159, 397, 1966, 2115
7456, 158, 1315, 194, 2092
7457, 62, 395, 439, 1158
7458, 1065, 1923, 1902, 1959
7459, 1333, 1324, 1338, 1980
7460, 1080, 49, 1817, 1760
7461, 1348, 1916, 180, 1924
7462, 786, 1405, 785, 1942
7463, 1649, 2009, 1648, 2151
7464, 1802, 1585, 1753, 1998
7465, 901, 271, 932, 1923
7466, 1047, 1746, 1823, 1791
7467, 1379, 828, 827, 2029
7468, 1852, 1152, 53, 2033
7469, 966, 929, 268, 2109
7470, 1886, 91, 1895, 2018
7471, 1282, 2065, 1926, 2077
7472, 1774, 1823, 1073, 1047
7473, 364, 1792, 949, 1580
7474, 1613, 267, 270, 1970
7475, 846, 845, 1630, 2083
7476, 1088, 610, 1691, 1087
7477, 1245, 100, 542, 1265
7478, 65, 2023, 1179, 2100
7479, 421, 420, 1597, 2133
7480, 48, 854, 419, 1999
7481, 1772, 1812, 1811, 2027
7482, 1786, 1751, 1801, 2149
7483, 447, 50, 1809, 2027
7484, 218, 727, 1827, 1927
7485, 1311, 641, 1938, 2076
7486, 1802, 454, 71, 1998
7487, 503, 1225, 513, 1633
7488, 168, 710, 1345, 2058
7489, 80, 1844, 1839, 2125
7490, 573, 1067, 1962, 1995
7491, 147, 922, 1470, 918
7492, 974, 2005, 313, 2042
7493, 1756, 1744, 1780, 2059
7494, 639, 1993, 641, 2076
7495, 590, 603, 104, 1973
7496, 1487, 1484, 930, 2072
7497, 144, 196, 1939, 2011
7498, 134, 1963, 638, 1993
7499, 1331, 2052, 2103, 2104
7500, 513, 514, 1227, 2143
7501, 1500, 827, 828, 2029
7502, 1851, 1855, 55, 2033
7503, 378, 382, 1150, 2012
7504, 870, 249, 871, 1586
7505, 1223, 508, 94, 2108
7506, 1871, 1868, 2097, 2143
7507, 515, 2019, 1236, 2138
7508, 248, 954, 870, 1994
7509, 1159, 18, 1966, 2049
7510, 1667, 273, 1605, 1990
7511, 734, 1345, 2058, 2142
7512, 1252, 536, 1249, 2093
7513, 1608, 132, 1696, 2057
7514, 1918, 2061, 514, 2097
7515, 1837, 1844, 483, 2125
7516, 1881, 1889, 1894, 2088
7517, 1732, 1764, 1762, 1588
7518, 1480, 1484, 1476, 1908
7519, 1194, 1193, 468, 1950
7520, 1307, 638, 1308, 1993
7521, 1614, 1288, 610, 1601
7522, 1176, 433, 1174, 1957
7523, 1951, 2117, 2060, 2118
7524, 801, 1389, 1380, 1949
7525, 503, 1633, 513, 2143
7526, 550, 559, 551, 2093
7527, 1101, 1095, 1839, 2020
7528, 1154, 384, 383, 1987
7529, 1909, 1951, 2088, 2089
7530, 1006, 1541, 344, 2110
7531, 1074, 1585, 454, 364
7532, 1596, 1750, 1749, 1589
7533, 983, 1988, 1925, 2141
7534, 1832, 377, 1834, 2079
7535, 873, 1520, 1519, 1994
7536, 1072, 1773, 729, 1927
7537, 1481, 1486, 1484, 1908
7538, 265, 894, 1446, 1940
7539, 974, 981, 1988, 2042
7540, 1028, 2032, 1006, 2110
7541, 1343, 673, 1345, 2142
7542, 105, 1652, 1614, 1088
7543, 1908, 1928, 783, 2025
7544, 1784, 1755, 1817, 1080
7545, 855, 1760, 1079, 1595
7546, 190, 906, 573, 1962
7547, 116, 617, 629, 616
7548, 991, 989, 326, 1922
7549, 1867, 2097, 1868, 2098
7550, 762, 761, 1381, 2025
7551, 1311, 1312, 1939, 2114
7552, 478, 479, 1197, 2080
7553, 610, 1614, 1601, 1087
7554, 1295, 1615, 610, 1087
7555, 731, 732, 711, 2026
7556, 1853, 1865, 1874, 1941
7557, 806, 1497, 805, 1956
7558, 1871, 1868, 1867, 2097
7559, 254, 877, 960, 1994
7560, 979, 315, 295, 1971
7561, 276, 911, 1948, 2056
7562, 1282, 1280, 1285, 2103
7563, 993, 995, 992, 1997
7564, 1922, 2086, 1944, 2148
7565, 1902, 1959, 1923, 2021
7566, 1875, 1854, 1870, 2012
7567, 989, 1560, 1922, 2032
7568, 502, 2013, 602, 2098
7569, 849, 1992, 659, 2092
7570, 1979, 1921, 2050, 2132
7571, 536, 2093, 1985, 2094
7572, 74, 1216, 448, 1998
7573, 1985, 2094, 1960, 2119
7574, 1873, 1859, 2098, 2111
7575, 1941, 2060, 1919, 2078
7576, 1147, 376, 1896, 2060
7577, 1001, 1637, 1288, 1978
7578, 1597, 452, 1998, 2133
7579, 1592, 1134, 1788, 1590
7580, 1246, 542, 543, 568
7581, 1323, 2039, 1337, 2090
7582, 375, 1148, 501, 2078
7583, 1299, 627, 1300, 2004
7584, 806, 807, 1497, 1956
7585, 502, 1275, 2128, 2137
7586, 1215, 2038, 417, 2133
7587, 1513, 939, 285, 960
7588, 421, 1597, 1998, 2133
7589, 638, 1963, 134, 1990
7590, 1838, 2024, 1093, 2106
7591, 385, 384, 1987, 2082
7592, 1735, 223, 733, 2058
7593, 536, 2094, 1985, 2119
7594, 1732, 1765, 1764, 1588
7595, 1993, 2016, 1914, 2116
7596, 452, 1074, 1597, 1998
7597, 222, 1730, 1756, 2058
7598, 1583, 1587, 1761, 1829
7599, 420, 1079, 1597, 2133
7600, 1148, 1147, 1896, 2078
7601, 1312, 1311, 1310, 2114
7602, 133, 652, 153, 2085
7603, 1666, 1687, 134, 1963
7604, 442, 1933, 1179, 2023
7605, 531, 1231, 1234, 2035
7606, 1430, 1432, 880, 1982
7607, 377, 2, 1920, 2073
7608, 1824, 1763, 1801, 2059
7609, 413, 1416, 1417, 1999
7610, 514, 2097, 1967, 2098
7611, 673, 1073, 736, 2058
7612, 1761, 1583, 1829, 1787
7613, 1678, 2005, 975, 2151
7614, 173, 1073, 1774, 736
7615, 1083, 342, 608, 2073
7616, 1770, 1807, 1792, 1580
7617, 1539, 1978, 340, 2073
7618, 1058, 1056, 1572, 361
7619, 1237, 1229, 1231, 2099
7620, 1905, 1929, 1911, 2000
7621, 1750, 1582, 1752, 2059
7622, 1732, 1823, 1765, 1588
7623, 605, 2049, 1966, 2115
7624, 893, 1445, 177, 1986
7625, 997, 1960, 1694, 2064
7626, 789, 2122, 1706, 2123
7627, 1424, 717, 1423, 2006
7628, 1600, 365, 1079, 2142
7629, 1113, 281, 964, 2046
7630, 1588, 1823, 1073, 736
7631, 1243, 1936, 1258, 2028
7632, 514, 94, 1228, 2049
7633, 1613, 1970, 270, 2091
7634, 875, 254, 1426, 2006
7635, 1449, 896, 266, 2055
7636, 1399, 844, 845, 2083
7637, 1661, 1668, 1066, 1682
7638, 1432, 1431, 880, 1982
7639, 92, 499, 1220, 2078
7640, 1006, 1028, 1570, 1929
7641, 1629, 1643, 1649, 2009
7642, 840, 1392, 1394, 2054
7643, 901, 271, 1923, 1930
7644, 1278, 503, 998, 1621
7645, 105, 610, 1691, 1088
7646, 1691, 505, 106, 1088
7647, 1603, 1004, 340, 2073
7648, 880, 1430, 1982, 2109
7649, 1384, 1407, 1390, 1928
7650, 1251, 1985, 578, 2031
7651, 1856, 1855, 1851, 2033
7652, 1530, 973, 1974, 1988
7653, 728, 664, 161, 1927
7654, 262, 889, 1940, 2151
7655, 658, 1339, 659, 2152
7656, 880, 1525, 1944, 1974
7657, 1794, 1811, 1804, 2027
7658, 1489, 1923, 1490, 2021
7659, 1924, 2035, 1982, 2071
7660, 485, 1846, 2023, 2100
7661, 1773, 1791, 1072, 2150
7662, 1886, 92, 91, 2018
7663, 1160, 1936, 397, 1969
7664, 1413, 1411, 397, 1969
7665, 129, 1304, 631, 2077
7666, 1668, 1683, 1680, 1962
7667, 989, 2032, 990, 2134
7668, 610, 105, 1652, 1614
7669, 683, 904, 1981, 2003
7670, 1407, 763, 762, 2025
7671, 672, 1346, 1345, 2142
7672, 1663, 1225, 1651, 1633
7673, 248, 869, 1422, 2006
7674, 528, 1242, 1240, 1973
7675, 1117, 1707, 1118, 1954
7676, 1390, 1407, 1381, 1928
7677, 1848, 81, 1144, 2050
7678, 1688, 1623, 1653, 2009
7679, 1546, 303, 304, 1991
7680, 1340, 658, 659, 2152
7681, 1938, 1939, 1311, 2076
7682, 452, 1214, 1216, 2133
7683, 30, 913, 403, 2131
7684, 839, 1607, 2054, 2130
7685, 420, 49, 1817, 1079
7686, 267, 1613, 1692, 1970
7687, 501, 1148, 1941, 2078
7688, 1640, 363, 1641, 1616
7689, 1275, 604, 107, 2128
7690, 1581, 731, 221, 871
7691, 1913, 1940, 1974, 2005
7692, 1442, 1913, 1974, 1986
7693, 380, 378, 377, 2014
7694, 586, 1272, 530, 2074
7695, 136, 651, 652, 2085
7696, 1588, 1823, 1765, 2150
7697, 602, 1290, 2013, 2128
7698, 1833, 341, 1003, 2079
7699, 996, 997, 1536, 2064
7700, 1350, 684, 1349, 1916
7701, 1864, 2012, 1854, 2079
7702, 1404, 1402, 798, 1964
7703, 1425, 875, 1426, 2006
7704, 417, 1166, 48, 2038
7705, 1796, 1792, 1758, 364
7706, 406, 407, 365, 2124
7707, 1626, 987, 321, 2101
7708, 1399, 2083, 788, 2122
7709, 503, 504, 1651, 601
7710, 420, 1817, 1755, 1594
7711, 271, 1451, 900, 1930
7712, 360, 1062, 1051, 1578
7713, 1325, 1993, 2076, 2116
7714, 1431, 1974, 1913, 1986
7715, 1919, 2060, 1951, 2078
7716, 1403, 1405, 1942, 2083
7717, 408, 35, 1162, 2038
7718, 1240, 98, 528, 1973
7719, 510, 1937, 1222, 2116
7720, 1671, 1608, 1224, 510
7721, 503, 1227, 998, 2143
7722, 264, 892, 1940, 2009
7723, 1258, 535, 1244, 2028
7724, 34, 1129, 852, 1984
7725, 1916, 1923, 1454, 2003
7726, 1412, 142, 192, 1353
7727, 1331, 1316, 2052, 2104
7728, 1317, 1325, 2039, 2116
7729, 1691, 106, 105, 1088
7730, 94, 2108, 2049, 2115
7731, 1733, 1812, 1828, 2027
7732, 1925, 1988, 1525, 2141
7733, 1526, 1944, 1523, 1991
7734, 599, 1937, 506, 2036
7735, 837, 1398, 1400, 2130
7736, 1826, 163, 1773, 1927
7737, 1622, 1672, 505, 1648
7738, 539, 1990, 1247, 2139
7739, 442, 1179, 65, 2023
7740, 579, 1921, 1068, 2028
7741, 849, 623, 1410, 1992
7742, 442, 1157, 1933, 2023
7743, 375, 2078, 1146, 2117
7744, 666, 730, 164, 2026
7745, 1735, 2058, 1756, 2059
7746, 383, 384, 1153, 2033
7747, 644, 1915, 1413, 2115
7748, 1072, 1581, 729, 2150
7749, 1581, 1072, 728, 1048
7750, 1076, 362, 578, 2132
7751, 538, 1982, 2035, 2071
7752, 869, 1421, 1422, 2006
7753, 1317, 153, 2085, 2144
7754, 147, 1470, 922, 2030
7755, 759, 758, 1386, 2025
7756, 593, 602, 1290, 2013
7757, 1179, 2023, 1933, 2100
7758, 1936, 1969, 1933, 2131
7759, 1797, 1420, 857, 1596
7760, 1902, 2044, 1927, 2045
7761, 1252, 551, 103, 2093
7762, 797, 1709, 798, 1964
7763, 605, 2049, 514, 2061
7764, 1863, 1861, 1957, 2082
7765, 680, 178, 1447, 2062
7766, 1773, 1814, 1791, 2150
7767, 1921, 2043, 1975, 2100
7768, 1859, 1867, 1868, 2098
7769, 1944, 1982, 576, 2109
7770, 640, 2016, 1993, 2116
7771, 849, 1435, 659, 1992
7772, 1476, 1484, 1486, 1908
7773, 182, 1916, 575, 1970
7774, 729, 164, 1782, 2150
7775, 1912, 913, 2056, 2131
7776, 672, 854, 1346, 2142
7777, 1102, 1103, 1094, 2106
7778, 1088, 1614, 610, 1087
7779, 1922, 1991, 1944, 2086
7780, 836, 835, 1962, 1964
7781, 1529, 974, 1988, 2005
7782, 1419, 854, 48, 1999
7783, 848, 904, 235, 2003
7784, 1121, 1024, 1905, 1929
7785, 1415, 35, 853, 1999
7786, 1366, 710, 733, 2058
7787, 1823, 1774, 1746, 1047
7788, 983, 1533, 1534, 1988
7789, 807, 806, 803, 2084
7790, 1299, 2004, 1926, 2052
7791, 1283, 1282, 1277, 2070
7792, 1706, 1112, 1126, 2044
7793, 1601, 260, 610, 1087
7794, 610, 260, 1295, 1087
7795, 1741, 1745, 1739, 2149
7796, 1155, 2008, 1861, 2082
7797, 1849, 1848, 1145, 2050
7798, 1884, 1979, 2050, 2132
7799, 272, 930, 1488, 2072
7800, 956, 2095, 1586, 2147
7801, 594, 602, 1275, 2128
7802, 1681, 1985, 330, 2031
7803, 1687, 134, 1963, 1990
7804, 1794, 1771, 1811, 1592
7805, 240, 850, 241, 1952
7806, 729, 1581, 728, 2026
7807, 98, 1240, 534, 1973
7808, 1499, 1508, 1503, 2029
7809, 1314, 1323, 1320, 2090
7810, 1500, 1505, 1509, 2105
7811, 981, 1534, 1988, 2042
7812, 1884, 1878, 373, 2050
7813, 1739, 1745, 1782, 2149
7814, 367, 1725, 1105, 1958
7815, 954, 248, 1518, 1994
7816, 1913, 2005, 1974, 2102
7817, 133, 2085, 153, 2144
7818, 1198, 483, 80, 2002
7819, 1316, 1336, 2004, 2104
7820, 900, 269, 1923, 1930
7821, 740, 185, 227, 1930
7822, 610, 1652, 1288, 1614
7823, 1915, 2063, 2048, 2115
7824, 81, 1849, 1846, 2050
7825, 128, 630, 1301, 2052
7826, 471, 1190, 470, 2066
7827, 389, 385, 1156, 1987
7828, 1155, 385, 16, 2082
7829, 628, 1926, 1298, 2004
7830, 537, 2010, 2086, 2087
7831, 1327, 651, 2016, 2085
7832, 1285, 610, 1615, 2113
7833, 2085, 2096, 2016, 2116
7834, 1796, 1819, 1754, 364
7835, 981, 317, 1534, 2042
7836, 580, 102, 1260, 1936
7837, 1243, 580, 1936, 2028
7838, 1541, 1542, 1007, 2110
7839, 1442, 1443, 882, 1974
7840, 1775, 1080, 1760, 1595
7841, 574, 1247, 1990, 2139
7842, 1665, 1666, 1613, 2091
7843, 844, 843, 2083, 2122
7844, 1775, 1080, 1789, 1760
7845, 1281, 1286, 1296, 2077
7846, 1885, 331, 2031, 2132
7847, 485, 1846, 1847, 2023
7848, 1594, 50, 420, 1998
7849, 1145, 373, 1878, 2050
7850, 954, 2095, 956, 2147
7851, 1609, 1635, 319, 2042
7852, 1472, 620, 1471, 2030
7853, 732, 1759, 220, 2026
7854, 1219, 1945, 1221, 2129
7855, 1379, 801, 802, 2029
7856, 498, 91, 1220, 2018
7857, 1485, 758, 1478, 2025
7858, 978, 1008, 293, 1971
7859, 1681, 2031, 330, 2132
7860, 1457, 1917, 907, 1995
7861, 1317, 2085, 1937, 2144
7862, 1279, 608, 1603, 2073
7863, 506, 2036, 1937, 2057
7864, 801, 1910, 1949, 1983
7865, 1801, 1766, 1786, 2149
7866, 760, 1388, 761, 2025
7867, 880, 1982, 1944, 2109
7868, 1070, 2095, 941, 2147
7869, 1812, 1804, 1811, 2027
7870, 586, 585, 540, 1990
7871, 282, 1724, 1702, 2067
7872, 1589, 1777, 1587, 2026
7873, 1477, 1476, 756, 1908
7874, 31, 1573, 403, 934
7875, 550, 2087, 560, 2093
7876, 1165, 1166, 417, 2038
7877, 1960, 2064, 2019, 2101
7878, 377, 2012, 1, 2079
7879, 1875, 1866, 1872, 2013
7880, 894, 265, 1653, 2009
7881, 1215, 417, 467, 2133
7882, 1221, 1945, 498, 2129
7883, 687, 1917, 190, 1995
7884, 842, 1947, 843, 2122
7885, 446, 1907, 68, 2066
7886, 1292, 613, 1293, 1976
7887, 585, 540, 1990, 2047
7888, 1646, 896, 1639, 2055
7889, 910, 1948, 275, 2121
7890, 1965, 1990, 540, 2047
7891, 514, 1228, 502, 1967
7892, 507, 1937, 599, 2036
7893, 1068, 1921, 579, 2043
7894, 1600, 2058, 673, 2142
7895, 960, 1522, 254, 1994
7896, 1328, 850, 1470, 1935
7897, 1774, 1746, 1047, 1825
7898, 1932, 2019, 2101, 2119
7899, 1891, 1890, 1877, 2117
7900, 504, 1226, 1619, 1088
7901, 1147, 375, 1890, 2117
7902, 276, 1459, 911, 2056
7903, 1481, 1484, 1487, 1908
7904, 1321, 1331, 2052, 2103
7905, 62, 498, 493, 1213
7906, 267, 1639, 896, 2055
7907, 1601, 1614, 260, 1087
7908, 1615, 1295, 260, 1087
7909, 610, 105, 1614, 1088
7910, 1667, 1665, 1661, 2091
7911, 1921, 1933, 1068, 2028
7912, 795, 1398, 1396, 2130
7913, 1942, 1943, 1927, 2123
7914, 1594, 1817, 1755, 1080
7915, 740, 1452, 1451, 1930
7916, 1288, 1287, 1279, 1978
7917, 576, 1982, 1944, 2086
7918, 1854, 1864, 1870, 2012
7919, 1671, 510, 635, 2057
7920, 1066, 1667, 1661, 2091
7921, 476, 1198, 80, 2002
7922, 635, 510, 1671, 1989
7923, 1628, 1649, 1648, 2151
7924, 1760, 1080, 49, 1079
7925, 529, 1230, 1239, 2047
7926, 687, 907, 189, 1917
7927, 210, 209, 869, 1421
7928, 1162, 1161, 408, 2038
7929, 1858, 1856, 1857, 2111
7930, 1247, 539, 540, 1990
7931, 729, 2026, 164, 2150
7932, 1614, 1601, 1086, 1664
7933, 1288, 1279, 1603, 1637
7934, 1476, 755, 756, 1908
7935, 557, 556, 553, 579
7936, 222, 1756, 733, 2058
7937, 1831, 1833, 1003, 2073
7938, 65, 1179, 66, 2100
7939, 1345, 673, 168, 2058
7940, 1184, 445, 1182, 2126
7941, 1746, 1127, 1126, 2123
7942, 1159, 1966, 18, 2115
7943, 658, 647, 2070, 2152
7944, 1259, 1262, 1263, 2136
7945, 1792, 1807, 949, 1580
7946, 1510, 1499, 1503, 2029
7947, 752, 1487, 751, 2146
7948, 536, 2087, 2093, 2094
7949, 1793, 1749, 1742, 1589
7950, 1413, 644, 1412, 1915
7951, 1530, 1974, 890, 2005
7952, 408, 409, 406, 2133
7953, 1131, 1819, 1796, 1958
7954, 480, 1099, 1835, 2125
7955, 1657, 1981, 1947, 2091
7956, 640, 1993, 1308, 2076
7957, 1301, 2052, 1302, 2112
7958, 1585, 1771, 1802, 1753
7959, 1825, 1047, 1953, 2123
7960, 1148, 1941, 1896, 1996
7961, 1794, 1592, 1811, 2027
7962, 528, 95, 1966, 2115
7963, 790, 1395, 1397, 2122
7964, 871, 249, 1587, 1586
7965, 931, 1490, 282, 1959
7966, 1078, 1768, 1584, 1830
7967, 1278, 1290, 1287, 1978
7968, 396, 1850, 441, 2023
7969, 619, 1697, 1638, 1286
7970, 452, 1216, 74, 1998
7971, 1339, 1322, 160, 2092
7972, 1826, 1746, 1072, 1773
7973, 1001, 1537, 337, 1978
7974, 3, 647, 5, 2070
7975, 1412, 1353, 1411, 2114
7976, 1095, 1577, 1096, 2043
7977, 510, 517, 1989, 2096
7978, 1751, 2059, 1801, 2149
7979, 1735, 1776, 1582, 1780
7980, 1433, 1348, 181, 2062
7981, 482, 1837, 483, 2125
7982, 1278, 998, 337, 1621
7983, 1762, 1763, 1738, 2059
7984, 2087, 2094, 536, 2119
7985, 1401, 846, 1403, 2083
7986, 1648, 2009, 505, 2151
7987, 1571, 1954, 1090, 2015
7988, 265, 1688, 1653, 2009
7989, 1483, 1480, 1482, 2072
7990, 1287, 1290, 1283, 2014
7991, 517, 1914, 2096, 2116
7992, 1288, 1086, 1664, 1637
7993, 502, 2098, 1967, 2137
7994, 1288, 1278, 337, 1621
7995, 1159, 1158, 1919, 2089
7996, 1790, 866, 1596, 1808
7997, 270, 1981, 1676, 2091
7998, 196, 694, 1412, 1939
7999, 934, 31, 1573, 1984
8000, 511, 510, 517, 1989
8001, 1587, 249, 1761, 1829
8002, 1215, 467, 1216, 2133
8003, 1405, 1928, 785, 1942
8004, 1776, 1595, 1775, 1735
8005, 1771, 1585, 1770, 1753
8006, 2097, 2098, 514, 2143
8007, 1970, 2068, 575, 2139
8008, 1046, 739, 852, 2142
8009, 259, 1443, 890, 1974
8010, 1932, 2099, 2019, 2119
8011, 1621, 601, 503, 1651
8012, 1963, 1993, 134, 2016
8013, 1628, 1648, 505, 2151
8014, 1541, 1542, 2110, 2145
8015, 394, 1860, 1957, 2129
8016, 157, 1334, 1434, 2092
8017, 1846, 485, 81, 2100
8018, 1528, 348, 1559, 2141
8019, 1577, 2020, 1650, 2106
8020, 1260, 580, 1936, 2136
8021, 645, 1935, 144, 2063
8022, 324, 2135, 1579, 2148
8023, 1300, 627, 126, 2004
8024, 1492, 930, 932, 2021
8025, 1763, 1824, 1798, 2059
8026, 761, 1388, 1381, 2025
8027, 1196, 1194, 468, 2126
8028, 201, 170, 1414, 853
8029, 571, 572, 569, 2040
8030, 1774, 1054, 1073, 1825
8031, 393, 392, 19, 1957
8032, 1232, 1237, 533, 2119
8033, 1243, 1936, 580, 2136
8034, 949, 364, 1580, 1971
8035, 1198, 483, 2002, 2125
8036, 1080, 1817, 49, 1079
8037, 731, 711, 1581, 2026
8038, 999, 2013, 1041, 2098
8039, 1320, 1323, 1324, 2090
8040, 372, 1878, 1879, 2050
8041, 262, 1644, 889, 2151
8042, 635, 1671, 1685, 1989
8043, 125, 1316, 627, 2004
8044, 133, 2057, 637, 2085
8045, 1176, 1174, 1175, 1957
8046, 1815, 243, 1583, 1787
8047, 1809, 1757, 1822, 2027
8048, 1283, 1276, 1289, 2070
8049, 285, 938, 1513, 960
8050, 236, 1493, 1491, 2146
8051, 182, 1916, 683, 1981
8052, 1927, 2044, 1126, 2120
8053, 362, 2024, 1063, 2106
8054, 1103, 1715, 1104, 2107
8055, 795, 796, 1398, 2130
8056, 379, 647, 3, 2070
8057, 932, 1493, 1492, 2021
8058, 455, 456, 73, 1961
8059, 1352, 1351, 686, 2121
8060, 1951, 2088, 2018, 2117
8061, 1697, 619, 1295, 1286
8062, 1470, 1935, 1472, 2030
8063, 683, 903, 904, 2003
8064, 1530, 975, 1529, 2005
8065, 1811, 1592, 1771, 2027
8066, 142, 1939, 1313, 2114
8067, 1593, 1584, 1768, 1830
8068, 1215, 408, 2038, 2133
8069, 1202, 485, 476, 2100
8070, 1667, 1066, 273, 1990
8071, 673, 1073, 172, 675
8072, 504, 1686, 1225, 1651
8073, 1569, 1026, 1027, 1929
8074, 1280, 596, 506, 2036
8075, 1325, 1327, 2016, 2116
8076, 1750, 1589, 1582, 2059
8077, 1919, 2018, 1951, 2089
8078, 190, 573, 1917, 1965
8079, 1282, 1285, 1281, 2077
8080, 605, 95, 1966, 2061
8081, 1825, 1047, 1054, 1953
8082, 1510, 1500, 828, 2029
8083, 573, 542, 1246, 568
8084, 905, 903, 1455, 2003
8085, 1875, 1873, 1866, 2013
8086, 1542, 303, 1007, 2110
8087, 393, 389, 392, 1957
8088, 1479, 761, 762, 2025
8089, 1332, 1316, 1336, 2004
8090, 1815, 1761, 1587, 1800
8091, 554, 556, 1244, 553
8092, 1073, 1600, 673, 2142
8093, 1246, 543, 573, 568
8094, 1982, 2010, 1944, 2086
8095, 754, 755, 1476, 1908
8096, 1915, 1965, 1955, 2047
8097, 2031, 2060, 331, 2118
8098, 1350, 227, 228, 742
8099, 1255, 549, 550, 560
8100, 485, 1202, 81, 2100
8101, 783, 1928, 1908, 2044
8102, 1911, 2000, 1929, 2145
8103, 452, 1597, 1074, 2133
8104, 1869, 1941, 1853, 1996
8105, 290, 940, 1512, 2147
8106, 125, 627, 1299, 2004
8107, 189, 1351, 687, 1917
8108, 1641, 1642, 1690, 2135
8109, 502, 602, 503, 2098
8110, 643, 1939, 925, 2011
8111, 1586, 870, 249, 956
8112, 1647, 1655, 1612, 2094
8113, 966, 2007, 929, 2109
8114, 1765, 1766, 1588, 2150
8115, 1702, 781, 236, 2146
8116, 1090, 1091, 1117, 1954
8117, 801, 1380, 1391, 1949
8118, 1065, 1916, 1981, 2003
8119, 726, 2022, 1900, 2045
8120, 1524, 1944, 1525, 2141
8121, 1275, 107, 594, 2128
8122, 1411, 1353, 1917, 2114
8123, 1778, 1591, 1587, 1800
8124, 1524, 1528, 1526, 2141
8125, 1588, 1732, 736, 2058
8126, 962, 1070, 963, 2147
8127, 1796, 1816, 1131, 1958
8128, 1545, 1991, 1546, 2140
8129, 1752, 1798, 1824, 2059
8130, 364, 1585, 1770, 1580
8131, 1764, 1588, 1766, 2149
8132, 1386, 1388, 760, 2025
8133, 188, 697, 688, 1352
8134, 1744, 1738, 1798, 2059
8135, 1054, 1774, 1047, 1825
8136, 1583, 1134, 1788, 1785
8137, 727, 663, 163, 1927
8138, 864, 1797, 857, 1799
8139, 1698, 1709, 1110, 1983
8140, 1072, 729, 1773, 2150
8141, 1653, 1693, 1604, 2009
8142, 1612, 1642, 1641, 2135
8143, 1874, 1860, 1945, 2129
8144, 16, 389, 393, 1957
8145, 1668, 1680, 273, 1962
8146, 928, 927, 282, 1959
8147, 363, 1640, 1641, 2135
8148, 852, 739, 853, 2142
8149, 1587, 1589, 1778, 1777
8150, 1288, 337, 1278, 1978
8151, 576, 2086, 1944, 2109
8152, 1925, 1974, 1525, 1988
8153, 626, 1302, 630, 2052
8154, 1825, 173, 737, 1983
8155, 1859, 1858, 1857, 2111
8156, 1915, 2047, 1955, 2048
8157, 1579, 2135, 2093, 2148
8158, 517, 527, 1238, 2096
8159, 1927, 1942, 1053, 1943
8160, 1276, 594, 107, 2128
8161, 798, 799, 1404, 1964
8162, 1575, 1065, 1902, 1959
8163, 1608, 1671, 132, 2057
8164, 1366, 733, 223, 2058
8165, 222, 733, 167, 2058
8166, 1581, 2026, 729, 2150
8167, 1740, 1759, 1793, 2026
8168, 319, 984, 1609, 2042
8169, 1063, 363, 1954, 2024
8170, 1249, 1255, 550, 2087
8171, 882, 1443, 259, 1974
8172, 1386, 760, 759, 2025
8173, 923, 924, 694, 916
8174, 1798, 1738, 1763, 2059
8175, 610, 1691, 1615, 2113
8176, 1594, 420, 1817, 1079
8177, 167, 733, 710, 2058
8178, 569, 1245, 2040, 2041
8179, 365, 406, 1045, 2133
8180, 834, 239, 906, 1995
8181, 871, 1587, 1581, 1586
8182, 394, 1860, 1176, 1957
8183, 1059, 1903, 1984, 2017
8184, 506, 599, 507, 1937
8185, 1750, 1806, 1582, 1596
8186, 1159, 1158, 392, 1919
8187, 1315, 194, 1409, 2030
8188, 1715, 1958, 1104, 2107
8189, 1882, 1883, 1892, 2118
8190, 1399, 845, 1401, 2083
8191, 540, 539, 586, 1990
8192, 1302, 1301, 630, 2052
8193, 1512, 940, 1513, 2147
8194, 1006, 1911, 1541, 2110
8195, 1874, 1957, 1860, 2129
8196, 1434, 158, 194, 2092
8197, 1651, 1686, 1225, 1636
8198, 1220, 2078, 499, 2129
8199, 385, 384, 1156, 1987
8200, 1545, 1544, 2110, 2140
8201, 481, 482, 1198, 2125
8202, 1236, 522, 515, 2138
8203, 1015, 1528, 349, 2141
8204, 1175, 394, 1176, 1957
8205, 1102, 1095, 1101, 2020
8206, 642, 1939, 643, 2011
8207, 134, 1639, 1666, 1963
8208, 1181, 67, 1933, 2127
8209, 528, 2048, 95, 2115
8210, 1597, 1079, 365, 2133
8211, 1222, 1937, 510, 2057
8212, 998, 1633, 503, 2143
8213, 268, 2007, 898, 2109
8214, 125, 2004, 1299, 2052
8215, 1770, 1807, 1580, 1592
8216, 1755, 1784, 1598, 1080
8217, 1101, 1717, 1102, 2107
8218, 758, 759, 1478, 2025
8219, 505, 1691, 1648, 1088
8220, 1681, 328, 1642, 2132
8221, 1219, 1874, 1945, 2129
8222, 624, 645, 644, 2063
8223, 1757, 1584, 1804, 2027
8224, 405, 31, 1108, 2124
8225, 1802, 71, 1772, 1998
8226, 1884, 2050, 373, 2132
8227, 577, 1579, 2093, 2148
8228, 31, 934, 1108, 1984
8229, 137, 638, 1990, 1993
8230, 1840, 2015, 1120, 2134
8231, 563, 547, 564, 2071
8232, 474, 1907, 475, 1950
8233, 1826, 1927, 1072, 2123
8234, 1649, 1634, 1648, 2009
8235, 511, 512, 1226, 2151
8236, 1073, 173, 1774, 1825
8237, 1490, 1923, 1959, 2021
8238, 1778, 1808, 1790, 1591
8239, 1083, 608, 1602, 2073
8240, 991, 1579, 324, 1571
8241, 439, 498, 62, 2018
8242, 241, 1470, 922, 918
8243, 823, 1389, 1910, 1949
8244, 1813, 1805, 1767, 2150
8245, 578, 2031, 1985, 2132
8246, 2023, 2050, 1921, 2100
8247, 1319, 1326, 1331, 2104
8248, 514, 522, 95, 2061
8249, 1628, 1644, 1649, 2151
8250, 1065, 1923, 1959, 2007
8251, 955, 2095, 954, 2147
8252, 1486, 1481, 753, 1908
8253, 1583, 1788, 1590, 1785
8254, 1846, 81, 2050, 2100
8255, 2094, 2101, 1960, 2119
8256, 190, 1353, 139, 2114
8257, 1602, 1279, 608, 1284
8258, 1894, 372, 1879, 2023
8259, 1583, 1590, 1587, 1829
8260, 112, 654, 1439, 1976
8261, 1020, 1922, 1561, 2140
8262, 996, 333, 993, 1997
8263, 965, 2110, 1542, 2145
8264, 734, 2058, 1600, 2142
8265, 1226, 1619, 512, 504
8266, 651, 1327, 652, 2085
8267, 1311, 1938, 1310, 2114
8268, 1543, 343, 1005, 2145
8269, 1591, 1815, 243, 1583
8270, 510, 2085, 1937, 2116
8271, 1883, 1979, 1884, 2132
8272, 1066, 1661, 1659, 2091
8273, 509, 2048, 2039, 2063
8274, 1844, 1837, 1100, 2125
8275, 501, 499, 1941, 1996
8276, 1220, 498, 2018, 2129
8277, 605, 94, 2049, 2115
8278, 1868, 2098, 2097, 2143
8279, 1724, 1959, 927, 2046
8280, 1348, 1433, 181, 1427
8281, 485, 1847, 65, 2023
8282, 1603, 609, 1288, 1637
8283, 1053, 1927, 1902, 1942
8284, 687, 907, 1917, 1995
8285, 754, 1486, 753, 1908
8286, 681, 1449, 178, 2055
8287, 754, 1476, 1486, 1908
8288, 644, 645, 144, 2063
8289, 617, 1296, 629, 2065
8290, 1384, 764, 1407, 1928
8291, 509, 510, 1222, 2116
8292, 864, 1599, 1821, 1799
8293, 1400, 1964, 836, 2130
8294, 1513, 960, 938, 2147
8295, 1797, 1599, 857, 1799
8296, 855, 49, 419, 1079
8297, 420, 419, 49, 1079
8298, 1959, 2046, 1724, 2067
8299, 1396, 838, 839, 2130
8300, 1590, 1134, 1788, 1583
8301, 1942, 2122, 1943, 2123
8302, 1594, 1584, 1757, 2027
8303, 1749, 1790, 1779, 1596
8304, 91, 92, 1220, 2018
8305, 1582, 1599, 1797, 1799
8306, 507, 509, 1222, 2090
8307, 1915, 2048, 1955, 2115
8308, 635, 136, 637, 2085
8309, 962, 963, 960, 2147
8310, 1114, 964, 2000, 2046
8311, 1571, 324, 991, 990
8312, 1103, 1104, 2106, 2107
8313, 995, 1036, 331, 1997
8314, 1825, 1953, 1127, 2123
8315, 1721, 1712, 1115, 2001
8316, 602, 502, 1275, 2128
8317, 984, 1534, 317, 2042
8318, 1803, 1768, 1078, 1137
8319, 1346, 1344, 1345, 2142
8320, 102, 2040, 1936, 2041
8321, 319, 986, 983, 2042
8322, 1937, 2057, 2036, 2144
8323, 1793, 1734, 1778, 1589
8324, 547, 1248, 564, 2071
8325, 514, 1918, 515, 2138
8326, 1479, 1482, 1478, 2025
8327, 137, 273, 139, 1990
8328, 275, 1948, 911, 2056
8329, 217, 724, 1900, 2022
8330, 1809, 1822, 1733, 2027
8331, 1744, 1781, 1780, 2059
8332, 779, 778, 781, 2146
8333, 1798, 1781, 1744, 2059
8334, 1456, 908, 274, 1948
8335, 1747, 1807, 1592, 294
8336, 1001, 337, 1637, 1978
8337, 1848, 1144, 373, 2050
8338, 1344, 170, 674, 853
8339, 713, 210, 869, 1899
8340, 932, 1491, 1493, 2021
8341, 1129, 1130, 1108, 2124
8342, 1886, 1895, 1888, 2018
8343, 1482, 1485, 1478, 2025
8344, 190, 1917, 573, 1995
8345, 1090, 1118, 1842, 1954
8346, 182, 180, 1916, 1970
8347, 1594, 420, 1597, 1998
8348, 1597, 1074, 1585, 1998
8349, 118, 260, 1295, 610
8350, 118, 260, 610, 1601
8351, 406, 34, 407, 2124
8352, 1573, 1903, 1574, 1912
8353, 513, 336, 1654, 2064
8354, 503, 513, 1227, 2143
8355, 1122, 1722, 1704, 1929
8356, 1046, 739, 1073, 1983
8357, 1296, 619, 1638, 1286
8358, 646, 647, 379, 2070
8359, 1958, 2106, 1104, 2107
8360, 406, 365, 1045, 2124
8361, 1798, 1752, 1781, 2059
8362, 794, 1953, 795, 2130
8363, 1906, 1907, 1572, 1934
8364, 514, 515, 522, 2138
8365, 1470, 918, 1328, 1935
8366, 1596, 1582, 1750, 1589
8367, 1846, 372, 2023, 2050
8368, 485, 2023, 65, 2100
8369, 328, 1650, 362, 2043
8370, 281, 1576, 927, 929
8371, 47, 1216, 467, 2133
8372, 692, 120, 621, 2030
8373, 1175, 1174, 1173, 1957
8374, 1005, 343, 2000, 2145
8375, 1932, 2101, 2094, 2119
8376, 479, 1199, 1197, 2080
8377, 1078, 1768, 1803, 1584
8378, 1237, 1270, 533, 2119
8379, 1487, 752, 1481, 1908
8380, 1830, 1593, 1078, 1077
8381, 1925, 2005, 2042, 2102
8382, 929, 2007, 268, 2109
8383, 1746, 1047, 1825, 2123
8384, 392, 1158, 22, 2129
8385, 836, 1962, 837, 2130
8386, 10, 1155, 1861, 2082
8387, 1589, 1778, 1790, 1591
8388, 1874, 1941, 1865, 1957
8389, 1, 1143, 1834, 2079
8390, 297, 285, 1521, 960
8391, 1771, 1585, 1802, 2027
8392, 1770, 1807, 1592, 1747
8393, 506, 1937, 1222, 2057
8394, 1770, 1585, 1771, 1592
8395, 673, 1600, 1073, 2058
8396, 794, 1394, 2054, 2130
8397, 894, 264, 1940, 2009
8398, 954, 955, 956, 2095
8399, 641, 1993, 1938, 2076
8400, 173, 1825, 1073, 1983
8401, 1576, 927, 929, 2007
8402, 505, 1648, 1628, 1088
8403, 975, 1678, 313, 2005
8404, 1112, 1719, 1702, 2067
8405, 372, 1846, 1849, 2050
8406, 514, 1967, 502, 2098
8407, 1804, 1757, 1803, 1584
8408, 1079, 1760, 1080, 1595
8409, 1559, 2141, 320, 2148
8410, 1283, 1289, 1282, 2070
8411, 1114, 1113, 964, 2046
8412, 1648, 1634, 1672, 2009
8413, 536, 1270, 2087, 2119
8414, 1544, 1545, 1011, 2140
8415, 447, 1998, 50, 2027
8416, 934, 1573, 403, 2131
8417, 126, 628, 1300, 2004
8418, 1282, 1281, 2065, 2077
8419, 305, 1563, 346, 2140
8420, 1648, 1672, 505, 2009
8421, 931, 1959, 282, 2067
8422, 79, 475, 1907, 1950
8423, 1574, 1575, 1066, 1947
8424, 1656, 1611, 1947, 2083
8425, 1288, 1278, 1287, 1978
8426, 1903, 1984, 2017, 2084
8427, 1311, 1939, 1938, 2114
8428, 1534, 984, 319, 2042
8429, 1036, 1897, 331, 1997
8430, 1157, 2023, 1894, 2088
8431, 1527, 1526, 1523, 1991
8432, 1483, 1484, 1480, 2072
8433, 509, 1914, 517, 2116
8434, 1766, 1805, 2149, 2150
8435, 554, 1261, 556, 555
8436, 1854, 341, 1143, 2079
8437, 1442, 1974, 882, 1986
8438, 599, 595, 1274, 1289
8439, 1928, 1942, 1405, 2083
8440, 625, 124, 1297, 2112
8441, 1586, 2095, 1070, 2147
8442, 1263, 1260, 102, 2040
8443, 1566, 1024, 1929, 2134
8444, 935, 1494, 275, 1948
8445, 1524, 1525, 1988, 2141
8446, 1541, 1911, 1006, 2145
8447, 1433, 179, 680, 2062
8448, 1457, 907, 908, 1995
8449, 1205, 1206, 1210, 1945
8450, 1677, 1947, 1606, 2054
8451, 102, 1969, 1936, 2131
8452, 1227, 514, 2098, 2143
8453, 1064, 1065, 1576, 2007
8454, 1695, 1962, 1607, 2130
8455, 964, 302, 1726, 2000
8456, 1833, 1834, 1143, 2079
8457, 31, 1984, 1108, 2124
8458, 157, 158, 1434, 1334
8459, 1568, 1019, 1565, 2134
8460, 1570, 1031, 1032, 1929
8461, 1882, 1979, 1883, 2118
8462, 949, 293, 1820, 1971
8463, 1939, 2011, 1311, 2076
8464, 1657, 1656, 1947, 1981
8465, 513, 1633, 1654, 336
8466, 752, 753, 1481, 1908
8467, 1826, 1773, 1072, 1927
8468, 1536, 335, 1918, 2064
8469, 1650, 1577, 1096, 2020
8470, 849, 659, 1434, 2092
8471, 1366, 223, 734, 2058
8472, 1802, 1585, 1998, 2027
8473, 47, 467, 417, 2133
8474, 178, 680, 179, 2062
8475, 1886, 92, 2018, 2117
8476, 1587, 1800, 871, 1777
8477, 1826, 1072, 1746, 2123
8478, 672, 1345, 207, 2142
8479, 851, 1969, 1411, 2056
8480, 1749, 1793, 1790, 1589
8481, 551, 1249, 550, 2093
8482, 576, 1065, 2007, 2071
8483, 552, 578, 1251, 1985
8484, 1619, 1652, 504, 1088
8485, 67, 1179, 1933, 1975
8486, 1483, 1482, 905, 2003
8487, 1592, 1771, 1770, 1747
8488, 503, 998, 1651, 1633
8489, 1307, 1993, 640, 2016
8490, 67, 444, 1182, 2127
8491, 1649, 1643, 1693, 2009
8492, 1975, 2043, 2002, 2100
8493, 325, 990, 324, 2135
8494, 1331, 1316, 1321, 2052
8495, 639, 641, 138, 2076
8496, 1431, 1428, 1429, 1986
8497, 1761, 249, 1587, 871
8498, 1594, 1755, 1598, 1080
8499, 290, 954, 940, 2147
8500, 723, 726, 2045, 2120
8501, 1181, 1933, 444, 2127
8502, 1066, 1659, 1682, 1947
8503, 1808, 1596, 1790, 1591
8504, 1570, 1030, 1031, 1929
8505, 1303, 127, 631, 2077
8506, 597, 105, 1280, 2113
8507, 1835, 1100, 1837, 2125
8508, 1090, 1117, 1118, 1954
8509, 1885, 2118, 1979, 2132
8510, 1513, 940, 954, 2147
8511, 646, 628, 647, 2070
8512, 1686, 1225, 512, 504
8513, 1591, 1778, 1808, 1800
8514, 1572, 1907, 1906, 2081
8515, 1573, 1574, 1067, 1912
8516, 73, 1731, 1769, 1961
8517, 1596, 1749, 1790, 1589
8518, 1032, 1033, 1570, 1929
8519, 1427, 1433, 1432, 2062
8520, 1131, 1769, 1819, 1958
8521, 784, 785, 1385, 1928
8522, 1215, 1214, 460, 2133
8523, 866, 1596, 1808, 856
8524, 1635, 986, 319, 2042
8525, 1499, 1504, 1508, 2029
8526, 1260, 1936, 2040, 2136
8527, 1846, 1845, 1847, 2023
8528, 903, 235, 904, 2003
8529, 408, 1215, 460, 2133
8530, 273, 906, 190, 1962
8531, 1066, 1574, 1947, 1962
8532, 1472, 1935, 1468, 2030
8533, 1590, 956, 1829, 1785
8534, 1588, 736, 1073, 2058
8535, 1319, 1331, 2036, 2104
8536, 1580, 1585, 1770, 1592
8537, 421, 47, 417, 2133
8538, 1822, 1812, 1733, 2027
8539, 730, 1729, 164, 2026
8540, 674, 1344, 853, 2142
8541, 1691, 610, 1615, 1087
8542, 1742, 2026, 1589, 2149
8543, 133, 2057, 2085, 2144
8544, 1596, 1420, 857, 856
8545, 1145, 1848, 373, 2050
8546, 515, 2064, 2019, 2138
8547, 536, 2087, 1249, 2093
8548, 821, 1408, 822, 1949
8549, 157, 1322, 1334, 2092
8550, 1067, 1965, 2041, 2056
8551, 1864, 7, 51, 1852
8552, 954, 290, 955, 2147
8553, 1627, 837, 1962, 2130
8554, 19, 392, 22, 2129
8555, 1721, 1115, 1720, 2001
8556, 962, 2000, 1972, 2046
8557, 829, 1510, 828, 2029
8558, 547, 563, 1256, 2071
8559, 1391, 1406, 800, 1949
8560, 1937, 2085, 2057, 2144
8561, 1637, 337, 1288, 1978
8562, 699, 1459, 199, 2121
8563, 672, 207, 854, 2142
8564, 1503, 1505, 1500, 2105
8565, 1686, 1619, 1652, 504
8566, 1610, 1674, 1673, 2113
8567, 1794, 1804, 1584, 2027
8568, 1390, 784, 1385, 1928
8569, 1916, 1930, 1065, 2071
8570, 566, 545, 1247, 2139
8571, 103, 551, 1252, 558
8572, 1601, 260, 1614, 1086
8573, 1578, 1958, 1954, 2001
8574, 1577, 362, 1650, 2043
8575, 1610, 130, 129, 2036
8576, 1215, 77, 408, 460
8577, 217, 1900, 726, 2022
8578, 476, 2002, 484, 2100
8579, 674, 1343, 1344, 2142
8580, 1862, 1863, 1861, 1957
8581, 1814, 1767, 1791, 2150
8582, 1573, 1912, 934, 1984
8583, 1325, 2076, 2039, 2116
8584, 599, 506, 596, 2036
8585, 515, 1918, 2064, 2138
8586, 1256, 1982, 538, 2071
8587, 1070, 1971, 963, 2147
8588, 1459, 699, 1460, 2121
8589, 1401, 845, 846, 2083
8590, 1709, 796, 1110, 1953
8591, 510, 2096, 2085, 2116
8592, 652, 637, 136, 2085
8593, 1893, 2088, 1882, 2118
8594, 1303, 631, 1976, 2077
8595, 395, 2088, 2018, 2089
8596, 1470, 147, 918, 1935
8597, 630, 125, 626, 2052
8598, 1562, 1020, 1563, 2140
8599, 1896, 376, 1897, 2060
8600, 1806, 1750, 1779, 1596
8601, 270, 904, 1676, 1981
8602, 221, 732, 731, 2026
8603, 512, 1686, 317, 2042
8604, 1379, 1910, 801, 2029
8605, 1286, 108, 1295, 610
8606, 243, 867, 858, 244
8607, 242, 863, 245, 861
8608, 682, 178, 179, 2062
8609, 576, 1250, 1982, 2086
8610, 1138, 1784, 1818, 1598
8611, 1590, 1586, 956, 2095
8612, 1836, 1120, 1905, 2134
8613, 1201, 468, 1200, 1950
8614, 231, 1428, 177, 1986
8615, 243, 1583, 1787, 1133
8616, 510, 2057, 1937, 2085
8617, 1690, 1641, 363, 1616
8618, 1148, 501, 1941, 1996
8619, 854, 207, 734, 2142
8620, 1345, 734, 207, 2142
8621, 907, 687, 906, 1995
8622, 1681, 992, 330, 1985
8623, 484, 1144, 81, 2050
8624, 352, 1918, 1871, 1997
8625, 1545, 344, 1007, 2110
8626, 609, 1279, 1603, 1288
8627, 1073, 739, 1046, 2142
8628, 492, 1206, 1209, 1945
8629, 1940, 2009, 262, 2151
8630, 577, 2086, 1922, 2148
8631, 1934, 2127, 404, 2131
8632, 1988, 2005, 974, 2042
8633, 625, 2065, 124, 2112
8634, 1866, 354, 1872, 1978
8635, 654, 632, 1439, 1976
8636, 1000, 1537, 1001, 1978
8637, 1159, 392, 18, 2049
8638, 1790, 1793, 1778, 1589
8639, 738, 1127, 224, 1983
8640, 1638, 631, 114, 2077
8641, 1398, 796, 1400, 2130
8642, 1094, 1095, 1102, 2020
8643, 1599, 1080, 1775, 1595
8644, 857, 1582, 1797, 1596
8645, 680, 179, 1433, 1428
8646, 801, 1910, 1389, 1949
8647, 1874, 1941, 1957, 2129
8648, 1289, 599, 596, 2036
8649, 1033, 1034, 1570, 1929
8650, 1000, 1001, 1538, 1978
8651, 1431, 1432, 1428, 2062
8652, 1574, 1953, 1943, 2054
8653, 681, 178, 1924, 2055
8654, 1783, 1803, 1757, 1584
8655, 1599, 1775, 1789, 1776
8656, 1146, 374, 1877, 2117
8657, 406, 1045, 2037, 2124
8658, 1568, 1567, 1019, 2032
8659, 1660, 1661, 1665, 2091
8660, 837, 838, 1398, 2130
8661, 1927, 1943, 1072, 2123
8662, 1783, 1755, 1784, 1598
8663, 1576, 1578, 1571, 1911
8664, 1535, 995, 993, 1997
8665, 910, 937, 935, 1948
8666, 129, 631, 1638, 2077
8667, 1110, 1953, 1127, 1983
8668, 1897, 1036, 334, 1997
8669, 935, 1956, 1948, 2105
8670, 92, 1146, 501, 2078
8671, 1891, 1893, 1882, 2118
8672, 852, 1984, 1046, 2142
8673, 1308, 138, 640, 2076
8674, 322, 988, 987, 1932
8675, 1524, 1526, 1944, 2141
8676, 1080, 1594, 1817, 1079
8677, 1243, 2040, 1936, 2136
8678, 1594, 1755, 50, 1757
8679, 1206, 435, 1210, 1945
8680, 1849, 81, 1848, 2050
8681, 348, 1528, 1015, 2141
8682, 1885, 2031, 2118, 2132
8683, 1561, 1922, 2032, 2110
8684, 503, 998, 1621, 1651
8685, 133, 637, 652, 2085
8686, 1882, 2088, 1979, 2118
8687, 1886, 1877, 92, 2117
8688, 92, 1220, 2018, 2078
8689, 2094, 2135, 1612, 2148
8690, 531, 1271, 532, 1231
8691, 1489, 932, 1923, 2021
8692, 446, 1184, 1183, 2066
8693, 132, 1671, 635, 2057
8694, 1067, 1574, 1962, 1995
8695, 1736, 1730, 169, 2058
8696, 975, 2005, 263, 2151
8697, 460, 1214, 36, 2133
8698, 593, 503, 1278, 601
8699, 498, 62, 2018, 2129
8700, 1706, 1927, 1126, 1942
8701, 948, 941, 284, 1971
8702, 1774, 1073, 1054, 1047
8703, 1581, 2149, 2026, 2150
8704, 1145, 1878, 372, 2050
8705, 1829, 1583, 1590, 1785
8706, 576, 1982, 1256, 2071
8707, 1702, 931, 282, 2067
8708, 899, 878, 898, 1930
8709, 753, 782, 754, 1908
8710, 1739, 2026, 1740, 2149
8711, 897, 898, 878, 2109
8712, 924, 277, 1475, 1952
8713, 1787, 244, 243, 1133
8714, 1746, 1047, 1072, 1791
8715, 1741, 1743, 1786, 2149
8716, 1742, 1793, 1589, 2026
8717, 594, 1290, 602, 2128
8718, 160, 1322, 157, 2092
8719, 1099, 480, 479, 2080
8720, 32, 446, 1183, 2066
8721, 516, 2102, 2005, 2151
8722, 1528, 1524, 349, 2141
8723, 784, 785, 1928, 2044
8724, 1439, 632, 111, 1976
8725, 1929, 2000, 1905, 2001
8726, 514, 605, 94, 2049
8727, 1267, 547, 1256, 548
8728, 524, 512, 516, 2102
8729, 596, 600, 1280, 506
8730, 1080, 1775, 1789, 1599
8731, 173, 1073, 675, 1983
8732, 559, 550, 560, 2093
8733, 1641, 1640, 325, 2135
8734, 1779, 1790, 866, 1596
8735, 1974, 2005, 1925, 2102
8736, 1807, 1580, 1592, 294
8737, 321, 1932, 320, 2141
8738, 784, 1714, 785, 2044
8739, 1988, 2075, 1524, 2141
8740, 182, 575, 1916, 1981
8741, 1060, 1575, 1574, 1943
8742, 1745, 1813, 1782, 2149
8743, 1905, 1911, 1578, 2000
8744, 640, 1993, 1325, 2116
8745, 2016, 2096, 1914, 2116
8746, 475, 1098, 79, 1907
8747, 391, 644, 18, 2115
8748, 1176, 1860, 434, 1957
8749, 1158, 1159, 1157, 2089
8750, 1205, 1209, 1206, 1945
8751, 796, 1708, 1110, 1953
8752, 1592, 1747, 1134, 1593
8753, 1746, 1825, 1127, 2123
8754, 1626, 1625, 987, 2101
8755, 988, 320, 321, 1932
8756, 1452, 899, 1453, 1930
8757, 1523, 1559, 1528, 348
8758, 516, 511, 525, 2102
8759, 1364, 1363, 717, 719
8760, 1186, 414, 1187, 463
8761, 1220, 499, 1219, 2129
8762, 1891, 2088, 1893, 2118
8763, 2018, 2078, 1951, 2117
8764, 1834, 377, 1, 2079
8765, 1282, 1281, 1277, 2065
8766, 504, 1652, 1686, 1651
8767, 1883, 1885, 1979, 2132
8768, 1638, 116, 1296, 2077
8769, 1764, 1762, 1588, 2059
8770, 1933, 2023, 1921, 2100
8771, 1969, 2056, 913, 2131
8772, 405, 404, 401, 2131
8773, 1447, 895, 680, 2034
8774, 1073, 1825, 1054, 1983
8775, 1815, 1587, 1591, 1800
8776, 476, 485, 66, 2100
8777, 480, 1199, 479, 2080
8778, 43, 418, 464, 1165
8779, 1574, 1943, 1575, 1947
8780, 1443, 263, 890, 2005
8781, 318, 349, 1524, 2141
8782, 1134, 1592, 1593, 1590
8783, 569, 572, 102, 2040
8784, 680, 177, 175, 1428
8785, 1070, 1586, 1580, 2095
8786, 1818, 1789, 247, 242
8787, 1065, 1916, 575, 1981
8788, 1803, 1598, 1078, 1584
8789, 452, 74, 453, 1998
8790, 1730, 735, 169, 2058
8791, 1805, 1813, 1745, 2149
8792, 1570, 1029, 1030, 1929
8793, 574, 544, 1247, 566
8794, 1797, 1582, 1781, 1752
8795, 1932, 2094, 2087, 2119
8796, 751, 1487, 234, 2146
8797, 1245, 542, 569, 1265
8798, 1625, 323, 987, 2101
8799, 26, 29, 1180, 1933
8800, 1513, 938, 1514, 2147
8801, 1475, 2011, 1328, 2053
8802, 1591, 1589, 1778, 1587
8803, 345, 2032, 1028, 2110
8804, 276, 912, 1459, 2056
8805, 169, 736, 1810, 2058
8806, 1325, 1993, 640, 2076
8807, 923, 280, 921, 1952
8808, 483, 80, 2002, 2125
8809, 1073, 172, 675, 1983
8810, 226, 1430, 899, 1930
8811, 1592, 1794, 1771, 1747
8812, 1143, 341, 1833, 2079
8813, 1593, 1078, 1584, 1830
8814, 1573, 1984, 31, 2124
8815, 1706, 1126, 1927, 2044
8816, 99, 1273, 603, 2041
8817, 474, 473, 1907, 1950
8818, 1822, 1804, 1812, 2027
8819, 1130, 406, 2037, 2124
8820, 1577, 1650, 362, 2106
8821, 1698, 799, 1709, 1964
8822, 1331, 2103, 2036, 2104
8823, 895, 1448, 680, 2034
8824, 1490, 1959, 931, 2021
8825, 92, 501, 499, 2078
8826, 1023, 1568, 1565, 2134
8827, 1102, 2020, 1101, 2107
8828, 420, 1755, 50, 1594
8829, 536, 589, 1270, 2119
8830, 1842, 1954, 1118, 2015
8831, 1582, 1797, 1806, 1752
8832, 1579, 1076, 2093, 2135
8833, 595, 1289, 1276, 2069
8834, 2018, 2088, 1951, 2089
8835, 1023, 1565, 1022, 2134
8836, 983, 1988, 1534, 2042
8837, 385, 1155, 384, 2082
8838, 1776, 1582, 1595, 1735
8839, 1249, 2087, 550, 2093
8840, 619, 1296, 607, 1286
8841, 935, 275, 910, 1948
8842, 460, 36, 408, 2133
8843, 112, 1293, 613, 1976
8844, 1782, 1814, 729, 2150
8845, 1327, 1317, 153, 2085
8846, 875, 724, 217, 2022
8847, 1922, 1064, 1991, 2086
8848, 375, 1146, 1890, 2117
8849, 347, 1523, 1922, 2140
8850, 640, 1325, 2016, 2116
8851, 322, 1932, 987, 2101
8852, 1576, 1571, 1064, 1911
8853, 320, 2141, 1932, 2148
8854, 936, 1956, 237, 2084
8855, 1821, 1599, 1776, 1799
8856, 1254, 2068, 539, 2139
8857, 1579, 1064, 1571, 2032
8858, 1919, 1941, 2078, 2129
8859, 343, 1929, 1704, 2000
8860, 1591, 1808, 1596, 856
8861, 1545, 1007, 1991, 2110
8862, 1800, 1761, 1587, 871
8863, 1583, 1748, 1134, 1785
8864, 1458, 187, 909, 2121
8865, 671, 1360, 1359, 705
8866, 1516, 1515, 939, 942
8867, 543, 567, 573, 568
8868, 1861, 2008, 1957, 2082
8869, 298, 956, 955, 2095
8870, 513, 1633, 336, 2143
8871, 1571, 2015, 990, 2134
8872, 1805, 1786, 1766, 2149
8873, 894, 1940, 265, 2009
8874, 1780, 1799, 1582, 1781
8875, 1668, 1667, 1066, 273
8876, 175, 179, 680, 1428
8877, 1891, 2117, 2088, 2118
8878, 1491, 2021, 931, 2146
8879, 1757, 50, 1594, 2027
8880, 1107, 1907, 1130, 2081
8881, 1589, 1588, 2059, 2149
8882, 1585, 1771, 1592, 2027
8883, 1729, 1739, 164, 2026
8884, 1873, 1859, 1868, 2098
8885, 1734, 1589, 1793, 2026
8886, 1194, 1196, 1195, 2126
8887, 1359, 704, 170, 1414
8888, 1248, 547, 1256, 2071
8889, 965, 303, 1542, 2110
8890, 626, 1302, 2052, 2112
8891, 806, 1497, 937, 805
8892, 1177, 434, 59, 1860
8893, 1385, 1384, 1390, 1928
8894, 951, 963, 979, 1971
8895, 1541, 1007, 344, 2110
8896, 1951, 2018, 1919, 2078
8897, 907, 906, 239, 1995
8898, 2020, 2081, 1101, 2107
8899, 36, 409, 408, 2133
8900, 783, 1928, 1381, 2025
8901, 1685, 1646, 635, 1989
8902, 1090, 1954, 1842, 2015
8903, 405, 1934, 404, 2131
8904, 900, 1452, 1453, 1930
8905, 1201, 2002, 66, 2126
8906, 1252, 551, 552, 558
8907, 564, 1248, 547, 546
8908, 1919, 2078, 2018, 2129
8909, 1378, 1908, 783, 2025
8910, 546, 565, 575, 2139
8911, 1001, 340, 1603, 1085
8912, 1072, 1927, 1053, 1943
8913, 1375, 1374, 750, 1377
8914, 1490, 928, 282, 1959
8915, 1104, 1838, 1093, 2106
8916, 1844, 80, 483, 2125
8917, 1933, 1975, 1179, 2100
8918, 403, 1573, 31, 405
8919, 1803, 1078, 1598, 1137
8920, 145, 1319, 1331, 2036
8921, 137, 638, 1605, 1990
8922, 92, 2078, 2018, 2117
8923, 298, 1590, 956, 2095
8924, 1588, 1581, 1072, 2150
8925, 515, 2064, 1918, 2143
8926, 1876, 376, 1147, 2118
8927, 542, 573, 569, 568
8928, 605, 514, 95, 2061
8929, 318, 320, 349, 2141
8930, 1695, 1627, 1962, 2130
8931, 607, 1295, 619, 1286
8932, 1451, 1452, 900, 1930
8933, 1288, 609, 610, 1601
8934, 443, 1975, 66, 2100
8935, 1933, 2023, 1157, 2089
8936, 1157, 2023, 2088, 2089
8937, 788, 2083, 1942, 2122
8938, 760, 761, 1479, 2025
8939, 1054, 1964, 1903, 1983
8940, 1511, 1948, 908, 2105
8941, 1845, 1846, 372, 2023
8942, 170, 201, 674, 853
8943, 209, 210, 869, 713
8944, 363, 1571, 1640, 2135
8945, 223, 1775, 1595, 1735
8946, 1127, 1953, 1825, 1983
8947, 1718, 1961, 1717, 2107
8948, 998, 336, 1633, 2143
8949, 1391, 1408, 1382, 1949
8950, 1789, 863, 242, 1599
8951, 1577, 1572, 1573, 1934
8952, 352, 1871, 1039, 1997
8953, 376, 331, 1897, 2060
8954, 669, 169, 735, 2058
8955, 1803, 1598, 1783, 1137
8956, 1933, 1969, 1160, 2131
8957, 1587, 1581, 1589, 2026
8958, 569, 2040, 102, 2041
8959, 652, 1327, 153, 2085
8960, 102, 1936, 1969, 2041
8961, 1165, 464, 43, 1187
8962, 1544, 1011, 346, 2140
8963, 33, 406, 409, 2037
8964, 876, 877, 875, 2022
8965, 937, 935, 1948, 2105
8966, 1142, 1077, 243, 1583
8967, 1904, 1949, 1910, 1983
8968, 1836, 1022, 1021, 2134
8969, 271, 900, 1923, 1930
8970, 1149, 7, 51, 1864
8971, 1289, 2036, 1280, 2103
8972, 65, 66, 485, 2100
8973, 1559, 348, 320, 2141
8974, 232, 749, 891, 1986
8975, 1630, 1676, 904, 1981
8976, 1156, 11, 13, 2108
8977, 575, 1066, 1981, 2091
8978, 1425, 216, 875, 1901
8979, 1346, 205, 1418, 854
8980, 187, 1458, 699, 2121
8981, 900, 1453, 269, 1930
8982, 1307, 1308, 640, 1993
8983, 1079, 1600, 855, 1595
8984, 999, 1037, 1868, 1041
8985, 330, 2031, 331, 2132
8986, 1885, 2031, 331, 2118
8987, 1747, 1592, 1794, 1795
8988, 1260, 2040, 1263, 2136
8989, 1396, 1398, 838, 2130
8990, 364, 1796, 1819, 1075
8991, 875, 217, 726, 2022
8992, 1408, 1391, 1380, 1949
8993, 515, 1918, 514, 2143
8994, 1343, 674, 200, 2142
8995, 1245, 100, 1265, 2040
8996, 681, 1924, 180, 2055
8997, 888, 232, 891, 1986
8998, 1065, 1066, 1575, 1981
8999, 1502, 1507, 908, 1995
9000, 135, 636, 134, 2016
9001, 1571, 363, 1640, 1954
9002, 1583, 243, 1142, 1133
9003, 1124, 2046, 876, 2067
9004, 1902, 1927, 1061, 2045
9005, 1881, 1893, 1889, 2088
9006, 577, 2087, 2086, 2148
9007, 137, 1990, 139, 1993
9008, 1059, 1574, 1573, 1903
9009, 77, 38, 408, 460
9010, 1155, 16, 2008, 2082
9011, 1429, 1974, 1431, 1986
9012, 1101, 1100, 1718, 2081
9013, 920, 280, 923, 1952
9014, 1399, 789, 1397, 2122
9015, 1574, 1962, 1953, 2054
9016, 1628, 889, 1644, 2151
9017, 1510, 829, 1499, 2029
9018, 1543, 1005, 1542, 2145
9019, 1064, 2086, 576, 2109
9020, 596, 1280, 1289, 2036
9021, 1799, 1582, 1776, 1780
9022, 1403, 1942, 787, 2083
9023, 1728, 1816, 1820, 1971
9024, 146, 1315, 1330, 2030
9025, 1199, 476, 1201, 2002
9026, 1891, 1882, 1892, 2118
9027, 924, 923, 921, 1952
9028, 1063, 1954, 1578, 1958
9029, 577, 549, 1255, 560
9030, 610, 1285, 1280, 2113
9031, 1954, 1958, 1063, 2024
9032, 512, 982, 1619, 1678
9033, 609, 108, 610, 1601
9034, 1641, 1690, 363, 2135
9035, 683, 904, 182, 1981
9036, 1126, 2044, 1112, 2120
9037, 992, 332, 993, 1997
9038, 1575, 1902, 1065, 2003
9039, 1632, 1634, 1623, 2009
9040, 13, 11, 1410, 2108
9041, 1015, 349, 320, 2141
9042, 1583, 1829, 1787, 1785
9043, 1582, 1599, 857, 1797
9044, 1535, 994, 334, 1997
9045, 244, 1142, 243, 1133
9046, 1504, 832, 833, 2029
9047, 909, 686, 1917, 2121
9048, 1888, 1886, 2018, 2088
9049, 321, 320, 986, 2141
9050, 360, 1050, 1958, 2001
9051, 983, 986, 318, 2141
9052, 1443, 889, 263, 2005
9053, 684, 184, 1349, 1916
9054, 376, 331, 2060, 2118
9055, 1064, 2109, 1911, 2110
9056, 855, 223, 1775, 1595
9057, 420, 1594, 1597, 1079
9058, 565, 545, 566, 2139
9059, 221, 731, 1581, 2026
9060, 185, 1916, 227, 1930
9061, 836, 1964, 1962, 2130
9062, 848, 1981, 904, 2003
9063, 181, 178, 682, 2062
9064, 1251, 553, 557, 552
9065, 1077, 1142, 1748, 1583
9066, 611, 1291, 613, 1976
9067, 573, 1066, 273, 1962
9068, 513, 336, 2064, 2143
9069, 273, 190, 573, 1962
9070, 1502, 1910, 1507, 1995
9071, 395, 1888, 2018, 2088
9072, 1289, 1280, 1282, 2103
9073, 1835, 482, 481, 2125
9074, 1067, 2041, 1969, 2056
9075, 563, 576, 1256, 2071
9076, 1766, 2149, 1588, 2150
9077, 1907, 2037, 1045, 2124
9078, 865, 859, 1420, 1596
9079, 1745, 1741, 1786, 2149
9080, 546, 575, 2068, 2139
9081, 549, 1255, 1250, 2086
9082, 470, 1190, 469, 2066
9083, 847, 904, 848, 1981
9084, 492, 1209, 1208, 1945
9085, 1177, 60, 1860, 1945
9086, 499, 2078, 1941, 2129
9087, 1103, 2106, 1102, 2107
9088, 764, 1384, 765, 1928
9089, 10, 1861, 1155, 2008
9090, 1586, 1070, 1972, 2147
9091, 1874, 1865, 1860, 1957
9092, 1576, 964, 929, 281
9093, 1212, 493, 85, 490
9094, 936, 237, 1723, 2084
9095, 674, 853, 200, 2142
9096, 1192, 445, 1190, 2066
9097, 1818, 1789, 242, 1599
9098, 1885, 1884, 329, 2132
9099, 864, 857, 1599, 1799
9100, 1316, 2004, 125, 2052
9101, 1061, 1902, 1053, 1927
9102, 182, 180, 1348, 1916
9103, 1907, 1934, 1906, 1950
9104, 1779, 865, 1806, 1596
9105, 1514, 938, 296, 2147
9106, 998, 2098, 999, 2143
9107, 1168, 7, 1169, 381
9108, 1794, 1804, 1768, 1584
9109, 1576, 2000, 1911, 2145
9110, 1097, 1831, 342, 2073
9111, 180, 270, 267, 1970
9112, 1573, 1068, 1577, 1934
9113, 913, 402, 851, 1969
9114, 1070, 1580, 364, 1971
9115, 1612, 323, 1647, 2094
9116, 372, 1849, 1145, 2050
9117, 1885, 1883, 1979, 2118
9118, 1065, 1930, 1923, 2007
9119, 1806, 1797, 1582, 1596
9120, 1290, 594, 1276, 2128
9121, 456, 451, 73, 1961
9122, 1787, 246, 244, 1133
9123, 574, 1066, 575, 2091
9124, 421, 447, 448, 1998
9125, 1601, 118, 260, 1081
9126, 260, 619, 118, 1295
9127, 1235, 524, 516, 2102
9128, 327, 1021, 1565, 2134
9129, 1726, 343, 1704, 2000
9130, 1103, 1716, 1715, 2107
9131, 1576, 1959, 927, 2007
9132, 1797, 1582, 1799, 1781
9133, 1471, 620, 120, 2030
9134, 8, 1153, 55, 2033
9135, 1847, 1850, 65, 2023
9136, 1121, 1722, 1122, 1929
9137, 573, 1965, 1246, 2041
9138, 1589, 1790, 1596, 1591
9139, 1096, 1577, 1095, 2020
9140, 576, 562, 1250, 2086
9141, 617, 606, 1296, 2065
9142, 29, 444, 1933, 2127
9143, 146, 122, 1315, 2030
9144, 629, 127, 1301, 2112
9145, 200, 853, 739, 2142
9146, 516, 525, 1235, 2102
9147, 95, 605, 1966, 2115
9148, 923, 916, 279, 1952
9149, 1194, 445, 1192, 2126
9150, 53, 1152, 8, 2033
9151, 1428, 1432, 1433, 2062
9152, 505, 1224, 511, 2009
9153, 1067, 573, 1917, 1995
9154, 1573, 1903, 1912, 1984
9155, 1429, 1428, 231, 1986
9156, 896, 1646, 266, 2055
9157, 1584, 1592, 1794, 2027
9158, 610, 1280, 105, 2113
9159, 160, 157, 1434, 2092
9160, 34, 852, 407, 1984
9161, 1523, 1559, 347, 1922
9162, 1220, 2018, 2078, 2129
9163, 1699, 794, 793, 2123
9164, 1077, 1748, 1593, 1583
9165, 1572, 1056, 1907, 2081
9166, 1056, 359, 1050, 1961
9167, 934, 1912, 1573, 2131
9168, 1700, 1714, 1112, 2044
9169, 1460, 699, 1458, 2121
9170, 619, 1638, 116, 1296
9171, 544, 567, 1253, 543
9172, 1452, 226, 899, 1930
9173, 1479, 905, 1482, 2003
9174, 938, 960, 296, 2147
9175, 1323, 1325, 1337, 2039
9176, 1254, 1247, 545, 2139
9177, 276, 1948, 1912, 2056
9178, 1204, 1209, 1205, 1945
9179, 1234, 1272, 530, 531
9180, 1603, 1637, 1001, 1085
9181, 107, 595, 1276, 2069
9182, 670, 168, 673, 2058
9183, 1713, 446, 1107, 1907
9184, 589, 533, 1270, 2119
9185, 187, 699, 188, 2121
9186, 1592, 1584, 1794, 1795
9187, 1066, 1947, 1575, 1981
9188, 328, 330, 331, 2132
9189, 328, 331, 329, 2132
9190, 318, 1988, 983, 2141
9191, 679, 177, 1445, 1986
9192, 1063, 2020, 1577, 2106
9193, 1316, 1331, 1336, 2104
9194, 1706, 1942, 1126, 2123
9195, 437, 61, 1212, 1213
9196, 1292, 111, 611, 1976
9197, 1160, 1157, 1159, 2089
9198, 1198, 476, 1199, 2002
9199, 1575, 1576, 1065, 1959
9200, 1086, 1601, 260, 1081
9201, 174, 738, 224, 1983
9202, 1064, 1991, 1944, 2109
9203, 629, 1301, 1302, 2112
9204, 1193, 1191, 468, 1950
9205, 1524, 1526, 1525, 1944
9206, 1682, 1668, 1066, 1962
9207, 700, 739, 738, 1983
9208, 308, 1015, 1528, 970
9209, 439, 62, 1158, 2018
9210, 68, 1907, 469, 2066
9211, 1348, 1427, 183, 1916
9212, 1944, 1991, 1526, 2109
9213, 1708, 1953, 794, 2123
9214, 597, 1280, 600, 2113
9215, 1747, 1592, 1795, 1593
9216, 1064, 2007, 1911, 2109
9217, 1470, 147, 1935, 2030
9218, 27, 65, 1850, 2023
9219, 1675, 1613, 270, 2091
9220, 913, 851, 912, 2056
9221, 285, 297, 938, 960
9222, 1071, 1049, 1052, 1972
9223, 1877, 1890, 1146, 2117
9224, 498, 439, 62, 493
9225, 506, 1222, 510, 2057
9226, 960, 963, 296, 2147
9227, 1433, 229, 181, 1427
9228, 404, 1934, 405, 2124
9229, 1062, 1578, 1576, 1911
9230, 1835, 1837, 482, 2125
9231, 1343, 1345, 1344, 2142
9232, 7, 53, 1852, 1152
9233, 629, 124, 2065, 2112
9234, 1902, 2003, 1928, 2025
9235, 1944, 1991, 1064, 2086
9236, 1576, 281, 927, 2046
9237, 795, 1953, 796, 2130
9238, 1064, 1944, 2086, 2109
9239, 1694, 1625, 1626, 2101
9240, 1208, 1209, 1204, 1945
9241, 1679, 1622, 1673, 2113
9242, 791, 792, 1393, 2123
9243, 1890, 2117, 1891, 2118
9244, 1488, 1484, 1483, 2072
9245, 1678, 975, 263, 2151
9246, 1580, 1807, 949, 294
9247, 1795, 1134, 1747, 1593
9248, 328, 1645, 362, 1650
9249, 110, 129, 2036, 2103
9250, 1065, 1923, 1916, 2003
9251, 129, 130, 110, 2036
9252, 231, 230, 747, 1428
9253, 557, 578, 1251, 552
9254, 123, 1294, 617, 2065
9255, 876, 877, 2022, 2046
9256, 130, 131, 110, 2036
9257, 1080, 1818, 1598, 242
9258, 1514, 1512, 1513, 2147
9259, 1593, 371, 1748, 1077
9260, 1869, 86, 1896, 1996
9261, 1306, 1305, 634, 2144
9262, 1576, 964, 2000, 2145
9263, 1516, 1517, 291, 957
9264, 1883, 1884, 1885, 2132
9265, 1067, 1068, 1573, 2131
9266, 1612, 2135, 325, 2148
9267, 564, 1248, 546, 575
9268, 509, 517, 510, 2116
9269, 1328, 1935, 1318, 2011
9270, 830, 802, 831, 2029
9271, 1066, 1067, 1574, 1962
9272, 1622, 1679, 1691, 2113
9273, 2044, 2045, 1902, 2120
9274, 1897, 331, 1997, 2060
9275, 183, 1350, 1349, 1916
9276, 829, 830, 1499, 2029
9277, 1053, 1902, 1575, 1942
9278, 1888, 1887, 1886, 2088
9279, 145, 1319, 2036, 2144
9280, 751, 781, 752, 2146
9281, 1060, 1943, 1574, 1953
9282, 1144, 1096, 329, 2043
9283, 1787, 1583, 1748, 1133
9284, 944, 285, 1515, 1521
9285, 1326, 1336, 1331, 2104
9286, 867, 1591, 1815, 243
9287, 1216, 1214, 1215, 2133
9288, 371, 1142, 1748, 1077
9289, 1576, 1062, 1911, 2000
9290, 1296, 2065, 1281, 2077
9291, 1571, 990, 2032, 2134
9292, 1020, 1562, 326, 1922
9293, 366, 1092, 1838, 2024
9294, 629, 617, 116, 1296
9295, 1764, 2059, 1588, 2149
9296, 434, 20, 1176, 433
9297, 1067, 1917, 1948, 1995
9298, 834, 1949, 239, 1995
9299, 1311, 138, 641, 2076
9300, 1893, 1887, 1889, 2088
9301, 1957, 2008, 16, 2082
9302, 309, 1528, 1524, 349
9303, 577, 1064, 1922, 2086
9304, 1576, 964, 281, 2046
9305, 1590, 1593, 1134, 1583
9306, 1007, 303, 1991, 2110
9307, 290, 945, 1512, 940
9308, 460, 458, 36, 1214
9309, 713, 208, 711, 1898
9310, 1343, 200, 674, 700
9311, 1826, 1126, 1927, 2123
9312, 1064, 1991, 2109, 2110
9313, 348, 1015, 320, 2141
9314, 786, 1942, 785, 2044
9315, 956, 1590, 298, 1785
9316, 1219, 1996, 1874, 2129
9317, 1057, 358, 1075, 1958
9318, 1094, 1103, 1093, 2106
9319, 352, 1871, 1918, 2143
9320, 764, 763, 1407, 1928
9321, 693, 195, 1412, 695
9322, 617, 124, 625, 2065
9323, 1659, 1947, 1066, 2091
9324, 979, 1971, 301, 2001
9325, 1577, 1906, 1934, 2002
9326, 800, 1698, 801, 1983
9327, 514, 502, 1227, 2098
9328, 96, 97, 522, 591
9329, 96, 97, 591, 527
9330, 578, 103, 1076, 1985
9331, 1864, 1149, 52, 424
9332, 1061, 1959, 1902, 2067
9333, 1255, 577, 560, 2087
9334, 242, 1080, 1818, 1599
9335, 1294, 646, 123, 617
9336, 1602, 1083, 2, 380
9337, 1906, 1950, 1934, 2002
9338, 1813, 2149, 1805, 2150
9339, 1189, 1950, 1192, 2066
9340, 397, 1160, 1159, 2089
9341, 1098, 1907, 1713, 2081
9342, 1527, 1526, 1991, 2109
9343, 323, 2094, 1612, 2148
9344, 371, 1748, 1134, 1593
9345, 1219, 499, 1996, 2129
9346, 1259, 1263, 2040, 2136
9347, 1126, 1942, 1927, 2123
9348, 505, 2009, 511, 2151
9349, 1843, 1092, 366, 2024
9350, 27, 442, 65, 2023
9351, 336, 999, 335, 2143
9352, 336, 998, 999, 2143
9353, 1075, 356, 1044, 1958
9354, 1619, 1686, 512, 504
9355, 622, 120, 620, 2030
9356, 1810, 1736, 169, 2058
9357, 1575, 1928, 1902, 2003
9358, 116, 127, 1296, 2077
9359, 1598, 1784, 1818, 1080
9360, 1815, 1591, 1808, 1800
9361, 1656, 1981, 1630, 2083
9362, 1083, 1004, 1082, 1603
9363, 480, 2080, 1099, 2125
9364, 617, 1294, 606, 2065
9365, 189, 686, 1351, 1917
9366, 179, 230, 1433, 1428
9367, 544, 1247, 566, 545
9368, 1488, 930, 1484, 2072
9369, 1130, 2037, 1907, 2124
9370, 133, 132, 637, 2057
9371, 927, 1959, 1576, 2046
9372, 1108, 1984, 1129, 2124
9373, 403, 401, 30, 2131
9374, 1022, 1565, 1021, 2134
9375, 541, 2040, 1245, 2041
9376, 449, 71, 453, 1998
9377, 756, 782, 1378, 1908
9378, 1613, 1660, 1665, 2091
9379, 1873, 1868, 1041, 2098
9380, 142, 1313, 140, 2114
9381, 1511, 1508, 937, 2105
9382, 1615, 1691, 1679, 2113
9383, 1929, 2000, 343, 2145
9384, 1776, 1789, 1599, 1821
9385, 1047, 1746, 1072, 2123
9386, 307, 1014, 1523, 308
9387, 764, 765, 905, 2003
9388, 140, 1310, 139, 2114
9389, 1876, 1890, 1891, 2118
9390, 1102, 1094, 2020, 2106
9391, 511, 516, 512, 2151
9392, 1391, 1382, 1406, 1949
9393, 1099, 2080, 478, 2081
9394, 1958, 1961, 1572, 2107
9395, 1927, 2045, 2044, 2120
9396, 1017, 349, 1524, 350
9397, 2045, 2046, 1959, 2067
9398, 179, 747, 1428, 175
9399, 1613, 1675, 1660, 2091
9400, 1638, 1697, 619, 883
9401, 1679, 1673, 1674, 2113
9402, 1638, 616, 114, 883
9403, 1789, 1818, 1080, 1599
9404, 1815, 867, 243, 244
9405, 1103, 1102, 1716, 2107
9406, 304, 1527, 1011, 2140
9407, 546, 575, 1248, 2068
9408, 856, 1591, 858, 243
9409, 1974, 1988, 1925, 2005
9410, 1795, 1584, 1768, 1593
9411, 405, 401, 403, 2131
9412, 515, 513, 2019, 2064
9413, 1862, 1957, 1861, 2008
9414, 1577, 1906, 1572, 1934
9415, 1129, 1984, 34, 2124
9416, 1958, 2020, 1063, 2106
9417, 363, 1579, 1571, 2135
9418, 1623, 1634, 1653, 2009
9419, 1698, 1964, 1709, 1983
9420, 180, 1970, 267, 2055
9421, 1426, 215, 252, 253
9422, 251, 250, 1518, 299
9423, 1143, 52, 1854, 2079
9424, 1394, 839, 2054, 2130
9425, 318, 1524, 2075, 2141
9426, 910, 274, 937, 1948
9427, 1067, 1948, 1912, 1995
9428, 1874, 1860, 84, 1945
9429, 305, 346, 1011, 2140
9430, 1021, 327, 1836, 2134
9431, 1599, 1582, 1776, 1799
9432, 470, 469, 1907, 2066
9433, 923, 279, 920, 1952
9434, 983, 1534, 319, 2042
9435, 139, 1938, 1309, 1993
9436, 1112, 1719, 2067, 2120
9437, 1813, 1767, 1814, 2150
9438, 1103, 1104, 1093, 2106
9439, 1089, 1119, 1840, 2015
9440, 848, 1928, 1981, 2003
9441, 195, 923, 924, 694
9442, 1067, 1917, 1965, 2056
9443, 1199, 2002, 1201, 2080
9444, 644, 1413, 18, 2115
9445, 858, 866, 1808, 856
9446, 905, 765, 235, 2003
9447, 899, 269, 1453, 1930
9448, 1574, 1912, 1904, 1995
9449, 1894, 1157, 23, 2023
9450, 1068, 1975, 1921, 2043
9451, 1904, 1912, 1956, 2105
9452, 1158, 395, 2018, 2089
9453, 1958, 1063, 2024, 2106
9454, 899, 1430, 878, 1930
9455, 1089, 1842, 1119, 2015
9456, 296, 938, 1514, 951
9457, 448, 467, 47, 1216
9458, 1786, 1805, 1745, 2149
9459, 432, 434, 59, 433
9460, 1379, 827, 1910, 2029
9461, 908, 819, 820, 1995
9462, 1499, 830, 831, 2029
9463, 1827, 727, 163, 1927
9464, 931, 1702, 236, 2146
9465, 1574, 1903, 1054, 1964
9466, 1918, 2064, 335, 2143
9467, 538, 2068, 1248, 2071
9468, 1075, 356, 1958, 1961
9469, 1408, 820, 1382, 1949
9470, 309, 1017, 1524, 310
9471, 846, 1630, 904, 1981
9472, 1330, 1329, 147, 2030
9473, 1411, 2056, 1917, 2121
9474, 1576, 2000, 964, 2046
9475, 1080, 1817, 1818, 1760
9476, 979, 963, 301, 1971
9477, 1525, 1524, 1988, 2075
9478, 1922, 1064, 2032, 2110
9479, 116, 127, 629, 1296
9480, 1588, 2149, 1581, 2150
9481, 274, 1511, 937, 1948
9482, 1649, 1693, 1634, 2009
9483, 983, 1925, 1988, 2042
9484, 1204, 1205, 491, 1945
9485, 1583, 1142, 1748, 1133
9486, 8, 53, 486, 425
9487, 867, 858, 1591, 243
9488, 846, 904, 847, 1981
9489, 1958, 1572, 2020, 2107
9490, 1126, 1827, 1826, 1927
9491, 1900, 217, 723, 724
9492, 207, 1345, 672, 710
9493, 513, 515, 514, 2143
9494, 2093, 2135, 2094, 2148
9495, 1586, 1590, 1580, 2095
9496, 102, 1969, 1067, 2041
9497, 930, 1487, 2072, 2146
9498, 1902, 2003, 2025, 2072
9499, 842, 2054, 1947, 2122
9500, 1588, 1073, 1600, 2058
9501, 1645, 328, 362, 1690
9502, 848, 235, 1928, 2003
9503, 566, 1247, 574, 2139
9504, 1026, 1122, 1027, 1929
9505, 226, 878, 899, 1430
9506, 1068, 2002, 1975, 2043
9507, 1574, 1067, 1912, 1995
9508, 205, 1346, 672, 854
9509, 1901, 216, 875, 724
9510, 1500, 1509, 1910, 2105
9511, 1144, 2043, 329, 2132
9512, 61, 437, 1212, 1945
9513, 1502, 908, 821, 1995
9514, 323, 1612, 325, 2148
9515, 1575, 1065, 1981, 2003
9516, 1067, 1912, 2056, 2131
9517, 1064, 576, 2007, 2109
9518, 1139, 1078, 1598, 242
9519, 360, 1958, 1578, 2001
9520, 2020, 2106, 1958, 2107
9521, 353, 1039, 1871, 1997
9522, 1780, 1781, 1582, 2059
9523, 1337, 2039, 1325, 2076
9524, 1950, 2002, 1906, 2080
9525, 1141, 1593, 1830, 1077
9526, 901, 272, 1923, 2072
9527, 318, 350, 1524, 349
9528, 755, 754, 782, 1908
9529, 1938, 1939, 1915, 2114
9530, 785, 1942, 1928, 2044
9531, 471, 1907, 472, 2066
9532, 1056, 1050, 356, 1961
9533, 147, 1473, 922, 918
9534, 1853, 1941, 1874, 1996
9535, 567, 544, 574, 566
9536, 1004, 1539, 340, 2073
9537, 1979, 2088, 1951, 2118
9538, 781, 1719, 782, 2146
9539, 1351, 1352, 191, 2121
9540, 395, 1157, 2088, 2089
9541, 1803, 1783, 1598, 1584
9542, 648, 113, 1331, 145
9543, 471, 470, 1907, 2066
9544, 790, 1397, 789, 2122
9545, 866, 859, 1596, 856
9546, 1814, 1782, 1813, 2150
9547, 1120, 2015, 1905, 2134
9548, 1593, 1748, 1134, 1583
9549, 1693, 1653, 1634, 2009
9550, 931, 2021, 2067, 2146
9551, 1065, 1959, 1576, 2007
9552, 1562, 1922, 1020, 2140
9553, 1500, 1910, 827, 2029
9554, 908, 239, 819, 1995
9555, 1885, 376, 1876, 2118
9556, 1006, 1929, 1911, 2032
9557, 1595, 2058, 1735, 2059
9558, 1492, 775, 776, 2146
9559, 756, 755, 782, 1908
9560, 1160, 1933, 1157, 2089
9561, 1591, 858, 1808, 856
9562, 438, 1158, 62, 2018
9563, 1004, 1540, 1539, 2073
9564, 144, 1469, 850, 1935
9565, 1526, 880, 1944, 2109
9566, 631, 127, 114, 2077
9567, 948, 978, 293, 1971
9568, 394, 1957, 19, 2129
9569, 763, 905, 1479, 2003
9570, 1788, 298, 1590, 1785
9571, 1768, 1794, 1584, 1795
9572, 1062, 1578, 1911, 2000
9573, 1483, 1482, 2003, 2072
9574, 1582, 1781, 1752, 2059
9575, 1061, 2045, 1959, 2067
9576, 103, 551, 559, 2093
9577, 897, 966, 268, 2109
9578, 1925, 2005, 1988, 2042
9579, 361, 1958, 1050, 1961
9580, 1599, 863, 242, 861
9581, 1277, 1281, 606, 2065
9582, 1782, 2149, 1813, 2150
9583, 447, 421, 50, 1998
9584, 517, 2096, 510, 2116
9585, 2036, 2057, 130, 2144
9586, 1596, 859, 1420, 856
9587, 1654, 336, 1694, 2064
9588, 438, 2018, 62, 2129
9589, 884, 260, 118, 1081
9590, 2093, 2094, 2087, 2148
9591, 1804, 1803, 1768, 1584
9592, 611, 613, 1292, 1976
9593, 1385, 848, 235, 1928
9594, 950, 287, 941, 2095
9595, 1947, 2083, 843, 2122
9596, 227, 1916, 1427, 1930
9597, 1871, 1869, 353, 1997
9598, 966, 967, 1991, 2109
9599, 801, 1698, 1710, 2051
9600, 260, 884, 1086, 1081
9601, 945, 292, 976, 2095
9602, 1317, 1314, 653, 2144
9603, 1204, 491, 1211, 1945
9604, 992, 995, 330, 1997
9605, 549, 1250, 548, 1266
9606, 260, 118, 619, 884
9607, 1705, 1099, 1098, 2081
9608, 1111, 1699, 1711, 2123
9609, 1578, 1905, 2000, 2001
9610, 20, 434, 432, 433
9611, 1908, 1928, 1902, 2044
9612, 1928, 1942, 1902, 2044
9613, 575, 1916, 1065, 2071
9614, 1717, 1716, 1102, 2107
9615, 1728, 293, 1135, 1971
9616, 2087, 2094, 1932, 2148
9617, 398, 1160, 25, 1969
9618, 619, 883, 260, 884
9619, 442, 24, 1157, 2023
9620, 362, 1063, 1577, 2106
9621, 665, 666, 164, 2026
9622, 1355, 691, 1356, 622
9623, 323, 322, 987, 2101
9624, 1051, 1050, 359, 2001
9625, 1487, 1908, 1484, 2072
9626, 834, 1383, 239, 1949
9627, 745, 179, 230, 1433
9628, 913, 1969, 851, 2056
9629, 1319, 145, 1314, 2144
9630, 1005, 302, 1542, 2145
9631, 681, 896, 1449, 2055
9632, 347, 307, 1523, 2140
9633, 263, 2005, 889, 2151
9634, 1941, 1996, 499, 2129
9635, 1594, 50, 1998, 2027
9636, 242, 857, 1599, 861
9637, 577, 2093, 2087, 2148
9638, 831, 832, 1504, 2029
9639, 794, 2054, 1953, 2130
9640, 329, 1096, 328, 2043
9641, 1006, 2032, 1911, 2110
9642, 1138, 1783, 1784, 1598
9643, 1493, 2021, 1491, 2146
9644, 1922, 1991, 1064, 2110
9645, 404, 405, 32, 2124
9646, 1789, 1080, 1818, 1760
9647, 1874, 1996, 1941, 2129
9648, 405, 403, 1573, 2131
9649, 549, 577, 1255, 2086
9650, 1219, 1221, 1220, 2129
9651, 1277, 606, 1294, 2065
9652, 513, 2064, 515, 2143
9653, 1784, 1817, 1818, 1080
9654, 1144, 329, 373, 2132
9655, 1585, 1592, 1594, 2027
9656, 1815, 1808, 1591, 867
9657, 160, 157, 158, 1434
9658, 302, 964, 965, 2145
9659, 1075, 1074, 356, 1961
9660, 194, 160, 158, 1434
9661, 163, 1826, 1827, 1927
9662, 1384, 1385, 235, 1928
9663, 1526, 257, 880, 2109
9664, 1467, 1463, 1461, 1952
9665, 1072, 1943, 1047, 2123
9666, 1046, 1984, 365, 2142
9667, 937, 2029, 1956, 2105
9668, 930, 2021, 1492, 2146
9669, 336, 1536, 997, 2064
9670, 1066, 1947, 1981, 2091
9671, 1575, 1981, 1928, 2003
9672, 191, 1411, 1353, 1917
9673, 723, 726, 217, 1900
9674, 1194, 1192, 1950, 2126
9675, 1059, 1903, 1573, 1984
9676, 1059, 1054, 1903, 1983
9677, 1328, 918, 147, 1935
9678, 1325, 1327, 152, 2016
9679, 1492, 774, 775, 2146
9680, 967, 1527, 304, 1991
9681, 2022, 876, 2046, 2067
9682, 1328, 1329, 1318, 1935
9683, 348, 1528, 1523, 308
9684, 1787, 1748, 1583, 1785
9685, 516, 2005, 512, 2151
9686, 657, 156, 159, 656
9687, 1562, 347, 1922, 2140
9688, 1572, 1958, 361, 1961
9689, 1545, 2110, 1991, 2140
9690, 2045, 2067, 1902, 2120
9691, 1066, 1668, 273, 1962
9692, 263, 1530, 890, 2005
9693, 213, 215, 720, 252
9694, 42, 43, 45, 416
9695, 251, 289, 958, 299
9696, 203, 202, 40, 703
9697, 1572, 1961, 1056, 2081
9698, 1195, 445, 1194, 2126
9699, 1921, 1975, 1933, 2100
9700, 1111, 789, 1706, 2123
9701, 1950, 2002, 1201, 2126
9702, 1789, 863, 1599, 1821
9703, 152, 1327, 651, 2016
9704, 767, 1493, 766, 2146
9705, 1067, 1917, 573, 1965
9706, 1526, 880, 1525, 1944
9707, 949, 1580, 294, 2095
9708, 1795, 1592, 1584, 1593
9709, 579, 1068, 580, 2028
9710, 505, 511, 1226, 2151
9711, 642, 1311, 2011, 2053
9712, 1255, 537, 2086, 2087
9713, 1429, 258, 1431, 1974
9714, 908, 820, 821, 1995
9715, 180, 182, 270, 1970
9716, 364, 358, 1070, 1971
9717, 1572, 1063, 1958, 2020
9718, 177, 231, 175, 1428
9719, 764, 905, 763, 2003
9720, 1477, 1480, 1908, 2025
9721, 111, 631, 611, 1976
9722, 227, 186, 185, 740
9723, 874, 215, 252, 720
9724, 211, 872, 251, 714
9725, 299, 872, 958, 251
9726, 874, 300, 959, 252
9727, 206, 415, 708, 42
9728, 411, 202, 703, 40
9729, 411, 39, 40, 412
9730, 45, 415, 42, 416
9731, 415, 45, 42, 44
9732, 39, 411, 40, 37
9733, 299, 872, 251, 250
9734, 874, 300, 252, 253
9735, 206, 415, 42, 44
9736, 411, 202, 40, 37
9737, 215, 874, 252, 253
9738, 872, 211, 251, 250
9739, 1682, 1066, 1947, 1962
9740, 1351, 1917, 686, 2121
9741, 981, 312, 974, 1988
9742, 52, 1864, 1854, 2079
9743, 122, 1409, 194, 2030
9744, 931, 2021, 1959, 2067
9745, 1061, 1902, 2045, 2067
9746, 632, 1303, 111, 1976
9747, 880, 257, 1430, 2109
9748, 1053, 1061, 1575, 1902
9749, 594, 1276, 107, 595
9750, 965, 1911, 2110, 2145
9751, 213, 215, 1425, 721
9752, 1161, 41, 39, 410
9753, 211, 212, 1421, 716
9754, 1480, 2025, 1482, 2072
9755, 1318, 2053, 2011, 2076
9756, 1256, 538, 1248, 2071
9757, 1511, 1506, 1508, 2105
9758, 302, 2000, 964, 2145
9759, 1726, 1114, 964, 2000
9760, 1862, 1865, 1863, 1957
9761, 1312, 1310, 140, 2114
9762, 1059, 1046, 1983, 2017
9763, 498, 493, 1212, 490
9764, 935, 237, 1496, 1498
9765, 1904, 1964, 1949, 1983
9766, 1072, 1048, 1053, 1927
9767, 846, 1981, 847, 2083
9768, 1656, 1947, 1981, 2083
9769, 1194, 1950, 468, 2126
9770, 1504, 1499, 831, 2029
9771, 1045, 1058, 1907, 2124
9772, 2022, 2045, 876, 2067
9773, 1006, 1911, 1929, 2145
9774, 1137, 1078, 1598, 1139
9775, 991, 1922, 324, 2148
9776, 767, 768, 1493, 2146
9777, 1735, 1595, 223, 2058
9778, 1575, 1053, 1942, 1943
9779, 791, 1393, 2122, 2123
9780, 792, 793, 2054, 2123
9781, 560, 2087, 577, 2093
9782, 654, 112, 1321, 1976
9783, 1184, 2066, 445, 2126
9784, 592, 106, 105, 598
9785, 597, 106, 598, 105
9786, 1576, 1911, 1064, 2007
9787, 1708, 794, 1699, 2123
9788, 123, 617, 625, 2065
9789, 1574, 1054, 1953, 1964
9790, 773, 774, 1492, 2146
9791, 1492, 2021, 1493, 2146
9792, 1050, 1958, 356, 1961
9793, 362, 363, 1063, 2024
9794, 67, 1182, 2126, 2127
9795, 1315, 122, 194, 2030
9796, 68, 445, 1184, 2066
9797, 1063, 363, 1571, 1954
9798, 771, 1493, 770, 2146
9799, 1348, 181, 183, 1427
9800, 769, 1493, 768, 2146
9801, 1948, 2056, 275, 2121
9802, 1247, 1254, 539, 2139
9803, 882, 233, 232, 1986
9804, 664, 163, 663, 1927
9805, 930, 932, 2021, 2072
9806, 1065, 1916, 1923, 1930
9807, 318, 2075, 1988, 2141
9808, 977, 950, 294, 2095
9809, 2088, 2117, 1951, 2118
9810, 769, 770, 1493, 2146
9811, 1527, 257, 1526, 2109
9812, 134, 1307, 135, 2016
9813, 1479, 2003, 1482, 2025
9814, 1962, 2054, 1607, 2130
9815, 1888, 1889, 1887, 2088
9816, 1541, 2110, 1911, 2145
9817, 1885, 1892, 1883, 2118
9818, 2011, 2053, 1311, 2076
9819, 1559, 1562, 347, 1922
9820, 405, 1573, 31, 2124
9821, 802, 828, 1379, 2029
9822, 1584, 1594, 1592, 2027
9823, 1406, 1382, 239, 1949
9824, 780, 779, 781, 2146
9825, 1492, 772, 773, 2146
9826, 1484, 1908, 1480, 2072
9827, 1304, 611, 631, 1976
9828, 1061, 1959, 2045, 2046
9829, 360, 1063, 1578, 1958
9830, 1934, 1975, 1068, 2002
9831, 1381, 1928, 1407, 2025
9832, 1905, 1929, 1024, 2134
9833, 1511, 937, 1948, 2105
9834, 1559, 1523, 347, 348
9835, 1045, 1058, 1056, 1907
9836, 876, 2067, 2045, 2120
9837, 67, 1975, 1933, 2127
9838, 1507, 908, 1995, 2105
9839, 1719, 2067, 1908, 2146
9840, 86, 1869, 89, 1996
9841, 1059, 1054, 1574, 1903
9842, 1624, 1696, 132, 2057
9843, 771, 772, 1492, 2146
9844, 446, 68, 1184, 2066
9845, 1835, 1099, 1100, 2081
9846, 376, 1885, 331, 2118
9847, 1069, 1051, 359, 2001
9848, 1210, 21, 436, 1945
9849, 1578, 1905, 1571, 1911
9850, 1067, 1965, 573, 2041
9851, 1255, 537, 1250, 2086
9852, 820, 819, 1382, 1949
9853, 1826, 1746, 1126, 2123
9854, 2022, 2046, 2045, 2067
9855, 418, 43, 45, 1165
9856, 846, 1630, 1981, 2083
9857, 56, 10, 55, 428
9858, 1576, 1972, 2000, 2046
9859, 498, 1221, 83, 1945
9860, 1125, 876, 219, 2120
9861, 1130, 1907, 1107, 2124
9862, 577, 561, 549, 560
9863, 889, 1628, 263, 2151
9864, 1719, 1908, 782, 2146
9865, 1724, 927, 1113, 2046
9866, 921, 277, 924, 1952
9867, 1406, 239, 1383, 1949
9868, 235, 765, 1384, 1928
9869, 805, 1497, 937, 804
9870, 66, 1975, 2002, 2100
9871, 1641, 325, 1612, 2135
9872, 1067, 2056, 1969, 2131
9873, 771, 1492, 1493, 2146
9874, 324, 1922, 1559, 2148
9875, 1068, 1933, 2127, 2131
9876, 1527, 1991, 967, 2109
9877, 1114, 1726, 1704, 2000
9878, 1378, 757, 1908, 2025
9879, 1728, 1820, 293, 1971
9880, 1854, 52, 1143, 341
9881, 1503, 1508, 1506, 2105
9882, 690, 160, 158, 194
9883, 1376, 749, 233, 1377
9884, 160, 690, 158, 657
9885, 1585, 1594, 1998, 2027
9886, 86, 1148, 1896, 1996
9887, 405, 1573, 1934, 2131
9888, 1303, 631, 111, 1976
9889, 1248, 575, 564, 2071
9890, 776, 777, 1492, 2146
9891, 876, 255, 877, 2046
9892, 102, 1259, 1263, 2040
9893, 311, 971, 310, 2075
9894, 1047, 1060, 1054, 1953
9895, 244, 246, 862, 1133
9896, 1182, 444, 1183, 2127
9897, 1160, 397, 25, 1969
9898, 1903, 1904, 1912, 1956
9899, 1068, 1933, 1921, 1975
9900, 526, 517, 1238, 2096
9901, 219, 876, 726, 2120
9902, 565, 564, 546, 575
9903, 1808, 858, 1591, 867
9904, 352, 1868, 1871, 2143
9905, 263, 975, 1530, 2005
9906, 1961, 2081, 2020, 2107
9907, 1523, 348, 308, 1014
9908, 876, 2045, 726, 2120
9909, 1503, 1506, 1505, 2105
9910, 1248, 2068, 575, 2071
9911, 1212, 490, 85, 1945
9912, 1113, 927, 281, 2046
9913, 806, 805, 803, 2084
9914, 89, 1869, 1853, 1996
9915, 1328, 2011, 1318, 2053
9916, 501, 87, 500, 1996
9917, 786, 785, 1700, 2044
9918, 185, 186, 227, 1350
9919, 1904, 1903, 1964, 1983
9920, 353, 1869, 334, 1997
9921, 437, 436, 21, 1945
9922, 328, 329, 2043, 2132
9923, 92, 1877, 374, 2117
9924, 132, 133, 1305, 2057
9925, 1047, 1072, 1053, 1943
9926, 1210, 435, 21, 1945
9927, 361, 1050, 359, 1961
9928, 817, 818, 1956, 2084
9929, 1934, 2066, 1907, 2124
9930, 1255, 2086, 577, 2087
9931, 1102, 2106, 2020, 2107
9932, 821, 820, 1949, 1995
9933, 1576, 1972, 1062, 2000
9934, 549, 561, 577, 2086
9935, 103, 1579, 1076, 2093
9936, 563, 564, 575, 2071
9937, 694, 279, 923, 916
9938, 757, 1477, 1908, 2025
9939, 1573, 1912, 1067, 2131
9940, 626, 1297, 124, 2112
9941, 1572, 1056, 1058, 1907
9942, 1507, 1995, 1910, 2105
9943, 405, 1934, 1573, 2124
9944, 620, 1468, 119, 2030
9945, 232, 233, 882, 748
9946, 311, 972, 312, 973
9947, 1503, 1500, 2029, 2105
9948, 1058, 1055, 1573, 2124
9949, 476, 80, 484, 2002
9950, 1934, 1950, 1907, 2066
9951, 1054, 1060, 1574, 1953
9952, 237, 1956, 818, 2084
9953, 867, 246, 862, 244
9954, 816, 817, 1956, 2084
9955, 1572, 1063, 361, 1958
9956, 645, 1468, 1469, 1935
9957, 595, 599, 596, 1289
9958, 749, 176, 233, 1377
9959, 1111, 1706, 1126, 2123
9960, 868, 863, 245, 247
9961, 1876, 1891, 1892, 2118
9962, 1573, 1068, 1934, 2131
9963, 980, 981, 316, 2075
9964, 433, 15, 1174, 2008
9965, 747, 175, 231, 1428
9966, 388, 1173, 1174, 2008
9967, 373, 329, 1884, 2132
9968, 867, 1815, 246, 244
9969, 1260, 1936, 102, 2040
9970, 1158, 1157, 395, 2089
9971, 1593, 1141, 371, 1077
9972, 925, 2011, 1475, 2053
9973, 158, 157, 160, 657
9974, 350, 318, 1524, 2075
9975, 613, 1321, 112, 1976
9976, 815, 816, 1956, 2084
9977, 541, 100, 1245, 2040
9978, 1212, 491, 61, 1945
9979, 1055, 1984, 1573, 2124
9980, 593, 594, 1290, 602
9981, 766, 1493, 236, 2146
9982, 565, 566, 574, 2139
9983, 1575, 1060, 1053, 1943
9984, 1538, 339, 1539, 340
9985, 626, 124, 1302, 2112
9986, 1201, 2002, 1950, 2080
9987, 501, 500, 499, 1996
9988, 511, 2009, 1940, 2151
9989, 336, 997, 1694, 2064
9990, 731, 711, 208, 1898
9991, 1923, 2021, 932, 2072
9992, 1281, 1296, 606, 2065
9993, 1111, 1711, 789, 2123
9994, 322, 1559, 320, 2148
9995, 819, 1949, 820, 1995
9996, 814, 815, 1956, 2084
9997, 809, 1956, 808, 2084
9998, 102, 1067, 573, 2041
9999, 1351, 191, 1917, 2121
10000, 1461, 1463, 1464, 1952
10001, 1942, 2083, 1943, 2122
10002, 1468, 1935, 119, 2030
10003, 1048, 1061, 1927, 2045
10004, 1068, 1933, 1975, 2127
10005, 1705, 1098, 1713, 2081
10006, 1574, 1903, 1904, 1912
10007, 1047, 1053, 1060, 1943
10008, 814, 1956, 813, 2084
10009, 497, 439, 498, 493
10010, 1051, 1069, 360, 2001
10011, 1527, 967, 257, 2109
10012, 1407, 1928, 763, 2025
10013, 1205, 1210, 61, 1945
10014, 810, 1956, 809, 2084
10015, 1059, 1984, 1046, 2017
10016, 813, 1956, 812, 2084
10017, 811, 1956, 810, 2084
10018, 1238, 527, 517, 519
10019, 1908, 1902, 1928, 2025
10020, 152, 640, 1325, 2016
10021, 917, 916, 240, 1952
10022, 812, 1956, 811, 2084
10023, 1329, 1328, 147, 1935
10024, 750, 233, 176, 1377
10025, 696, 191, 197, 695
10026, 712, 210, 209, 713
10027, 701, 170, 201, 674
10028, 1578, 2001, 1954, 2015
10029, 1067, 1969, 102, 2131
10030, 559, 560, 577, 2093
10031, 1068, 2127, 1934, 2131
10032, 1019, 2032, 989, 2134
10033, 197, 191, 1411, 695
10034, 744, 183, 228, 743
10035, 1906, 2002, 1577, 2020
10036, 1463, 650, 1464, 1952
10037, 1052, 1049, 1051, 1972
10038, 601, 1278, 593, 592
10039, 642, 141, 1311, 2053
10040, 236, 1493, 932, 1491
10041, 1577, 2002, 1068, 2043
10042, 1568, 2032, 1019, 2134
10043, 68, 1713, 1098, 1907
10044, 461, 38, 77, 460
10045, 342, 1831, 1003, 2073
10046, 286, 947, 291, 940
10047, 361, 1056, 1572, 1069
10048, 434, 1860, 58, 1957
10049, 1950, 1934, 2002, 2126
10050, 600, 597, 596, 1280
10051, 1961, 2020, 1572, 2107
10052, 302, 965, 1542, 2145
10053, 763, 1928, 764, 2003
10054, 61, 436, 437, 1945
10055, 33, 409, 457, 2037
10056, 1354, 634, 653, 2144
10057, 1062, 1576, 1052, 1972
10058, 1465, 1461, 1464, 1952
10059, 1212, 85, 491, 1945
10060, 607, 108, 1295, 1286
10061, 973, 312, 311, 1988
10062, 29, 1183, 444, 2127
10063, 1328, 1318, 150, 2053
10064, 670, 169, 669, 2058
10065, 1948, 1995, 908, 2105
10066, 1211, 491, 85, 1945
10067, 1043, 355, 1872, 1978
10068, 182, 904, 270, 1981
10069, 1962, 1964, 1953, 2130
10070, 1508, 1503, 2029, 2105
10071, 381, 7, 1149, 1150
10072, 354, 1043, 1872, 1978
10073, 1595, 1588, 1600, 2058
10074, 764, 1928, 765, 2003
10075, 1236, 522, 521, 515
10076, 1575, 1902, 1928, 1942
10077, 1050, 358, 1057, 1958
10078, 1991, 2110, 1922, 2140
10079, 61, 1210, 436, 1945
10080, 1318, 1337, 151, 2076
10081, 821, 820, 1408, 1949
10082, 697, 198, 197, 2121
10083, 85, 1207, 1211, 1945
10084, 1577, 1934, 1068, 2002
10085, 307, 969, 306, 2140
10086, 67, 2126, 1975, 2127
10087, 1574, 1904, 1903, 1964
10088, 749, 232, 233, 1986
10089, 131, 2036, 130, 2144
10090, 1329, 1935, 147, 2030
10091, 245, 1138, 868, 247
10092, 66, 2002, 1975, 2126
10093, 180, 267, 896, 2055
10094, 365, 1984, 1055, 2124
10095, 552, 557, 578, 558
10096, 356, 1050, 1044, 1958
10097, 615, 123, 646, 617
10098, 1083, 1084, 2, 380
10099, 1051, 1062, 1972, 2000
10100, 1125, 2067, 876, 2120
10101, 146, 1356, 622, 2030
10102, 1894, 23, 64, 2023
10103, 1719, 1908, 2067, 2120
10104, 1540, 342, 1003, 2073
10105, 1876, 1892, 1885, 2118
10106, 1048, 1061, 1053, 1927
10107, 1052, 1972, 1576, 2046
10108, 1019, 989, 327, 2134
10109, 1585, 1594, 1597, 1998
10110, 917, 1467, 1461, 1952
10111, 363, 1076, 1579, 2135
10112, 278, 925, 1475, 2053
10113, 924, 923, 195, 693
10114, 314, 976, 292, 2095
10115, 723, 162, 725, 2120
10116, 1578, 1905, 2001, 2015
10117, 156, 159, 1438, 655
10118, 629, 127, 116, 616
10119, 1430, 257, 878, 2109
10120, 114, 127, 629, 616
10121, 828, 802, 829, 2029
10122, 829, 802, 830, 2029
10123, 1911, 2032, 1064, 2110
10124, 1049, 1051, 2000, 2001
10125, 1051, 360, 1578, 2001
10126, 46, 78, 467, 465
10127, 952, 297, 938, 285
10128, 1412, 193, 693, 695
10129, 607, 1296, 1281, 1286
10130, 1948, 1956, 1912, 2105
10131, 1067, 1948, 1917, 2056
10132, 1571, 1905, 2015, 2134
10133, 1571, 1911, 1905, 2032
10134, 140, 1353, 142, 2114
10135, 1715, 1131, 1106, 367
10136, 445, 2066, 1192, 2126
10137, 559, 551, 103, 558
10138, 1219, 499, 90, 1996
10139, 808, 1956, 807, 2084
10140, 1009, 977, 294, 2095
10141, 1571, 1578, 1954, 2015
10142, 1571, 1905, 1578, 2015
10143, 995, 331, 330, 1997
10144, 323, 325, 322, 2148
10145, 1061, 2045, 1052, 2046
10146, 801, 2017, 1698, 2051
10147, 109, 1277, 606, 1294
10148, 394, 1175, 19, 1957
10149, 642, 2011, 643, 2053
10150, 1063, 1571, 1578, 1954
10151, 576, 563, 1267, 562
10152, 608, 109, 1602, 1284
10153, 359, 1050, 360, 2001
10154, 692, 649, 147, 2030
10155, 643, 2011, 925, 2053
10156, 1943, 2083, 1947, 2122
10157, 1075, 358, 364, 1971
10158, 1904, 1910, 1995, 2105
10159, 1059, 1573, 1055, 1984
10160, 1068, 1975, 1934, 2127
10161, 1465, 1464, 1462, 1952
10162, 633, 1624, 132, 2057
10163, 1350, 183, 1349, 685
10164, 1351, 688, 191, 1352
10165, 1172, 1170, 1171, 2008
10166, 1014, 347, 1523, 348
10167, 923, 195, 279, 694
10168, 1865, 58, 1860, 1957
10169, 1067, 1912, 1948, 2056
10170, 1902, 2067, 2021, 2146
10171, 439, 395, 63, 1158
10172, 1718, 368, 1717, 1961
10173, 1466, 1464, 650, 1952
10174, 1577, 1063, 1572, 2020
10175, 1148, 87, 501, 1996
10176, 1466, 1462, 1464, 1952
10177, 801, 1983, 1698, 2017
10178, 1310, 1938, 139, 2114
10179, 752, 1908, 1487, 2146
10180, 57, 12, 428, 429
10181, 1536, 336, 335, 2064
10182, 324, 1559, 322, 2148
10183, 1015, 1528, 348, 308
10184, 583, 582, 1264, 2136
10185, 455, 370, 75, 1961
10186, 1934, 1950, 2066, 2126
10187, 1703, 936, 1723, 2084
10188, 633, 130, 1624, 2057
10189, 143, 643, 926, 2053
10190, 1911, 1929, 1905, 2032
10191, 279, 916, 917, 1952
10192, 137, 1308, 638, 1993
10193, 819, 239, 1949, 1995
10194, 1902, 1959, 2021, 2067
10195, 966, 897, 967, 2109
10196, 582, 581, 1264, 2136
10197, 1205, 61, 491, 1945
10198, 738, 739, 225, 1983
10199, 1714, 1700, 785, 2044
10200, 154, 1976, 1321, 2052
10201, 541, 100, 2040, 2136
10202, 802, 1723, 803, 2051
10203, 541, 1243, 100, 2136
10204, 360, 1069, 359, 2001
10205, 1238, 527, 519, 526
10206, 791, 1711, 792, 2123
10207, 1064, 577, 576, 2086
10208, 750, 1429, 231, 1986
10209, 338, 337, 1537, 1978
10210, 541, 2040, 1243, 2136
10211, 765, 1928, 235, 2003
10212, 12, 10, 1155, 2008
10213, 517, 1238, 519, 526
10214, 441, 1845, 64, 2023
10215, 642, 643, 143, 2053
10216, 455, 73, 370, 1961
10217, 575, 1065, 576, 2071
10218, 1482, 2025, 2003, 2072
10219, 750, 233, 1429, 1986
10220, 234, 780, 781, 2146
10221, 1487, 1908, 2072, 2146
10222, 1172, 386, 1170, 2008
10223, 306, 1527, 1523, 2140
10224, 1902, 1908, 2067, 2146
10225, 193, 1412, 693, 689
10226, 56, 57, 12, 428
10227, 807, 1956, 806, 2084
10228, 805, 1956, 804, 2084
10229, 806, 1956, 805, 2084
10230, 994, 353, 334, 1997
10231, 945, 976, 955, 2095
10232, 1575, 1943, 1942, 2083
10233, 231, 678, 1374, 750
10234, 149, 148, 1328, 1952
10235, 336, 335, 2064, 2143
10236, 819, 239, 1382, 1949
10237, 571, 1259, 572, 2040
10238, 306, 1523, 307, 2140
10239, 751, 234, 781, 2146
10240, 1525, 310, 1524, 2075
10241, 1702, 1719, 781, 2146
10242, 521, 522, 1236, 523
10243, 930, 2072, 2021, 2146
10244, 1533, 981, 1988, 2075
10245, 1917, 2056, 1948, 2121
10246, 523, 1236, 521, 515
10247, 1063, 360, 361, 1958
10248, 305, 306, 1563, 2140
10249, 84, 1860, 60, 1945
10250, 1174, 15, 388, 2008
10251, 1835, 1099, 2081, 2125
10252, 139, 1353, 140, 2114
10253, 146, 649, 1356, 2030
10254, 1571, 1064, 1911, 2032
10255, 617, 615, 123, 625
10256, 1084, 2, 1097, 1083
10257, 1947, 2054, 1943, 2122
10258, 147, 649, 1330, 2030
10259, 318, 1533, 983, 1988
10260, 1975, 2002, 1934, 2126
10261, 931, 2067, 1702, 2146
10262, 57, 1862, 1861, 2008
10263, 1575, 1947, 1943, 2083
10264, 1192, 2066, 1950, 2126
10265, 803, 805, 804, 2084
10266, 1835, 2081, 1100, 2125
10267, 1183, 29, 404, 2127
10268, 154, 654, 1321, 1976
10269, 438, 437, 22, 1945
10270, 1908, 1902, 2025, 2072
10271, 681, 180, 896, 2055
10272, 1577, 1572, 1906, 2020
10273, 324, 325, 2135, 2148
10274, 1372, 745, 1371, 682
10275, 219, 725, 1125, 2120
10276, 1928, 2003, 763, 2025
10277, 1084, 1097, 342, 1083
10278, 124, 615, 617, 625
10279, 516, 524, 1235, 520
10280, 1235, 525, 516, 520
10281, 1588, 2058, 1595, 2059
10282, 188, 697, 698, 688
10283, 324, 322, 325, 2148
10284, 1463, 1467, 919, 1952
10285, 1318, 151, 2053, 2076
10286, 1902, 2021, 1908, 2146
10287, 434, 59, 433, 1203
10288, 583, 1264, 101, 2136
10289, 1052, 2045, 2022, 2046
10290, 1557, 1553, 1556, 2075
10291, 976, 298, 955, 2095
10292, 1908, 2025, 1480, 2072
10293, 1171, 431, 430, 2008
10294, 24, 396, 23, 2023
10295, 1953, 2054, 1962, 2130
10296, 1173, 1957, 1174, 2008
10297, 73, 1769, 370, 1961
10298, 139, 1309, 137, 1993
10299, 907, 239, 908, 1995
10300, 1330, 649, 146, 2030
10301, 1910, 1949, 1904, 1995
10302, 1525, 1988, 311, 2075
10303, 1908, 2021, 1902, 2072
10304, 629, 1302, 124, 2112
10305, 1699, 793, 792, 2123
10306, 1943, 2054, 1953, 2123
10307, 235, 903, 905, 2003
10308, 1296, 1281, 606, 607
10309, 1910, 2029, 1500, 2105
10310, 1207, 85, 490, 1945
10311, 131, 130, 1306, 2144
10312, 749, 233, 232, 1376
10313, 1049, 1051, 1972, 2000
10314, 178, 1449, 266, 1447
10315, 1862, 58, 1865, 1957
10316, 1853, 1874, 88, 1996
10317, 119, 1468, 645, 1935
10318, 1540, 1004, 342, 2073
10319, 1061, 1048, 1052, 2045
10320, 486, 487, 82, 8
10321, 393, 1175, 1173, 1957
10322, 499, 500, 90, 1996
10323, 1571, 2032, 1905, 2134
10324, 175, 231, 177, 1347
10325, 1574, 1953, 1962, 1964
10326, 144, 645, 1469, 1935
10327, 801, 2029, 2017, 2051
10328, 1071, 2022, 1052, 2045
10329, 1203, 58, 431, 2008
10330, 917, 240, 1467, 1952
10331, 1903, 2017, 1956, 2084
10332, 1206, 60, 435, 1945
10333, 278, 926, 643, 2053
10334, 1702, 2067, 1719, 2146
10335, 241, 922, 1473, 918
10336, 438, 1945, 22, 2129
10337, 23, 1157, 24, 2023
10338, 1556, 971, 1557, 2075
10339, 198, 1411, 197, 2121
10340, 691, 158, 194, 690
10341, 1217, 1218, 494, 1996
10342, 1906, 2080, 2002, 2125
10343, 608, 1279, 1603, 609
10344, 1052, 1071, 1972, 2046
10345, 2080, 2081, 1099, 2125
10346, 24, 442, 27, 2023
10347, 691, 146, 1356, 622
10348, 1943, 2122, 2054, 2123
10349, 1155, 16, 12, 2008
10350, 1264, 581, 100, 2136
10351, 386, 388, 15, 2008
10352, 1052, 2022, 1071, 2046
10353, 1905, 2032, 1929, 2134
10354, 1377, 233, 1376, 748
10355, 113, 613, 1291, 1976
10356, 1575, 1981, 1947, 2083
10357, 488, 487, 54, 8
10358, 643, 925, 278, 2053
10359, 311, 972, 1557, 1555
10360, 12, 10, 56, 428
10361, 1206, 492, 60, 1945
10362, 971, 1556, 1554, 2075
10363, 386, 14, 1170, 2008
10364, 803, 1723, 237, 2084
10365, 179, 745, 1372, 682
10366, 611, 110, 1291, 1976
10367, 1048, 1071, 1052, 2045
10368, 310, 1525, 311, 2075
10369, 312, 980, 1555, 2075
10370, 493, 439, 62, 1213
10371, 1235, 524, 525, 520
10372, 1556, 1553, 316, 2075
10373, 143, 141, 642, 2053
10374, 1465, 1462, 920, 1952
10375, 58, 430, 431, 2008
10376, 233, 232, 1376, 748
10377, 428, 12, 10, 429
10378, 972, 311, 312, 1555
10379, 102, 572, 1259, 2040
10380, 1934, 2126, 2066, 2127
10381, 488, 487, 8, 82
10382, 1705, 1718, 1100, 2081
10383, 1321, 613, 113, 1976
10384, 802, 1710, 1723, 2051
10385, 360, 1050, 361, 1958
10386, 1554, 1556, 1018, 2075
10387, 1467, 240, 919, 1952
10388, 388, 12, 16, 2008
10389, 1906, 2081, 2080, 2125
10390, 1553, 980, 316, 2075
10391, 622, 620, 122, 2030
10392, 1699, 792, 1711, 2123
10393, 1975, 2126, 1934, 2127
10394, 464, 418, 43, 416
10395, 721, 213, 720, 718
10396, 462, 412, 41, 410
10397, 716, 714, 212, 715
10398, 1465, 279, 1461, 1952
10399, 2021, 2072, 1908, 2146
10400, 633, 132, 1305, 2057
10401, 497, 1888, 395, 63
10402, 488, 55, 8, 427
10403, 19, 1175, 393, 1957
10404, 1173, 16, 1957, 2008
10405, 312, 311, 1988, 2075
10406, 1173, 388, 16, 2008
10407, 611, 1304, 110, 1976
10408, 60, 492, 84, 1945
10409, 1461, 279, 917, 1952
10410, 318, 1533, 1988, 2075
10411, 393, 1173, 16, 1957
10412, 1217, 494, 87, 1996
10413, 1208, 84, 492, 1945
10414, 1262, 570, 101, 2136
10415, 1463, 148, 650, 1952
10416, 1556, 316, 1018, 2075
10417, 1705, 1100, 1099, 2081
10418, 920, 1462, 280, 1952
10419, 1046, 1055, 365, 1984
10420, 1555, 1557, 311, 2075
10421, 2017, 2029, 1956, 2084
10422, 83, 1207, 490, 1945
10423, 650, 148, 149, 1952
10424, 87, 1148, 86, 1996
10425, 58, 1957, 1862, 2008
10426, 430, 58, 1862, 2008
10427, 1109, 1723, 1710, 2051
10428, 57, 1171, 430, 2008
10429, 1463, 919, 148, 1952
10430, 1018, 316, 985, 2075
10431, 723, 725, 726, 2120
10432, 985, 1558, 1018, 2075
10433, 45, 43, 418, 416
10434, 213, 721, 720, 215
10435, 212, 211, 714, 716
10436, 39, 41, 412, 410
10437, 88, 89, 1853, 1996
10438, 231, 175, 678, 1347
10439, 318, 985, 1533, 2075
10440, 1723, 803, 2051, 2084
10441, 311, 312, 1555, 2075
10442, 1125, 1112, 2067, 2120
10443, 500, 87, 494, 1996
10444, 430, 1862, 57, 2008
10445, 697, 198, 188, 698
10446, 110, 113, 1291, 1976
10447, 1369, 746, 179, 1372
10448, 311, 1557, 971, 2075
10449, 279, 1465, 920, 1952
10450, 622, 122, 146, 2030
10451, 650, 149, 1466, 1952
10452, 151, 150, 1318, 2053
10453, 1374, 678, 231, 747
10454, 426, 8, 55, 427
10455, 1218, 495, 1217, 494
10456, 693, 924, 923, 689
10457, 388, 386, 12, 2008
10458, 143, 660, 1341, 2053
10459, 12, 386, 1172, 2008
10460, 122, 146, 691, 622
10461, 1109, 1128, 2017, 2051
10462, 1218, 88, 494, 1996
10463, 423, 52, 6, 1167
10464, 885, 155, 1436, 261
10465, 359, 361, 360, 1050
10466, 725, 219, 726, 2120
10467, 439, 497, 63, 493
10468, 2017, 2051, 2029, 2084
10469, 1554, 1018, 1017, 2075
10470, 51, 7, 1169, 422
10471, 660, 143, 926, 2053
10472, 971, 1554, 310, 2075
10473, 968, 306, 1547, 305
10474, 1558, 985, 318, 2075
10475, 350, 1018, 1558, 2075
10476, 660, 150, 1342, 2053
10477, 1361, 204, 206, 708
10478, 703, 203, 202, 1358
10479, 959, 288, 300, 1532
10480, 289, 958, 299, 1531
10481, 746, 179, 230, 1369
10482, 175, 231, 678, 747
10483, 1178, 27, 24, 400
10484, 994, 334, 353, 1038
10485, 1059, 1055, 1046, 1984
10486, 722, 214, 216, 1365
10487, 1558, 318, 350, 2075
10488, 1362, 210, 209, 712
10489, 7, 1169, 422, 1168
10490, 38, 77, 1185, 461
10491, 1367, 228, 183, 743
10492, 191, 197, 1357, 696
10493, 660, 926, 914, 2053
10494, 156, 159, 656, 1438
10495, 46, 78, 465, 1188
10496, 86, 1217, 87, 1996
10497, 143, 1341, 141, 2053
10498, 656, 159, 1437, 1438
10499, 923, 193, 693, 689
10500, 1017, 1018, 350, 2075
10501, 310, 1554, 1017, 2075
10502, 150, 660, 914, 2053
10503, 914, 926, 278, 2053
10504, 113, 110, 1291, 614
10505, 89, 88, 1218, 1996
10506, 359, 361, 1069, 360
10507, 151, 1342, 150, 2053
10508, 55, 8, 10, 1153
10509, 95, 515, 518, 522
10510, 1328, 148, 147, 918
10511, 518, 521, 96, 522
10512, 60, 58, 434, 1860
10513, 438, 395, 62, 1158
10514, 1111, 1112, 1706, 1700
10515, 205, 207, 854, 672
10516, 46, 47, 467, 417
10517, 1343, 674, 172, 700
10518, 25, 198, 851, 1411
10519, 694, 1412, 195, 695
10520, 74, 467, 448, 1216
10521, 951, 938, 1514, 284
10522, 878, 227, 1430, 226
10523, 672, 1345, 168, 710
10524, 1137, 1140, 1078, 1139
10525, 408, 38, 36, 460
10526, 1131, 1716, 1715, 1106
10527, 25, 26, 24, 1160
10528, 460, 72, 458, 1214
10529, 14, 59, 1203, 433
10530, 63, 64, 1888, 395
10531, 89, 334, 353, 1869
10532, 355, 341, 52, 1854
10533, 1082, 1004, 1084, 1085
10534, 1084, 342, 1004, 1083
10535, 1004, 1082, 1084, 1083
10536, 95, 515, 522, 514
10537, 12, 385, 16, 1155
10538, 395, 22, 1158, 438
10539, 385, 13, 389, 1156
10540, 623, 13, 1410, 624
10541, 99, 540, 1268, 1257
10542, 599, 107, 1274, 595
10543, 600, 599, 506, 596
10544, 617, 615, 124, 629
10545, 159, 658, 1441, 1339
10546, 615, 114, 629, 616
10547, 152, 151, 1325, 640
10548, 922, 1473, 121, 241
10549, 196, 695, 1412, 694
10550, 200, 201, 853, 674
10551, 1047, 1048, 1053, 1072
10552, 1071, 1072, 1581, 1048
10553, 1420, 860, 859, 865
10554, 860, 857, 861, 864
10555, 1900, 723, 161, 724
10556, 1054, 1060, 1047, 1053
10557, 209, 869, 208, 713
10558, 713, 711, 165, 1898
10559, 858, 859, 866, 856
10560, 858, 1808, 866, 867
10561, 517, 518, 519, 527
10562, 521, 516, 520, 524
10563, 525, 517, 511, 516
10564, 297, 960, 296, 938
10565, 602, 601, 503, 593
10566, 320, 322, 348, 1559
10567, 1131, 1716, 1106, 370
10568, 1045, 1046, 1055, 365
10569, 324, 347, 1559, 1562
10570, 1064, 363, 1579, 1571
10571, 945, 287, 1512, 940
10572, 1748, 1142, 371, 1133
10573, 1136, 1140, 1141, 1830
10574, 291, 290, 954, 940
10575, 518, 515, 521, 522
10576, 1716, 370, 1717, 1106
10577, 1716, 1131, 1769, 370
10578, 107, 602, 1275, 594
10579, 125, 154, 155, 1316
10580, 1527, 306, 967, 304
10581, 257, 227, 1430, 878
10582, 363, 1064, 1579, 577
10583, 1111, 1112, 1126, 1706
10584, 527, 96, 518, 519
10585, 517, 520, 525, 519
10586, 216, 217, 875, 724
10587, 1049, 1048, 1071, 1052
10588, 306, 1527, 967, 257
10589, 25, 26, 1160, 398
10590, 1046, 1047, 1054, 1073
10591, 473, 1098, 474, 1907
10592, 473, 472, 1098, 1907
10593, 471, 1098, 472, 1907
10594, 1098, 471, 470, 1907
10595, 1098, 470, 469, 1907
10596, 1098, 469, 68, 1907
10597, 351, 1122, 1029, 1929
10598, 1029, 1122, 1030, 1929
10599, 1122, 1034, 1033, 1929
10600, 1035, 1034, 1122, 1929
10601, 1030, 1122, 1031, 1929
10602, 1122, 1033, 1032, 1929
10603, 343, 1035, 1122, 1929
10604, 1031, 1122, 1032, 1929
10605, 1066, 573, 1067, 1962
10606, 1065, 575, 1066, 1981
10607, 367, 1115, 1707, 2001
10608, 367, 1707, 1701, 2001
10609, 1123, 1115, 369, 2001
10610, 369, 301, 1123, 2001
10611, 1064, 576, 1065, 2007
10612, 635, 134, 636, 2016
10613, 1698, 1983, 1110, 2017
10614, 579, 578, 1068, 2043
10615, 1700, 1112, 1706, 2044
10616, 1124, 1114, 1123, 2046
10617, 1123, 255, 1124, 2046
10618, 1123, 962, 255, 2046
10619, 1123, 2000, 962, 2046
10620, 132, 635, 637, 2057
10621, 1113, 1125, 1112, 2067
10622, 1125, 1124, 876, 2067
10623, 1125, 1113, 1124, 2067
10624, 1113, 2046, 1124, 2067
10625, 1907, 2037, 1130, 2081
10626, 808, 807, 803, 2084
10627, 809, 808, 803, 2084
10628, 810, 809, 803, 2084
10629, 811, 810, 803, 2084
10630, 812, 811, 803, 2084
10631, 813, 812, 803, 2084
10632, 803, 237, 818, 2084
10633, 814, 813, 803, 2084
10634, 817, 803, 818, 2084
10635, 814, 803, 815, 2084
10636, 816, 803, 817, 2084
10637, 815, 803, 816, 2084
10638, 559, 577, 103, 2093
10639, 1125, 1126, 1112, 2120
10640, 1129, 34, 1130, 2124
10641, 406, 1130, 34, 2124
10642, 1067, 102, 1068, 2131
10643, 328, 1681, 330, 2132
10644, 236, 781, 766, 2146
10645, 766, 781, 767, 2146
10646, 767, 781, 768, 2146
10647, 769, 768, 781, 2146
10648, 770, 769, 781, 2146
10649, 771, 770, 781, 2146
10650, 771, 781, 772, 2146
10651, 781, 773, 772, 2146
10652, 773, 781, 774, 2146
10653, 774, 781, 775, 2146
10654, 775, 781, 776, 2146
10655, 776, 781, 777, 2146
10656, 1579, 1064, 1922, 577
10657, 1922, 1064, 1579, 2032
10658, 1922, 2148, 1579, 577
10659, 1579, 2148, 1922, 2032
10660, 1553, 1555, 2075, 1557
10661, 1553, 2075, 1555, 980
10662, 1070, 1071, 1972, 1049
10663, 1070, 1972, 1071, 1586
10664, 1456, 1917, 274, 909
10665, 1456, 274, 1917, 1948
10666, 901, 902, 1916, 272
10667, 1916, 1923, 901, 272
10668, 901, 1923, 1916, 1930
10669, 694, 924, 1412, 1474
10670, 694, 1412, 924, 195
10671, 192, 1412, 924, 1474
10672, 131, 634, 2144, 1306
10673, 131, 2144, 634, 1354
10674, 450, 1772, 2027, 1828
10675, 2027, 1772, 450, 1998
10676, 2027, 70, 450, 1828
10677, 450, 70, 2027, 1998
10678, 1961, 76, 455, 456
10679, 1961, 455, 76, 75
10680, 2039, 1937, 1222, 2090
10681, 1222, 1937, 2039, 2116
10682, 1222, 509, 2039, 2090
10683, 2039, 509, 1222, 2116
10684, 2070, 2104, 2004, 1946
10685, 2004, 2104, 2070, 1926
10686, 468, 66, 2126, 1201
10687, 468, 2126, 66, 1196
10688, 1115, 1722, 2000, 1114
10689, 2000, 1123, 1115, 1114
10690, 1115, 1123, 2000, 2001
10691, 2014, 3, 2070, 379
10692, 2024, 1093, 362, 1645
10693, 2024, 362, 1093, 2106
10694, 1650, 362, 1093, 1645
10695, 1650, 1093, 362, 2106
10696, 2084, 936, 1984, 1703
10697, 283, 1984, 936, 1703
10698, 2009, 1669, 1672, 1224
10699, 2009, 1672, 1669, 1632
10700, 1983, 676, 172, 675
10701, 1137, 1138, 1598, 1783
10702, 1598, 1138, 1137, 1139
10703, 692, 922, 621, 120
10704, 334, 89, 86, 1869
10705, 334, 86, 89, 495
10706, 941, 294, 2095, 949
10707, 941, 2095, 294, 950
10708, 1488, 272, 2003, 905
10709, 1454, 2003, 272, 905
10710, 1454, 272, 2003, 1923
10711, 1274, 2104, 1980, 507
10712, 1980, 2104, 1274, 1946
10713, 1307, 1993, 134, 638
10714, 134, 1993, 1307, 2016
10715, 2104, 2070, 1289, 1946
10716, 2104, 1289, 2070, 2103
10717, 1936, 2089, 1966, 1909
10718, 1966, 2089, 1936, 397
10719, 1377, 1375, 176, 750
10720, 1377, 176, 1375, 1373
10721, 1983, 174, 737, 224
10722, 1983, 737, 174, 676
10723, 735, 167, 2058, 222
10724, 735, 2058, 167, 669
10725, 166, 730, 2026, 220
10726, 2026, 730, 166, 666
10727, 1998, 450, 69, 449
10728, 1998, 69, 450, 70
10729, 1936, 2089, 1933, 1160
10730, 1933, 2089, 1936, 1909
10731, 1987, 1151, 1931, 383
10732, 1987, 1931, 1151, 1977
10733, 1023, 1024, 1905, 1841
10734, 1023, 1905, 1024, 2134
10735, 1836, 1022, 1905, 1841
10736, 1836, 1905, 1022, 2134
10737, 1022, 1023, 1905, 1841
10738, 1022, 1905, 1023, 2134
10739, 1793, 732, 2026, 1759
10740, 1793, 2026, 732, 1734
10741, 276, 913, 1912, 933
10742, 1912, 913, 276, 2056
10743, 2030, 1335, 1980, 1315
10744, 2030, 1980, 1335, 1935
10745, 1270, 1237, 2099, 2119
10746, 622, 2030, 621, 120
10747, 906, 834, 1962, 835
10748, 906, 1962, 834, 1995
10749, 1964, 1962, 834, 835
10750, 1964, 834, 1962, 1995
10751, 2060, 1869, 2097, 1997
10752, 2060, 2097, 1869, 1941
10753, 1446, 264, 1940, 894
10754, 2133, 419, 1999, 2038
10755, 2133, 1999, 419, 1079
10756, 2133, 1999, 407, 2038
10757, 2133, 407, 1999, 365
10758, 133, 2144, 634, 1305
10759, 418, 464, 46, 1188
10760, 418, 46, 464, 1165
10761, 46, 1187, 464, 1165
10762, 2017, 1110, 2051, 1128
10763, 2017, 2051, 1110, 1698
10764, 1927, 727, 162, 218
10765, 1927, 162, 727, 663
10766, 2104, 1322, 1333, 1336
10767, 2104, 1333, 1322, 2092
10768, 2028, 2132, 578, 579
10769, 578, 2132, 2028, 2031
10770, 578, 1251, 2028, 579
10771, 2028, 1251, 578, 2031
10772, 1475, 1474, 694, 196
10773, 1475, 694, 1474, 924
10774, 916, 1475, 694, 196
10775, 916, 694, 1475, 924
10776, 1952, 1475, 916, 196
10777, 1952, 916, 1475, 924
10778, 1974, 258, 1986, 1429
10779, 1974, 1986, 258, 882
10780, 233, 1986, 258, 1429
10781, 233, 258, 1986, 882
10782, 909, 910, 1917, 274
10783, 909, 1917, 910, 2121
10784, 1948, 1917, 910, 274
10785, 1948, 910, 1917, 2121
10786, 1495, 276, 1912, 933
10787, 1495, 1912, 276, 1948
10788, 602, 503, 2013, 593
10789, 602, 2013, 503, 2098
10790, 1697, 2113, 1615, 1679
10791, 1615, 2113, 1697, 1285
10792, 2104, 1322, 2004, 1946
10793, 2104, 2004, 1322, 1336
10794, 2096, 2047, 1238, 1230
10795, 2096, 1238, 2047, 1914
10796, 2137, 93, 1977, 1987
10797, 2137, 1977, 93, 604
10798, 1351, 1917, 190, 687
10799, 486, 8, 54, 487
10800, 2013, 503, 1278, 593
10801, 2013, 1278, 503, 998
10802, 1970, 2074, 539, 1963
10803, 539, 2074, 1970, 2068
10804, 1910, 825, 1502, 1501
10805, 1910, 1502, 825, 824
10806, 2111, 1875, 1873, 1858
10807, 2111, 1873, 1875, 2013
10808, 2140, 345, 346, 1544
10809, 2140, 346, 345, 1561
10810, 1277, 1283, 646, 4
10811, 1277, 646, 1283, 2070
10812, 379, 646, 1283, 4
10813, 379, 1283, 646, 2070
10814, 1929, 2032, 1566, 2134
10815, 1568, 2032, 1566, 1567
10816, 1568, 1566, 2032, 2134
10817, 555, 1261, 2028, 554
10818, 2028, 1261, 555, 580
10819, 2028, 1243, 555, 554
10820, 555, 1243, 2028, 580
10821, 2137, 1977, 1931, 1987
10822, 2137, 1931, 1977, 2128
10823, 2041, 542, 573, 569
10824, 2041, 573, 542, 1246
10825, 425, 54, 8, 426
10826, 425, 8, 54, 486
10827, 1961, 72, 456, 451
10828, 2037, 1961, 370, 2081
10829, 2037, 33, 370, 457
10830, 521, 515, 524, 523
10831, 521, 524, 515, 516
10832, 512, 515, 524, 516
10833, 437, 62, 1213, 438
10834, 437, 1213, 62, 61
10835, 26, 1933, 401, 29
10836, 1995, 1949, 1964, 834
10837, 1995, 1964, 1949, 1904
10838, 1437, 655, 159, 886
10839, 159, 655, 1437, 1438
10840, 1971, 1008, 295, 978
10841, 1971, 295, 1008, 315
10842, 409, 2037, 458, 457
10843, 76, 458, 2037, 457
10844, 1012, 2140, 306, 969
10845, 306, 2140, 1012, 1563
10846, 306, 1547, 1012, 969
10847, 1911, 1576, 966, 2007
10848, 929, 1576, 966, 964
10849, 929, 966, 1576, 2007
10850, 888, 262, 1940, 1444
10851, 1940, 262, 888, 1442
10852, 1356, 692, 121, 649
10853, 121, 692, 1356, 1355
10854, 1224, 510, 2057, 506
10855, 2057, 510, 1224, 1608
10856, 2057, 1696, 1224, 506
10857, 1224, 1696, 2057, 1608
10858, 797, 1709, 1953, 796
10859, 797, 1953, 1709, 1964
10860, 2130, 1400, 1953, 796
10861, 2130, 1953, 1400, 1964
10862, 1400, 797, 1953, 796
10863, 1400, 1953, 797, 1964
10864, 456, 1961, 459, 72
10865, 456, 459, 1961, 76
10866, 936, 1912, 1984, 283
10867, 553, 2028, 556, 1244
10868, 556, 2028, 553, 579
10869, 1933, 1160, 401, 2131
10870, 1969, 1160, 401, 398
10871, 1969, 401, 1160, 2131
10872, 2020, 1839, 80, 1095
10873, 2020, 80, 1839, 2125
10874, 2101, 1647, 323, 2094
10875, 2101, 323, 1647, 1625
10876, 2144, 1317, 1323, 1937
10877, 1323, 1317, 2144, 1314
10878, 1323, 2090, 2144, 1937
10879, 2144, 2090, 1323, 1314
10880, 2141, 1523, 1559, 1528
10881, 2141, 1559, 1523, 1922
10882, 427, 54, 8, 488
10883, 427, 8, 54, 426
10884, 853, 671, 170, 1414
10885, 853, 170, 671, 1344
10886, 320, 322, 1932, 988
10887, 320, 1932, 322, 2148
10888, 1548, 1551, 1015, 970
10889, 1015, 1551, 1548, 1552
10890, 1015, 308, 1548, 970
10891, 66, 476, 2002, 1201
10892, 2002, 476, 66, 2100
10893, 2090, 1324, 1935, 2039
10894, 1935, 1324, 2090, 1980
10895, 1935, 2063, 2090, 2039
10896, 2090, 2063, 1935, 1980
10897, 981, 985, 2075, 1533
10898, 981, 2075, 985, 316
10899, 1969, 1413, 2041, 397
10900, 799, 800, 1964, 1698
10901, 1983, 1964, 800, 1698
10902, 1983, 800, 1964, 1949
10903, 1311, 642, 1939, 1312
10904, 1939, 642, 1311, 2011
10905, 2111, 1851, 1856, 1857
10906, 2111, 1856, 1851, 2033
10907, 2152, 5, 647, 2070
10908, 1164, 1999, 40, 413
10909, 251, 1994, 1424, 873
10910, 1901, 2022, 2006, 1899
10911, 2006, 2022, 1901, 875
10912, 1999, 1163, 42, 413
10913, 1028, 1569, 2032, 1567
10914, 2032, 1569, 1028, 1929
10915, 1564, 1566, 2032, 1567
10916, 2032, 1566, 1564, 1929
10917, 1569, 1564, 2032, 1567
10918, 2032, 1564, 1569, 1929
10919, 473, 472, 2066, 1189
10920, 2066, 472, 473, 1907
10921, 2066, 1950, 473, 1189
10922, 473, 1950, 2066, 1907
10923, 2014, 5, 2070, 3
10924, 2014, 2070, 5, 1977
10925, 1919, 2097, 2060, 1941
10926, 2060, 2097, 1919, 2061
10927, 2048, 528, 1239, 1955
10928, 2048, 1239, 528, 1241
10929, 1084, 1083, 115, 380
10930, 1084, 115, 1083, 618
10931, 117, 1083, 115, 618
10932, 1571, 2135, 324, 990
10933, 324, 2135, 1571, 1579
10934, 574, 573, 1990, 567
10935, 117, 115, 617, 618
10936, 615, 115, 617, 646
10937, 615, 617, 115, 618
10938, 390, 389, 2108, 17
10939, 676, 1983, 677, 174
10940, 676, 677, 1983, 172
10941, 700, 677, 1983, 174
10942, 700, 1983, 677, 172
10943, 2133, 420, 419, 417
10944, 2133, 419, 420, 1079
10945, 1957, 1967, 389, 2049
10946, 1987, 1967, 389, 385
10947, 1987, 389, 1967, 2049
10948, 1860, 20, 1945, 394
10949, 1860, 1945, 20, 1177
10950, 21, 1945, 20, 394
10951, 21, 20, 1945, 1177
10952, 364, 1753, 1770, 1585
10953, 364, 1770, 1753, 1754
10954, 2042, 1225, 1686, 1636
10955, 2042, 1686, 1225, 512
10956, 2114, 1917, 190, 1353
10957, 2114, 190, 1917, 1965
10958, 1939, 642, 2114, 1312
10959, 1939, 2114, 642, 1313
10960, 140, 2114, 642, 1312
10961, 140, 642, 2114, 1313
10962, 2151, 1088, 505, 1628
10963, 2151, 505, 1088, 1226
10964, 2142, 855, 419, 1079
10965, 2142, 419, 855, 854
10966, 2026, 1777, 1581, 221
10967, 2026, 1581, 1777, 1587
10968, 871, 1581, 1777, 221
10969, 871, 1777, 1581, 1587
10970, 725, 1827, 1927, 218
10971, 1927, 162, 725, 218
10972, 725, 162, 1927, 2120
10973, 2142, 407, 365, 1999
10974, 2142, 365, 407, 1984
10975, 251, 1994, 1518, 250
10976, 1518, 1994, 251, 1519
10977, 1994, 252, 1522, 253
10978, 1994, 1522, 252, 1520
10979, 300, 1522, 252, 253
10980, 1971, 301, 1070, 963
10981, 1971, 1070, 301, 2001
10982, 962, 1070, 301, 963
10983, 962, 301, 1070, 2001
10984, 2077, 1304, 2103, 129
10985, 2077, 2103, 1304, 1976
10986, 110, 2103, 1304, 129
10987, 110, 1304, 2103, 1976
10988, 2073, 377, 2079, 1920
10989, 2073, 2079, 377, 1832
10990, 372, 64, 2023, 1894
10991, 372, 2023, 64, 1845
10992, 2064, 993, 996, 997
10993, 2064, 996, 993, 1997
10994, 2039, 1318, 2076, 1337
10995, 2039, 2076, 1318, 2011
10996, 1802, 1811, 2027, 1772
10997, 1802, 2027, 1811, 1771
10998, 2147, 939, 954, 1513
10999, 2147, 954, 939, 1994
11000, 1651, 1621, 504, 1652
11001, 1651, 504, 1621, 601
11002, 2041, 2056, 1411, 1969
11003, 1411, 2056, 2041, 1965
11004, 1411, 1413, 2041, 1969
11005, 2041, 1413, 1411, 1965
11006, 106, 1652, 592, 105
11007, 1999, 40, 1415, 37
11008, 1999, 1415, 40, 1416
11009, 202, 1415, 40, 37
11010, 1083, 2073, 2, 1097
11011, 2, 2073, 1083, 1602
11012, 799, 1964, 1383, 1404
11013, 834, 1383, 1964, 1404
11014, 834, 1964, 1383, 1949
11015, 1994, 1426, 252, 253
11016, 790, 791, 2123, 1711
11017, 2123, 791, 790, 2122
11018, 2123, 789, 790, 1711
11019, 790, 789, 2123, 2122
11020, 1999, 42, 1419, 1417
11021, 1999, 1419, 42, 44
11022, 206, 42, 1419, 44
11023, 1777, 2026, 1734, 221
11024, 1734, 2026, 1777, 1589
11025, 431, 1170, 2008, 1171
11026, 2008, 1170, 431, 14
11027, 623, 624, 1935, 119
11028, 645, 1935, 624, 119
11029, 645, 624, 1935, 2063
11030, 966, 2110, 1991, 303
11031, 1991, 2110, 966, 2109
11032, 424, 1149, 1169, 51
11033, 424, 1169, 1149, 381
11034, 7, 1169, 1149, 51
11035, 7, 1149, 1169, 381
11036, 1930, 2062, 1427, 1430
11037, 1427, 2062, 1930, 1916
11038, 1412, 192, 1411, 1353
11039, 191, 1411, 192, 1353
11040, 1146, 2117, 92, 374
11041, 92, 2117, 1146, 2078
11042, 1046, 1054, 1983, 1073
11043, 1046, 1983, 1054, 1059
11044, 2076, 1914, 2116, 1993
11045, 2076, 2116, 1914, 2039
11046, 966, 304, 1991, 967
11047, 966, 1991, 304, 303
11048, 2133, 406, 407, 365
11049, 2133, 407, 406, 408
11050, 561, 562, 2086, 1266
11051, 2086, 562, 561, 576
11052, 2002, 2125, 2020, 1906
11053, 2020, 2125, 2002, 80
11054, 2020, 80, 1577, 1095
11055, 2020, 1577, 80, 2002
11056, 2043, 1577, 80, 1095
11057, 2043, 80, 1577, 2002
11058, 1829, 1586, 1587, 249
11059, 1829, 1587, 1586, 1590
11060, 2013, 999, 337, 998
11061, 1177, 432, 1860, 59
11062, 1177, 1860, 432, 20
11063, 434, 1860, 432, 59
11064, 434, 432, 1860, 20
11065, 2073, 1287, 1284, 1920
11066, 2073, 1284, 1287, 1279
11067, 1972, 962, 1049, 2000
11068, 1968, 1997, 1985, 330
11069, 1968, 1985, 1997, 1960
11070, 992, 1985, 1997, 330
11071, 2026, 666, 165, 665
11072, 1293, 612, 1976, 112
11073, 1439, 1976, 612, 112
11074, 1439, 612, 1976, 111
11075, 1592, 1134, 1009, 314
11076, 164, 2026, 728, 665
11077, 728, 2026, 164, 729
11078, 1672, 1673, 2113, 1670
11079, 1672, 2113, 1673, 1622
11080, 1263, 101, 2136, 1262
11081, 2105, 1505, 908, 1506
11082, 2105, 908, 1505, 1507
11083, 651, 2016, 136, 636
11084, 651, 136, 2016, 2085
11085, 635, 136, 2016, 636
11086, 635, 2016, 136, 2085
11087, 386, 2008, 387, 14
11088, 386, 387, 2008, 15
11089, 2008, 431, 387, 14
11090, 130, 2057, 506, 1624
11091, 506, 2057, 130, 2036
11092, 506, 1610, 130, 1624
11093, 130, 1610, 506, 2036
11094, 1356, 622, 121, 1355
11095, 833, 2029, 937, 1504
11096, 937, 2029, 833, 238
11097, 995, 334, 1997, 1535
11098, 1997, 334, 995, 1036
11099, 67, 445, 2126, 1182
11100, 67, 2126, 445, 1195
11101, 2117, 1887, 1893, 2088
11102, 2117, 1893, 1887, 1877
11103, 981, 982, 2042, 974
11104, 2042, 982, 981, 317
11105, 1076, 2093, 1985, 103
11106, 1076, 1985, 2093, 2094
11107, 1988, 1530, 2005, 1974
11108, 1988, 2005, 1530, 1529
11109, 725, 1126, 1927, 1827
11110, 1927, 1126, 725, 2120
11111, 454, 1961, 452, 1074
11112, 454, 452, 1961, 73
11113, 451, 1961, 452, 73
11114, 2151, 512, 1678, 2005
11115, 258, 311, 1988, 973
11116, 1988, 311, 258, 1525
11117, 1988, 1974, 258, 973
11118, 258, 1974, 1988, 1525
11119, 16, 389, 1967, 385
11120, 1967, 389, 16, 1957
11121, 1967, 2082, 16, 385
11122, 16, 2082, 1967, 1957
11123, 1629, 2151, 1649, 1644
11124, 1649, 2151, 1629, 2009
11125, 1927, 161, 663, 664
11126, 1950, 468, 79, 1191
11127, 163, 1927, 728, 729
11128, 728, 1927, 163, 664
11129, 1990, 1066, 2091, 1667
11130, 1990, 2091, 1066, 574
11131, 1985, 2119, 589, 536
11132, 589, 2119, 1985, 1960
11133, 589, 1269, 1985, 536
11134, 1985, 1269, 589, 1960
11135, 2044, 783, 782, 1908
11136, 2044, 782, 783, 1714
11137, 1719, 2044, 782, 1908
11138, 1719, 782, 2044, 1714
11139, 2120, 2044, 1719, 1908
11140, 1994, 877, 2006, 254
11141, 1994, 2006, 877, 2022
11142, 875, 2006, 877, 254
11143, 875, 877, 2006, 2022
11144, 2145, 966, 1576, 964
11145, 2145, 1576, 966, 1911
11146, 2110, 1561, 2140, 345
11147, 2110, 2140, 1561, 1922
11148, 2048, 509, 2115, 2063
11149, 94, 509, 2115, 605
11150, 94, 2115, 509, 2063
11151, 692, 121, 922, 1473
11152, 692, 922, 121, 621
11153, 956, 2147, 870, 954
11154, 870, 2147, 956, 1586
11155, 1930, 878, 2007, 1430
11156, 1930, 2007, 878, 898
11157, 2109, 2007, 878, 1430
11158, 2109, 878, 2007, 898
11159, 1895, 497, 2018, 91
11160, 264, 891, 1940, 1444
11161, 264, 1940, 891, 1446
11162, 1976, 1292, 612, 1293
11163, 1976, 612, 1292, 111
11164, 2054, 1607, 1947, 1962
11165, 2054, 1947, 1607, 1677
11166, 1682, 1947, 1607, 1962
11167, 1682, 1607, 1947, 1677
11168, 17, 2108, 644, 391
11169, 644, 2108, 17, 624
11170, 1278, 105, 1652, 610
11171, 1652, 105, 1278, 592
11172, 1474, 1412, 142, 192
11173, 1474, 142, 1412, 1939
11174, 70, 2027, 447, 1733
11175, 447, 2027, 70, 1998
11176, 1244, 1251, 2028, 535
11177, 2028, 1251, 1244, 553
11178, 1288, 1621, 1652, 1278
11179, 1652, 1621, 1288, 1664
11180, 103, 1985, 558, 1252
11181, 103, 558, 1985, 578
11182, 552, 558, 1985, 1252
11183, 552, 1985, 558, 578
11184, 573, 273, 139, 190
11185, 573, 139, 273, 1990
11186, 2114, 1965, 139, 190
11187, 2114, 139, 1965, 1990
11188, 1965, 573, 139, 190
11189, 1965, 139, 573, 1990
11190, 1073, 173, 673, 736
11191, 1073, 673, 173, 675
11192, 1917, 1948, 1457, 1456
11193, 1917, 1457, 1948, 1995
11194, 908, 1457, 1948, 1456
11195, 908, 1948, 1457, 1995
11196, 488, 55, 2033, 8
11197, 2033, 55, 488, 1855
11198, 82, 488, 2033, 8
11199, 2033, 488, 82, 1855
11200, 53, 486, 2033, 8
11201, 2033, 486, 53, 1855
11202, 486, 82, 2033, 8
11203, 2033, 82, 486, 1855
11204, 392, 389, 2108, 2049
11205, 2147, 1971, 941, 1070
11206, 2147, 941, 1971, 1514
11207, 1186, 2038, 408, 1161
11208, 1186, 38, 408, 77
11209, 408, 38, 1186, 1161
11210, 291, 1516, 939, 1517
11211, 939, 1516, 291, 286
11212, 939, 954, 291, 1517
11213, 1074, 2037, 2133, 1045
11214, 406, 2133, 2037, 1045
11215, 406, 2037, 2133, 409
11216, 1983, 737, 1127, 224
11217, 1983, 1127, 737, 1825
11218, 683, 1916, 1349, 184
11219, 1253, 1965, 1246, 573
11220, 1246, 1965, 1253, 540
11221, 390, 2108, 624, 17
11222, 1350, 1916, 227, 185
11223, 562, 1267, 1256, 548
11224, 1256, 1267, 562, 576
11225, 1256, 1250, 562, 548
11226, 562, 1250, 1256, 576
11227, 1990, 1066, 573, 574
11228, 1990, 573, 1066, 273
11229, 1115, 1720, 2000, 1722
11230, 1115, 2000, 1720, 2001
11231, 2000, 1720, 1929, 1722
11232, 2000, 1929, 1720, 2001
11233, 1929, 1720, 1121, 1722
11234, 2118, 1147, 2060, 376
11235, 2118, 2060, 1147, 2117
11236, 512, 317, 1619, 982
11237, 1619, 317, 512, 1686
11238, 1971, 978, 284, 948
11239, 679, 750, 233, 176
11240, 233, 750, 679, 1986
11241, 339, 1002, 1978, 1539
11242, 2141, 1526, 1523, 1528
11243, 2141, 1523, 1526, 1944
11244, 1936, 1973, 99, 1258
11245, 535, 1973, 99, 603
11246, 535, 99, 1973, 1258
11247, 2147, 2095, 945, 955
11248, 945, 290, 2147, 955
11249, 2147, 290, 945, 1512
11250, 204, 706, 709, 1360
11251, 709, 706, 204, 1361
11252, 709, 1418, 204, 1360
11253, 2122, 844, 1399, 2083
11254, 2122, 1399, 844, 1397
11255, 2091, 1970, 1981, 575
11256, 2091, 1981, 1970, 270
11257, 182, 1981, 1970, 575
11258, 182, 1970, 1981, 270
11259, 1998, 449, 74, 453
11260, 647, 126, 2004, 628
11261, 2040, 570, 569, 571
11262, 937, 2029, 1508, 1504
11263, 937, 1508, 2029, 2105
11264, 13, 2108, 389, 1156
11265, 389, 2108, 13, 390
11266, 658, 5, 2152, 1340
11267, 2152, 5, 658, 647
11268, 382, 5, 2014, 378
11269, 382, 2014, 5, 1151
11270, 2025, 759, 1479, 760
11271, 2025, 1479, 759, 1478
11272, 2115, 391, 2049, 18
11273, 2115, 2049, 391, 2108
11274, 392, 2049, 391, 18
11275, 392, 391, 2049, 2108
11276, 1595, 1776, 1599, 1582
11277, 1599, 1776, 1595, 1775
11278, 22, 21, 1945, 437
11279, 22, 1945, 21, 394
11280, 1350, 742, 183, 685
11281, 1350, 183, 742, 228
11282, 1367, 183, 742, 685
11283, 1367, 742, 183, 228
11284, 1998, 71, 452, 454
11285, 1998, 452, 71, 453
11286, 2029, 801, 1983, 1910
11287, 2029, 1983, 801, 2017
11288, 1959, 1575, 1061, 1902
11289, 1959, 1061, 1575, 1576
11290, 1953, 1709, 1983, 1110
11291, 1953, 1983, 1709, 1964
11292, 46, 417, 463, 1165
11293, 463, 1187, 46, 1165
11294, 46, 1187, 463, 78
11295, 1984, 225, 1128, 852
11296, 1984, 1128, 225, 2017
11297, 1129, 1984, 1128, 852
11298, 1129, 1128, 1984, 2017
11299, 17, 392, 2108, 391
11300, 17, 2108, 392, 389
11301, 1332, 261, 2004, 1440
11302, 2004, 261, 126, 1440
11303, 2004, 126, 261, 627
11304, 1004, 2073, 608, 342
11305, 608, 2073, 1004, 1603
11306, 608, 1083, 1004, 342
11307, 1004, 1083, 608, 1603
11308, 1266, 2086, 549, 1250
11309, 549, 2086, 1266, 561
11310, 1958, 1075, 1971, 358
11311, 1958, 1971, 1075, 1816
11312, 1352, 191, 697, 688
11313, 1357, 191, 697, 197
11314, 1357, 697, 191, 688
11315, 2100, 81, 484, 1202
11316, 2100, 484, 81, 2050
11317, 2108, 13, 624, 1410
11318, 2108, 624, 13, 390
11319, 1621, 1637, 1288, 1664
11320, 1621, 1288, 1637, 337
11321, 2147, 962, 877, 960
11322, 2147, 877, 962, 1972
11323, 1596, 865, 1797, 1420
11324, 1596, 1797, 865, 1806
11325, 978, 1971, 953, 295
11326, 978, 953, 1971, 284
11327, 951, 953, 1971, 295
11328, 951, 1971, 953, 284
11329, 1606, 2054, 842, 841
11330, 842, 2054, 1606, 1947
11331, 2041, 1268, 540, 1257
11332, 540, 1246, 2041, 1257
11333, 2041, 1246, 540, 1965
11334, 41, 1186, 410, 1161
11335, 41, 410, 1186, 462
11336, 38, 410, 1186, 1161
11337, 716, 209, 210, 1421
11338, 210, 209, 716, 1362
11339, 2142, 852, 407, 853
11340, 2142, 407, 852, 1984
11341, 1646, 134, 1963, 1639
11342, 1933, 2131, 29, 2127
11343, 1933, 29, 2131, 401
11344, 404, 29, 2131, 2127
11345, 404, 2131, 29, 401
11346, 1998, 2133, 448, 421
11347, 1998, 448, 2133, 1216
11348, 47, 448, 2133, 421
11349, 47, 2133, 448, 1216
11350, 160, 659, 2092, 1434
11351, 160, 2092, 659, 1339
11352, 383, 8, 2033, 1153
11353, 383, 2033, 8, 1152
11354, 2083, 1611, 843, 844
11355, 2083, 843, 1611, 1947
11356, 555, 1243, 1264, 554
11357, 555, 1264, 1243, 2136
11358, 100, 1264, 1243, 554
11359, 100, 1243, 1264, 2136
11360, 1896, 334, 1997, 1897
11361, 1997, 334, 1896, 1869
11362, 497, 2018, 498, 439
11363, 498, 2018, 497, 91
11364, 441, 1847, 2023, 1850
11365, 441, 2023, 1847, 1845
11366, 2150, 164, 2149, 2026
11367, 2150, 2149, 164, 1782
11368, 1739, 2149, 164, 2026
11369, 1739, 164, 2149, 1782
11370, 2116, 1327, 1317, 1325
11371, 2116, 1317, 1327, 2085
11372, 1854, 355, 2079, 1872
11373, 1978, 2079, 355, 1872
11374, 1594, 1584, 1755, 1757
11375, 1594, 1755, 1584, 1598
11376, 1783, 1755, 1584, 1757
11377, 1783, 1584, 1755, 1598
11378, 957, 947, 286, 943
11379, 286, 947, 957, 291
11380, 286, 1516, 957, 943
11381, 957, 1516, 286, 291
11382, 709, 707, 171, 706
11383, 171, 707, 709, 205
11384, 171, 1360, 709, 706
11385, 2001, 1728, 1135, 1971
11386, 2001, 1135, 1728, 369
11387, 315, 2001, 1135, 1971
11388, 315, 1135, 2001, 369
11389, 979, 2001, 315, 1971
11390, 979, 315, 2001, 369
11391, 1328, 149, 2053, 150
11392, 914, 2053, 149, 150
11393, 159, 1332, 1322, 1339
11394, 1322, 1332, 159, 156
11395, 1147, 2118, 1890, 1876
11396, 1890, 2118, 1147, 2117
11397, 1479, 763, 2025, 762
11398, 2025, 763, 1479, 2003
11399, 1027, 1929, 1028, 1569
11400, 1028, 1929, 1027, 351
11401, 1971, 293, 941, 949
11402, 1971, 941, 293, 948
11403, 242, 247, 863, 1789
11404, 242, 863, 247, 245
11405, 1587, 1815, 1583, 1761
11406, 1583, 1815, 1587, 1591
11407, 383, 9, 1987, 1151
11408, 383, 1987, 9, 1154
11409, 1009, 2095, 1592, 314
11410, 1590, 2095, 1592, 1580
11411, 1590, 1592, 2095, 314
11412, 787, 2083, 788, 1401
11413, 788, 2083, 787, 1942
11414, 9, 659, 2152, 1340
11415, 2152, 659, 9, 1435
11416, 2054, 1574, 1947, 1943
11417, 2054, 1947, 1574, 1962
11418, 1983, 225, 1046, 739
11419, 1983, 1046, 225, 2017
11420, 1984, 225, 1046, 2017
11421, 1592, 294, 1134, 1747
11422, 1134, 294, 1592, 1009
11423, 935, 1948, 1496, 1494
11424, 1495, 1496, 1948, 1494
11425, 1495, 1948, 1496, 1912
11426, 2149, 1740, 1742, 2026
11427, 2149, 1742, 1740, 1741
11428, 84, 90, 489, 496
11429, 88, 90, 84, 496
11430, 2129, 394, 22, 19
11431, 2129, 22, 394, 1945
11432, 1901, 719, 1363, 214
11433, 9, 5, 1977, 1151
11434, 9, 1977, 5, 1340
11435, 242, 1598, 247, 1818
11436, 1138, 247, 1598, 1818
11437, 1074, 2133, 458, 1214
11438, 36, 458, 2133, 1214
11439, 36, 2133, 458, 409
11440, 125, 261, 155, 885
11441, 155, 261, 125, 627
11442, 341, 6, 52, 1143
11443, 52, 6, 341, 423
11444, 407, 2124, 1984, 365
11445, 1984, 2124, 407, 34
11446, 715, 210, 716, 1362
11447, 2102, 511, 2151, 516
11448, 2102, 2151, 511, 1940
11449, 25, 1411, 1969, 397
11450, 25, 1969, 1411, 851
11451, 632, 127, 1301, 128
11452, 1301, 127, 632, 1303
11453, 1301, 1976, 632, 128
11454, 632, 1976, 1301, 1303
11455, 2123, 794, 2054, 1953
11456, 2123, 2054, 794, 793
11457, 291, 940, 1513, 286
11458, 1513, 940, 291, 954
11459, 1513, 939, 291, 286
11460, 291, 939, 1513, 954
11461, 1787, 244, 1815, 243
11462, 1787, 1815, 244, 246
11463, 2059, 1735, 1582, 1780
11464, 2059, 1582, 1735, 1595
11465, 2058, 169, 673, 670
11466, 2058, 673, 169, 736
11467, 227, 1930, 226, 740
11468, 181, 1433, 745, 229
11469, 181, 1370, 745, 682
11470, 1888, 497, 2018, 1895
11471, 1888, 2018, 497, 395
11472, 2080, 1200, 1201, 1197
11473, 2080, 1201, 1200, 1950
11474, 1929, 1029, 1028, 1570
11475, 1929, 1028, 1029, 351
11476, 961, 1521, 285, 944
11477, 285, 1521, 961, 297
11478, 285, 952, 961, 944
11479, 961, 952, 285, 297
11480, 1414, 702, 170, 201
11481, 1414, 170, 702, 704
11482, 701, 170, 702, 201
11483, 701, 702, 170, 704
11484, 2140, 304, 1991, 1546
11485, 2140, 1991, 304, 1527
11486, 381, 6, 424, 1167
11487, 381, 424, 6, 1149
11488, 52, 424, 6, 1167
11489, 52, 6, 424, 1149
11490, 585, 529, 104, 1268
11491, 585, 104, 529, 584
11492, 2036, 1331, 648, 131
11493, 2036, 648, 1331, 145
11494, 1354, 2144, 648, 131
11495, 1354, 648, 2144, 145
11496, 2144, 2036, 648, 131
11497, 2144, 648, 2036, 145
11498, 2095, 287, 977, 950
11499, 2072, 901, 932, 1923
11500, 2072, 932, 901, 930
11501, 1073, 2142, 700, 739
11502, 1073, 700, 2142, 1343
11503, 200, 700, 2142, 739
11504, 200, 2142, 700, 1343
11505, 1910, 1983, 1903, 1904
11506, 1956, 1910, 1903, 1904
11507, 2105, 1910, 1956, 1904
11508, 2105, 1956, 1910, 2029
11509, 2136, 101, 2040, 570
11510, 569, 2040, 101, 570
11511, 569, 101, 2040, 1265
11512, 261, 886, 655, 1436
11513, 655, 886, 261, 1440
11514, 655, 155, 261, 1436
11515, 2102, 512, 2005, 2042
11516, 2102, 2005, 512, 516
11517, 937, 1497, 238, 804
11518, 1956, 238, 1497, 804
11519, 338, 1978, 2013, 337
11520, 2013, 999, 338, 337
11521, 1998, 449, 466, 74
11522, 466, 449, 1998, 69
11523, 466, 448, 1998, 74
11524, 1998, 448, 466, 69
11525, 1160, 24, 442, 26
11526, 442, 24, 1160, 1157
11527, 442, 1933, 1160, 26
11528, 1160, 1933, 442, 1157
11529, 1971, 2147, 951, 963
11530, 1971, 951, 2147, 1514
11531, 296, 951, 2147, 963
11532, 296, 2147, 951, 1514
11533, 294, 1592, 2095, 1580
11534, 294, 2095, 1592, 1009
11535, 159, 1322, 160, 1339
11536, 726, 2022, 876, 875
11537, 726, 876, 2022, 2045
11538, 2069, 107, 1274, 604
11539, 2069, 1274, 107, 595
11540, 1958, 358, 2001, 1050
11541, 1958, 2001, 358, 1971
11542, 1051, 2001, 358, 1050
11543, 619, 1697, 1615, 883
11544, 1615, 1697, 619, 1295
11545, 1615, 260, 619, 883
11546, 619, 260, 1615, 1295
11547, 1929, 1035, 1006, 343
11548, 2058, 168, 669, 670
11549, 46, 463, 1215, 78
11550, 1215, 463, 46, 417
11551, 1215, 467, 46, 78
11552, 46, 467, 1215, 417
11553, 2129, 1158, 438, 2018
11554, 2129, 438, 1158, 22
11555, 232, 1442, 1986, 888
11556, 1986, 1442, 232, 882
11557, 2058, 669, 668, 167
11558, 668, 669, 2058, 168
11559, 668, 710, 2058, 167
11560, 2058, 710, 668, 168
11561, 230, 747, 179, 746
11562, 230, 179, 747, 1428
11563, 2127, 2126, 1183, 1182
11564, 2127, 1183, 2126, 2066
11565, 1184, 1183, 2126, 1182
11566, 1184, 2126, 1183, 2066
11567, 864, 861, 1599, 857
11568, 619, 1638, 616, 116
11569, 619, 616, 1638, 883
11570, 312, 1529, 1988, 973
11571, 1988, 1529, 312, 974
11572, 1978, 354, 2013, 1866
11573, 23, 395, 64, 440
11574, 2046, 962, 877, 1972
11575, 2046, 877, 962, 255
11576, 331, 1997, 1968, 330
11577, 1968, 1997, 331, 2060
11578, 1968, 2031, 331, 330
11579, 331, 2031, 1968, 2060
11580, 718, 721, 214, 1365
11581, 216, 214, 721, 1365
11582, 117, 109, 1284, 1602
11583, 117, 1284, 109, 1294
11584, 1955, 2041, 1973, 603
11585, 1955, 1973, 2041, 1936
11586, 99, 1973, 2041, 603
11587, 99, 2041, 1973, 1936
11588, 1638, 616, 2077, 114
11589, 1638, 2077, 616, 116
11590, 127, 2077, 616, 114
11591, 127, 616, 2077, 116
11592, 1088, 1678, 2151, 1619
11593, 42, 45, 1166, 44
11594, 1166, 1999, 42, 44
11595, 42, 1999, 1166, 1163
11596, 915, 278, 149, 914
11597, 2053, 149, 278, 914
11598, 42, 43, 1166, 45
11599, 42, 1166, 43, 1163
11600, 1165, 1166, 43, 45
11601, 1165, 43, 1166, 1163
11602, 251, 289, 1518, 1519
11603, 251, 1518, 289, 299
11604, 1517, 1518, 289, 1519
11605, 1517, 289, 1518, 299
11606, 40, 203, 1415, 202
11607, 40, 1415, 203, 1416
11608, 1414, 1415, 203, 202
11609, 1414, 203, 1415, 1416
11610, 213, 252, 1426, 215
11611, 1426, 252, 213, 1423
11612, 1426, 1425, 213, 215
11613, 213, 1425, 1426, 1423
11614, 39, 40, 1162, 37
11615, 1999, 1162, 40, 37
11616, 1999, 40, 1162, 1164
11617, 1994, 251, 1422, 250
11618, 1994, 1422, 251, 1424
11619, 211, 1422, 251, 250
11620, 2072, 272, 2003, 1488
11621, 2072, 2003, 272, 1923
11622, 211, 251, 212, 714
11623, 300, 252, 288, 959
11624, 42, 206, 204, 708
11625, 39, 41, 40, 412
11626, 1488, 2003, 1483, 905
11627, 1488, 1483, 2003, 2072
11628, 2149, 1581, 1589, 1588
11629, 2149, 1589, 1581, 2026
11630, 464, 78, 46, 1188
11631, 46, 78, 464, 1187
11632, 142, 925, 1939, 1474
11633, 307, 1014, 347, 1523
11634, 307, 347, 1014, 1013
11635, 1017, 349, 309, 1524
11636, 1017, 309, 349, 1016
11637, 2081, 1107, 370, 1130
11638, 2082, 1851, 10, 1153
11639, 55, 1851, 10, 56
11640, 55, 10, 1851, 1153
11641, 1550, 970, 349, 1015
11642, 1528, 349, 970, 1015
11643, 1528, 970, 349, 309
11644, 362, 2132, 2043, 578
11645, 2043, 2132, 362, 328
11646, 1213, 1945, 2129, 498
11647, 2129, 1945, 1213, 438
11648, 2129, 62, 1213, 498
11649, 1213, 62, 2129, 438
11650, 38, 77, 410, 1185
11651, 38, 410, 77, 1186
11652, 462, 410, 77, 1185
11653, 462, 77, 410, 1186
11654, 118, 108, 610, 1295
11655, 118, 610, 108, 1601
11656, 906, 836, 1962, 1689
11657, 1962, 836, 906, 835
11658, 922, 147, 692, 1473
11659, 692, 147, 922, 2030
11660, 159, 1332, 655, 156
11661, 371, 1795, 1593, 1134
11662, 434, 1957, 433, 1176
11663, 1195, 443, 2126, 1196
11664, 66, 443, 2126, 1975
11665, 66, 2126, 443, 1196
11666, 1952, 2011, 850, 1935
11667, 1952, 850, 2011, 196
11668, 144, 850, 2011, 1935
11669, 144, 2011, 850, 196
11670, 51, 53, 7, 422
11671, 51, 7, 53, 1852
11672, 693, 924, 1412, 195
11673, 745, 1368, 181, 229
11674, 745, 181, 1368, 1370
11675, 744, 181, 1368, 229
11676, 744, 1368, 181, 1370
11677, 648, 131, 113, 614
11678, 648, 113, 131, 1331
11679, 110, 113, 131, 614
11680, 1086, 1082, 1603, 1081
11681, 609, 1086, 1603, 1081
11682, 609, 1603, 1086, 1637
11683, 1601, 1086, 609, 1081
11684, 204, 206, 709, 1361
11685, 204, 709, 206, 1418
11686, 662, 1927, 663, 162
11687, 662, 663, 1927, 161
11688, 335, 1918, 1997, 1536
11689, 327, 1120, 2134, 1840
11690, 2134, 1120, 327, 1836
11691, 1086, 1085, 1603, 1082
11692, 1603, 1085, 1086, 1637
11693, 305, 1012, 306, 1547
11694, 305, 306, 1012, 1563
11695, 1430, 227, 1930, 226
11696, 1430, 1930, 227, 1427
11697, 1058, 1907, 1934, 1572
11698, 1934, 1907, 1058, 2124
11699, 1934, 1573, 1058, 1572
11700, 1058, 1573, 1934, 2124
11701, 468, 477, 1950, 79
11702, 468, 1950, 477, 1200
11703, 1602, 4, 115, 380
11704, 1602, 1083, 115, 117
11705, 115, 1083, 1602, 380
11706, 115, 617, 1294, 117
11707, 1294, 617, 115, 646
11708, 115, 4, 1294, 646
11709, 227, 1427, 1350, 228
11710, 227, 1350, 1427, 1916
11711, 183, 1350, 1427, 228
11712, 183, 1427, 1350, 1916
11713, 2121, 191, 1411, 197
11714, 2121, 1411, 191, 1917
11715, 2000, 1005, 302, 1726
11716, 2000, 302, 1005, 2145
11717, 1017, 1524, 2075, 350
11718, 1017, 2075, 1524, 310
11719, 785, 848, 1928, 1405
11720, 785, 1928, 848, 1385
11721, 930, 780, 2146, 779
11722, 1198, 2125, 1199, 481
11723, 480, 1199, 2125, 481
11724, 480, 2125, 1199, 2080
11725, 160, 657, 1322, 159
11726, 160, 1322, 657, 157
11727, 156, 1322, 657, 159
11728, 156, 657, 1322, 157
11729, 1902, 2120, 1908, 2044
11730, 1908, 2120, 1902, 2067
11731, 1957, 2008, 433, 1174
11732, 214, 724, 216, 1901
11733, 216, 724, 214, 722
11734, 171, 672, 205, 1346
11735, 171, 205, 672, 707
11736, 32, 2066, 1907, 446
11737, 1907, 2066, 32, 2124
11738, 1907, 1107, 32, 446
11739, 32, 1107, 1907, 2124
11740, 2124, 404, 2066, 32
11741, 2124, 2066, 404, 1934
11742, 1183, 2066, 404, 32
11743, 2145, 343, 1006, 1543
11744, 2145, 1006, 343, 1929
11745, 1936, 102, 1933, 580
11746, 1936, 1933, 102, 2131
11747, 1068, 1933, 102, 580
11748, 1068, 102, 1933, 2131
11749, 919, 241, 1952, 240
11750, 2044, 786, 1706, 1700
11751, 2044, 1706, 786, 1942
11752, 2098, 999, 1868, 1041
11753, 2098, 1868, 999, 2143
11754, 1213, 1945, 437, 438
11755, 437, 1945, 1213, 1212
11756, 1703, 1984, 1108, 934
11757, 2001, 1049, 962, 2000
11758, 2001, 962, 1049, 1070
11759, 2095, 292, 1009, 977
11760, 2095, 1009, 292, 314
11761, 2124, 1107, 405, 32
11762, 2123, 1393, 2054, 792
11763, 2123, 2054, 1393, 2122
11764, 528, 518, 1242, 95
11765, 1242, 518, 522, 95
11766, 1507, 2105, 1501, 1505
11767, 1507, 1501, 2105, 1910
11768, 1509, 1501, 2105, 1505
11769, 1509, 2105, 1501, 1910
11770, 1369, 745, 179, 230
11771, 1369, 179, 745, 1372
11772, 2020, 2081, 1572, 1906
11773, 1572, 2081, 2020, 1961
11774, 1316, 2052, 154, 1321
11775, 1316, 627, 155, 125
11776, 1328, 918, 1952, 148
11777, 1328, 1952, 918, 241
11778, 919, 1952, 918, 148
11779, 919, 918, 1952, 241
11780, 1861, 57, 12, 56
11781, 12, 57, 1861, 2008
11782, 12, 10, 1861, 56
11783, 1861, 10, 12, 2008
11784, 930, 2146, 778, 779
11785, 1016, 1549, 349, 1550
11786, 1016, 349, 1549, 309
11787, 970, 349, 1549, 1550
11788, 970, 1549, 349, 309
11789, 1246, 1245, 2041, 1257
11790, 1246, 2041, 1245, 542
11791, 1352, 188, 2121, 187
11792, 1085, 1603, 1004, 340
11793, 1085, 1004, 1603, 1082
11794, 477, 2081, 1907, 1098
11795, 1907, 2081, 477, 1950
11796, 1907, 79, 477, 1098
11797, 477, 79, 1907, 1950
11798, 832, 802, 2029, 831
11799, 2083, 1928, 1575, 1981
11800, 2083, 1575, 1928, 1942
11801, 2044, 1112, 1719, 1714
11802, 2044, 1719, 1112, 2120
11803, 2046, 1061, 1576, 1052
11804, 2046, 1576, 1061, 1959
11805, 1070, 1972, 962, 1049
11806, 1070, 962, 1972, 2147
11807, 1370, 1371, 745, 682
11808, 1370, 745, 1371, 1368
11809, 2030, 1329, 1335, 1330
11810, 2030, 1335, 1329, 1935
11811, 1550, 1551, 970, 1015
11812, 970, 1551, 1550, 1549
11813, 469, 2066, 445, 68
11814, 445, 2066, 469, 1190
11815, 634, 153, 2144, 133
11816, 634, 2144, 153, 653
11817, 1945, 435, 1177, 60
11818, 1945, 1177, 435, 21
11819, 2016, 135, 640, 1307
11820, 2016, 640, 135, 152
11821, 229, 744, 1427, 228
11822, 229, 1427, 744, 181
11823, 183, 1427, 744, 228
11824, 183, 744, 1427, 181
11825, 1943, 1047, 1953, 1060
11826, 1943, 1953, 1047, 2123
11827, 1958, 367, 1715, 1105
11828, 1958, 1715, 367, 1131
11829, 1642, 1076, 1690, 2135
11830, 363, 1076, 1690, 362
11831, 363, 1690, 1076, 2135
11832, 1257, 541, 2041, 99
11833, 1257, 2041, 541, 1245
11834, 541, 1258, 1936, 99
11835, 1936, 1258, 541, 1243
11836, 541, 2040, 1936, 1243
11837, 803, 832, 2029, 833
11838, 2029, 238, 803, 833
11839, 1243, 1244, 2028, 1258
11840, 1243, 2028, 1244, 554
11841, 2146, 777, 930, 778
11842, 2146, 930, 777, 1492
11843, 886, 1441, 655, 159
11844, 886, 655, 1441, 1440
11845, 1332, 655, 1441, 159
11846, 1332, 1441, 655, 1440
11847, 306, 304, 305, 968
11848, 227, 226, 186, 740
11849, 227, 186, 226, 741
11850, 198, 199, 188, 698
11851, 24, 26, 27, 442
11852, 24, 27, 26, 400
11853, 1932, 2148, 2101, 322
11854, 1932, 2101, 2148, 2094
11855, 323, 2101, 2148, 322
11856, 323, 2148, 2101, 2094
11857, 1006, 1034, 1929, 1570
11858, 1006, 1929, 1034, 1035
11859, 1012, 1562, 2140, 347
11860, 1012, 2140, 1562, 1563
11861, 1412, 689, 924, 693
11862, 924, 689, 1412, 192
11863, 1051, 2000, 1578, 1062
11864, 1578, 2000, 1051, 2001
11865, 741, 742, 186, 685
11866, 741, 186, 742, 227
11867, 1350, 186, 742, 685
11868, 1350, 742, 186, 227
11869, 977, 2095, 946, 287
11870, 977, 946, 2095, 292
11871, 945, 946, 2095, 287
11872, 945, 2095, 946, 292
11873, 188, 697, 2121, 198
11874, 188, 2121, 697, 1352
11875, 158, 691, 122, 146
11876, 122, 691, 158, 194
11877, 122, 1315, 158, 146
11878, 158, 1315, 122, 194
11879, 1691, 106, 2113, 105
11880, 1691, 2113, 106, 505
11881, 597, 2113, 106, 105
11882, 2008, 1203, 1957, 433
11883, 2008, 1957, 1203, 58
11884, 434, 1957, 1203, 433
11885, 434, 1203, 1957, 58
11886, 653, 145, 2144, 1314
11887, 653, 2144, 145, 1354
11888, 1945, 490, 498, 1212
11889, 1945, 498, 490, 83
11890, 994, 1038, 1997, 333
11891, 994, 1997, 1038, 353
11892, 996, 1997, 1038, 333
11893, 1412, 689, 1411, 192
11894, 191, 1411, 689, 192
11895, 882, 881, 1974, 259
11896, 882, 1974, 881, 258
11897, 973, 1974, 881, 259
11898, 973, 881, 1974, 258
11899, 1204, 1208, 1207, 489
11900, 1961, 368, 2081, 1718
11901, 1705, 2081, 368, 1718
11902, 1038, 1039, 1997, 996
11903, 1038, 1997, 1039, 353
11904, 639, 137, 1993, 1308
11905, 639, 1993, 137, 1309
11906, 1412, 193, 1411, 689
11907, 1412, 1411, 193, 695
11908, 191, 1411, 193, 689
11909, 191, 193, 1411, 695
11910, 2075, 312, 981, 1988
11911, 2075, 981, 312, 980
11912, 967, 256, 2109, 897
11913, 878, 2109, 256, 897
11914, 1042, 1002, 1978, 339
11915, 1978, 1002, 1042, 355
11916, 1042, 1043, 1978, 355
11917, 711, 667, 2026, 166
11918, 711, 2026, 667, 165
11919, 666, 2026, 667, 166
11920, 666, 667, 2026, 165
11921, 2001, 1070, 358, 1971
11922, 1218, 89, 1217, 495
11923, 1218, 1217, 89, 1996
11924, 86, 1217, 89, 495
11925, 86, 89, 1217, 1996
11926, 2051, 802, 801, 2029
11927, 2051, 801, 802, 1710
11928, 1342, 660, 1341, 661
11929, 1341, 660, 1342, 2053
11930, 440, 396, 64, 23
11931, 440, 64, 396, 441
11932, 2023, 64, 396, 23
11933, 2023, 396, 64, 441
11934, 2140, 969, 347, 307
11935, 2140, 347, 969, 1012
11936, 1013, 347, 969, 307
11937, 1013, 969, 347, 1012
11938, 878, 879, 2109, 257
11939, 878, 2109, 879, 256
11940, 967, 2109, 879, 257
11941, 967, 879, 2109, 256
11942, 641, 139, 1938, 1309
11943, 641, 1938, 139, 1310
11944, 2045, 1071, 1581, 1048
11945, 2045, 1581, 1071, 2022
11946, 1014, 1552, 308, 1548
11947, 1014, 308, 1552, 348
11948, 1015, 308, 1552, 1548
11949, 1015, 1552, 308, 348
11950, 2143, 1868, 1037, 352
11951, 1997, 1037, 1039, 352
11952, 1037, 1918, 1997, 335
11953, 1997, 1918, 1037, 352
11954, 1037, 2143, 1918, 335
11955, 1918, 2143, 1037, 352
11956, 57, 1171, 1172, 429
11957, 1172, 1171, 57, 2008
11958, 1172, 12, 57, 429
11959, 57, 12, 1172, 2008
11960, 500, 90, 88, 496
11961, 88, 90, 500, 1996
11962, 88, 494, 500, 496
11963, 500, 494, 88, 1996
11964, 382, 7, 2012, 1152
11965, 382, 2012, 7, 1150
11966, 397, 18, 2115, 1159
11967, 397, 2115, 18, 1413
11968, 122, 119, 2030, 620
11969, 99, 1268, 2041, 1257
11970, 99, 2041, 1268, 1273
11971, 849, 194, 2092, 1434
11972, 849, 2092, 194, 1409
11973, 95, 2048, 517, 509
11974, 1914, 2048, 517, 527
11975, 1914, 517, 2048, 509
11976, 196, 240, 1952, 850
11977, 196, 1952, 240, 916
11978, 1072, 2150, 1073, 1588
11979, 1823, 1073, 2150, 1588
11980, 865, 864, 1420, 860
11981, 865, 1420, 864, 1797
11982, 857, 1420, 864, 860
11983, 857, 864, 1420, 1797
11984, 2062, 1924, 681, 178
11985, 681, 181, 2062, 178
11986, 1078, 1137, 1830, 1140
11987, 1078, 1830, 1137, 1768
11988, 1136, 1830, 1137, 1140
11989, 1136, 1137, 1830, 1768
11990, 1107, 2081, 368, 1705
11991, 1716, 1131, 2107, 1769
11992, 1716, 2107, 1131, 1715
11993, 1958, 2107, 1131, 1769
11994, 1958, 1131, 2107, 1715
11995, 1045, 1055, 2124, 365
11996, 1045, 2124, 1055, 1058
11997, 2056, 851, 2121, 1411
11998, 198, 2121, 851, 1411
11999, 198, 851, 2121, 199
12000, 384, 10, 2082, 1155
12001, 384, 2082, 10, 1153
12002, 27, 441, 396, 1850
12003, 396, 441, 27, 1178
12004, 27, 24, 396, 1178
12005, 90, 83, 84, 489
12006, 1068, 362, 2043, 578
12007, 1068, 2043, 362, 1577
12008, 1997, 996, 335, 1536
12009, 2019, 513, 524, 512
12010, 515, 524, 513, 512
12011, 384, 11, 1987, 1154
12012, 384, 1987, 11, 1156
12013, 536, 1251, 1985, 1252
12014, 1992, 93, 1980, 1223
12015, 1992, 1980, 93, 1274
12016, 507, 1980, 93, 1223
12017, 507, 93, 1980, 1274
12018, 849, 11, 1992, 1410
12019, 849, 1992, 11, 1435
12020, 154, 125, 2052, 1316
12021, 154, 2052, 125, 630
12022, 640, 2076, 1337, 1325
12023, 1337, 151, 640, 1325
12024, 142, 643, 1939, 925
12025, 142, 1939, 643, 1313
12026, 278, 149, 277, 915
12027, 1935, 2030, 623, 119
12028, 122, 2030, 623, 1409
12029, 122, 623, 2030, 119
12030, 1109, 1108, 2017, 1129
12031, 1109, 2017, 1108, 1703
12032, 1984, 2017, 1108, 1129
12033, 1984, 1108, 2017, 1703
12034, 1073, 365, 2142, 1046
12035, 1073, 2142, 365, 1600
12036, 864, 863, 1599, 861
12037, 864, 1599, 863, 1821
12038, 866, 865, 1596, 859
12039, 1596, 865, 866, 1779
12040, 1349, 182, 1916, 683
12041, 135, 651, 2016, 152
12042, 135, 2016, 651, 636
12043, 539, 1248, 2068, 1254
12044, 538, 1250, 1982, 1256
12045, 880, 258, 1974, 1431
12046, 1974, 258, 880, 1525
12047, 537, 1249, 2087, 1255
12048, 1025, 1122, 1929, 1121
12049, 1025, 1929, 1122, 1026
12050, 365, 1074, 2133, 1045
12051, 365, 2133, 1074, 1597
12052, 1049, 358, 2001, 1070
12053, 1049, 2001, 358, 1051
12054, 1830, 1136, 1593, 1141
12055, 371, 1593, 1136, 1141
12056, 371, 1136, 1593, 1795
12057, 339, 1978, 1000, 1538
12058, 502, 93, 2137, 1228
12059, 502, 2137, 93, 1275
12060, 341, 355, 2079, 1854
12061, 181, 180, 2062, 1348
12062, 181, 2062, 180, 681
12063, 1924, 2062, 180, 1348
12064, 1924, 180, 2062, 681
12065, 2048, 1241, 518, 527
12066, 2048, 517, 518, 95
12067, 518, 517, 2048, 527
12068, 537, 536, 2087, 1249
12069, 537, 2087, 536, 1270
12070, 1108, 1107, 2124, 1130
12071, 1108, 2124, 1107, 405
12072, 2037, 1961, 1045, 1074
12073, 356, 1961, 1045, 1056
12074, 356, 1045, 1961, 1074
12075, 2001, 367, 1725, 1701
12076, 2001, 1725, 367, 1958
12077, 1116, 1954, 1725, 1701
12078, 1954, 2001, 1725, 1701
12079, 1954, 1725, 2001, 1958
12080, 2001, 369, 1131, 367
12081, 1131, 369, 2001, 1728
12082, 1131, 1958, 2001, 367
12083, 2057, 635, 2085, 510
12084, 2057, 2085, 635, 637
12085, 1130, 370, 2037, 33
12086, 1130, 2037, 370, 2081
12087, 575, 574, 2139, 565
12088, 575, 2139, 574, 2091
12089, 2099, 588, 1237, 1270
12090, 2099, 1237, 588, 532
12091, 533, 1237, 588, 1270
12092, 533, 588, 1237, 532
12093, 106, 601, 1652, 504
12094, 106, 1652, 601, 592
12095, 1621, 1652, 601, 504
12096, 600, 106, 2113, 505
12097, 600, 2113, 106, 597
12098, 191, 190, 1917, 1353
12099, 191, 1917, 190, 1351
12100, 1088, 263, 2151, 1678
12101, 1088, 2151, 263, 1628
12102, 1104, 366, 1958, 1727
12103, 1730, 1756, 2059, 1737
12104, 2059, 1756, 1730, 2058
12105, 2059, 1736, 1730, 1737
12106, 1730, 1736, 2059, 2058
12107, 370, 75, 2037, 457
12108, 370, 2037, 75, 1961
12109, 76, 2037, 75, 457
12110, 76, 75, 2037, 1961
12111, 738, 1983, 1128, 1127
12112, 1110, 1128, 1983, 1127
12113, 1110, 1983, 1128, 2017
12114, 1955, 529, 98, 1239
12115, 1997, 332, 1985, 992
12116, 1997, 1985, 332, 1960
12117, 2139, 546, 545, 1254
12118, 2139, 545, 546, 565
12119, 1955, 104, 1268, 1273
12120, 2151, 1619, 512, 1226
12121, 2151, 512, 1619, 1678
12122, 1278, 601, 1652, 592
12123, 1278, 1652, 601, 1621
12124, 2040, 581, 100, 1265
12125, 2040, 100, 581, 2136
12126, 101, 583, 2040, 1265
12127, 101, 2040, 583, 2136
12128, 582, 581, 2040, 1265
12129, 582, 2040, 581, 2136
12130, 583, 582, 2040, 1265
12131, 583, 2040, 582, 2136
12132, 936, 2084, 1912, 1956
12133, 936, 1912, 2084, 1984
12134, 1903, 1912, 2084, 1956
12135, 1903, 2084, 1912, 1984
12136, 635, 134, 1963, 1646
12137, 1963, 134, 635, 2016
12138, 1963, 1989, 635, 1646
12139, 635, 1989, 1963, 2016
12140, 30, 913, 1969, 402
12141, 1969, 913, 30, 2131
12142, 1969, 401, 30, 402
12143, 30, 401, 1969, 2131
12144, 1260, 101, 2136, 1263
12145, 452, 72, 1961, 451
12146, 452, 1961, 72, 1074
12147, 98, 584, 1973, 534
12148, 590, 1973, 584, 534
12149, 590, 584, 1973, 104
12150, 647, 1441, 2004, 126
12151, 2004, 1441, 647, 658
12152, 711, 2026, 1898, 1581
12153, 711, 1898, 2026, 165
12154, 728, 1898, 2026, 1581
12155, 728, 2026, 1898, 165
12156, 2083, 847, 1928, 1981
12157, 2083, 1928, 847, 1405
12158, 848, 1928, 847, 1981
12159, 848, 847, 1928, 1405
12160, 1888, 64, 23, 395
12161, 1888, 23, 64, 1894
12162, 1157, 1888, 23, 395
12163, 1157, 23, 1888, 1894
12164, 2088, 1888, 1157, 395
12165, 2088, 1157, 1888, 1894
12166, 2013, 354, 1041, 1866
12167, 851, 912, 2121, 199
12168, 851, 2121, 912, 2056
12169, 1459, 2121, 912, 199
12170, 1459, 912, 2121, 2056
12171, 1958, 2106, 366, 1104
12172, 1958, 366, 2106, 2024
12173, 1838, 366, 2106, 1104
12174, 1838, 2106, 366, 2024
12175, 2107, 1718, 2081, 1101
12176, 2107, 2081, 1718, 1961
12177, 1861, 10, 1851, 56
12178, 1851, 10, 1861, 2082
12179, 402, 398, 1969, 401
12180, 234, 930, 2146, 1487
12181, 2146, 930, 234, 780
12182, 2112, 127, 2065, 629
12183, 2112, 2065, 127, 2077
12184, 1296, 2065, 127, 629
12185, 1296, 127, 2065, 2077
12186, 181, 745, 2062, 682
12187, 181, 2062, 745, 1433
12188, 179, 2062, 745, 682
12189, 179, 745, 2062, 1433
12190, 1259, 1262, 2040, 571
12191, 1259, 2040, 1262, 2136
12192, 570, 2040, 1262, 571
12193, 570, 1262, 2040, 2136
12194, 1995, 1574, 1964, 1904
12195, 1995, 1964, 1574, 1962
12196, 2115, 95, 509, 2048
12197, 2115, 509, 95, 605
12198, 1106, 1132, 1717, 368
12199, 1106, 1717, 1132, 370
12200, 1132, 1107, 2081, 368
12201, 1132, 2081, 1107, 370
12202, 1961, 1132, 2081, 368
12203, 1961, 2081, 1132, 370
12204, 1717, 1132, 1961, 368
12205, 1717, 1961, 1132, 370
12206, 96, 527, 1241, 97
12207, 1241, 527, 96, 518
12208, 96, 1241, 528, 97
12209, 528, 1241, 96, 518
12210, 96, 528, 1242, 97
12211, 1242, 528, 96, 518
12212, 96, 1242, 522, 97
12213, 522, 1242, 96, 518
12214, 1995, 1912, 2105, 1948
12215, 1995, 2105, 1912, 1904
12216, 1128, 225, 1983, 738
12217, 1983, 225, 1128, 2017
12218, 398, 1969, 28, 402
12219, 851, 28, 1969, 402
12220, 2029, 1956, 803, 238
12221, 2029, 803, 1956, 2084
12222, 804, 803, 1956, 238
12223, 804, 1956, 803, 2084
12224, 887, 630, 2052, 154
12225, 887, 2052, 630, 128
12226, 1976, 887, 2052, 154
12227, 1976, 2052, 887, 128
12228, 654, 887, 1976, 154
12229, 398, 399, 1969, 25
12230, 398, 1969, 399, 28
12231, 851, 1969, 399, 25
12232, 851, 399, 1969, 28
12233, 1043, 338, 1040, 1000
12234, 996, 1037, 1997, 335
12235, 996, 1997, 1037, 1039
12236, 149, 921, 277, 915
12237, 149, 277, 921, 1952
12238, 1462, 280, 1466, 915
12239, 1462, 1466, 280, 1952
12240, 1466, 280, 149, 915
12241, 1466, 149, 280, 1952
12242, 280, 921, 149, 915
12243, 280, 149, 921, 1952
12244, 182, 183, 1916, 1348
12245, 182, 1916, 183, 1349
12246, 536, 535, 1985, 1251
12247, 536, 1985, 535, 1269
12248, 555, 101, 2136, 1260
12249, 555, 2136, 101, 1264
12250, 539, 538, 2068, 1248
12251, 539, 2068, 538, 1272
12252, 1982, 538, 2086, 1250
12253, 1982, 2086, 538, 1271
12254, 537, 2086, 538, 1250
12255, 537, 538, 2086, 1271
12256, 715, 210, 1421, 716
12257, 1421, 210, 715, 1364
12258, 1421, 212, 715, 716
12259, 715, 212, 1421, 1364
12260, 999, 1040, 2013, 338
12261, 1040, 1978, 2013, 338
12262, 2013, 1978, 1040, 354
12263, 1040, 1043, 1978, 338
12264, 1978, 1043, 1040, 354
12265, 1040, 1041, 2013, 354
12266, 1040, 2013, 1041, 999
12267, 823, 822, 1910, 1502
12268, 1910, 822, 823, 1949
12269, 821, 1995, 1910, 1502
12270, 1910, 1995, 821, 1949
12271, 822, 821, 1910, 1502
12272, 1910, 821, 822, 1949
12273, 922, 120, 2030, 1471
12274, 2030, 120, 922, 692
12275, 678, 750, 1347, 679
12276, 1347, 750, 678, 231
12277, 1986, 177, 1347, 679
12278, 1347, 177, 1986, 231
12279, 750, 1986, 1347, 679
12280, 1347, 1986, 750, 231
12281, 901, 1450, 1916, 902
12282, 901, 1916, 1450, 1930
12283, 185, 1916, 1450, 902
12284, 185, 1450, 1916, 1930
12285, 1109, 2051, 1110, 1128
12286, 1109, 1698, 2051, 1710
12287, 2051, 1698, 1109, 1110
12288, 534, 533, 1269, 1232
12289, 534, 1269, 533, 589
12290, 1960, 1269, 533, 1232
12291, 1960, 533, 1269, 589
12292, 2017, 2084, 1109, 2051
12293, 2017, 1109, 2084, 1703
12294, 1723, 1109, 2084, 2051
12295, 1723, 2084, 1109, 1703
12296, 1531, 957, 289, 943
12297, 1531, 289, 957, 299
12298, 1516, 289, 957, 943
12299, 1517, 289, 957, 1516
12300, 1517, 957, 289, 299
12301, 67, 2126, 443, 1975
12302, 443, 2126, 67, 1195
12303, 1986, 679, 891, 1445
12304, 1414, 704, 203, 1359
12305, 1521, 944, 288, 1515
12306, 2037, 458, 2133, 409
12307, 2037, 2133, 458, 1074
12308, 458, 2037, 459, 76
12309, 1961, 459, 2037, 76
12310, 458, 72, 2037, 1074
12311, 458, 2037, 72, 459
12312, 1961, 2037, 72, 1074
12313, 1961, 72, 2037, 459
12314, 1160, 401, 26, 1933
12315, 1160, 26, 401, 398
12316, 478, 1200, 1950, 2080
12317, 1950, 1200, 478, 477
12318, 1950, 2081, 478, 2080
12319, 478, 2081, 1950, 477
12320, 800, 1964, 1383, 799
12321, 800, 1383, 1964, 1949
12322, 1423, 1994, 252, 873
12323, 1423, 252, 1994, 1426
12324, 313, 2005, 512, 2042
12325, 512, 2005, 313, 1678
12326, 512, 982, 313, 2042
12327, 313, 982, 512, 1678
12328, 2108, 389, 1987, 2049
12329, 2108, 1987, 389, 1156
12330, 976, 298, 1590, 1788
12331, 1590, 298, 976, 2095
12332, 1590, 314, 976, 1788
12333, 976, 314, 1590, 2095
12334, 207, 734, 710, 1366
12335, 207, 710, 734, 1345
12336, 2058, 710, 734, 1366
12337, 2058, 734, 710, 1345
12338, 1992, 624, 1980, 623
12339, 1992, 1980, 624, 2063
12340, 1935, 1980, 624, 623
12341, 1935, 624, 1980, 2063
12342, 621, 622, 1356, 2030
12343, 621, 1356, 622, 121
12344, 649, 621, 1356, 2030
12345, 649, 1356, 621, 121
12346, 692, 621, 649, 2030
12347, 692, 649, 621, 121
12348, 84, 1208, 1207, 1945
12349, 1207, 1208, 84, 489
12350, 1207, 83, 84, 1945
12351, 84, 83, 1207, 489
12352, 1219, 1945, 83, 1221
12353, 431, 2008, 433, 1203
12354, 14, 431, 433, 1203
12355, 14, 433, 431, 387
12356, 387, 2008, 433, 431
12357, 433, 2008, 387, 15
12358, 288, 1532, 961, 300
12359, 961, 1532, 288, 944
12360, 961, 1521, 288, 300
12361, 288, 1521, 961, 944
12362, 203, 1358, 702, 202
12363, 702, 1358, 203, 704
12364, 702, 1414, 203, 202
12365, 203, 1414, 702, 704
12366, 1288, 1086, 609, 1601
12367, 1288, 609, 1086, 1637
12368, 408, 1186, 463, 2038
12369, 463, 1186, 408, 77
12370, 1922, 1562, 324, 1559
12371, 991, 1562, 1922, 326
12372, 991, 1922, 1562, 324
12373, 1720, 1120, 1905, 1121
12374, 1905, 1120, 1720, 2001
12375, 1905, 1929, 1720, 1121
12376, 1720, 1929, 1905, 2001
12377, 2125, 2081, 2020, 1906
12378, 1839, 1100, 2081, 2125
12379, 2081, 1100, 1839, 1101
12380, 2081, 2020, 1839, 2125
12381, 1839, 2020, 2081, 1101
12382, 891, 176, 1986, 749
12383, 891, 1986, 176, 679
12384, 233, 1986, 176, 749
12385, 233, 176, 1986, 679
12386, 2147, 941, 287, 2095
12387, 287, 941, 2147, 1512
12388, 287, 945, 2147, 2095
12389, 2147, 945, 287, 1512
12390, 734, 223, 1600, 2058
12391, 734, 1600, 223, 855
12392, 1595, 1600, 223, 2058
12393, 1595, 223, 1600, 855
12394, 852, 1046, 225, 739
12395, 852, 225, 1046, 1984
12396, 1332, 261, 655, 155
12397, 1332, 655, 261, 1440
12398, 155, 261, 2004, 1332
12399, 2004, 261, 155, 627
12400, 2004, 1316, 155, 1332
12401, 155, 1316, 2004, 627
12402, 1149, 52, 2079, 1864
12403, 191, 697, 2121, 1352
12404, 191, 2121, 697, 197
12405, 2041, 1955, 2047, 1268
12406, 2047, 1955, 2041, 1965
12407, 2047, 540, 2041, 1268
12408, 2041, 540, 2047, 1965
12409, 1971, 941, 2095, 949
12410, 2095, 941, 1971, 1070
12411, 2095, 1580, 1971, 949
12412, 1971, 1580, 2095, 1070
12413, 2081, 1950, 1906, 2080
12414, 2081, 1906, 1950, 1907
12415, 355, 1978, 341, 2079
12416, 341, 1978, 355, 1002
12417, 1978, 1003, 341, 2079
12418, 341, 1003, 1978, 1002
12419, 1978, 2073, 1003, 2079
12420, 1003, 2073, 1978, 1002
12421, 1418, 1346, 171, 205
12422, 1418, 709, 171, 1360
12423, 171, 709, 1418, 205
12424, 1948, 1496, 1956, 935
12425, 1948, 1956, 1496, 1912
12426, 1996, 90, 1874, 88
12427, 1996, 1874, 90, 1219
12428, 84, 1874, 90, 88
12429, 671, 171, 1418, 1346
12430, 1418, 171, 671, 1360
12431, 1363, 1901, 2006, 719
12432, 2006, 1901, 1363, 1425
12433, 721, 1425, 214, 216
12434, 1901, 1425, 214, 1363
12435, 1901, 214, 1425, 216
12436, 242, 1139, 1138, 1598
12437, 1138, 1139, 242, 245
12438, 1138, 247, 242, 1598
12439, 242, 247, 1138, 245
12440, 1971, 364, 1796, 1758
12441, 1796, 364, 1971, 1075
12442, 1796, 1816, 1971, 1758
12443, 1971, 1816, 1796, 1075
12444, 529, 1955, 104, 1268
12445, 584, 1973, 1955, 98
12446, 1955, 1973, 584, 104
12447, 1955, 529, 584, 98
12448, 584, 529, 1955, 104
12449, 52, 1143, 1, 2079
12450, 1, 1143, 52, 6
12451, 1, 1149, 52, 2079
12452, 52, 1149, 1, 6
12453, 1956, 1910, 1983, 1903
12454, 1983, 1910, 1956, 2029
12455, 1983, 2017, 1956, 1903
12456, 1956, 2017, 1983, 2029
12457, 1956, 238, 937, 1497
12458, 937, 238, 1956, 2029
12459, 204, 42, 1419, 206
12460, 1419, 42, 204, 1417
12461, 1419, 1418, 204, 206
12462, 204, 1418, 1419, 1417
12463, 251, 212, 1422, 211
12464, 251, 1422, 212, 1424
12465, 1421, 1422, 212, 211
12466, 1421, 212, 1422, 1424
12467, 40, 41, 1162, 1164
12468, 40, 1162, 41, 39
12469, 1161, 1162, 41, 1164
12470, 1161, 41, 1162, 39
12471, 362, 2024, 1690, 363
12472, 362, 1690, 2024, 1645
12473, 1616, 1690, 2024, 363
12474, 1616, 2024, 1690, 1645
12475, 1460, 1459, 2056, 911
12476, 2056, 1459, 1460, 2121
12477, 2056, 275, 1460, 911
12478, 1460, 275, 2056, 2121
12479, 1732, 1810, 1588, 1762
12480, 1588, 1810, 1732, 2058
12481, 1810, 2059, 1588, 1762
12482, 1588, 2059, 1810, 2058
12483, 1810, 1736, 2059, 1762
12484, 2059, 1736, 1810, 2058
12485, 252, 288, 1522, 300
12486, 252, 1522, 288, 1520
12487, 1521, 1522, 288, 300
12488, 1521, 288, 1522, 1520
12489, 718, 213, 1425, 721
12490, 1425, 213, 718, 1363
12491, 1425, 214, 718, 721
12492, 718, 214, 1425, 1363
12493, 1074, 364, 1961, 1075
12494, 1074, 1961, 364, 1731
12495, 1819, 1961, 364, 1075
12496, 1819, 364, 1961, 1731
12497, 1717, 2107, 370, 1716
12498, 1717, 370, 2107, 1961
12499, 1769, 370, 2107, 1716
12500, 1769, 2107, 370, 1961
12501, 113, 131, 2036, 110
12502, 113, 2036, 131, 1331
12503, 2103, 113, 2036, 110
12504, 2103, 2036, 113, 1331
12505, 1976, 113, 2103, 110
12506, 1321, 2103, 113, 1331
12507, 113, 2103, 1321, 1976
12508, 723, 2045, 1927, 2120
12509, 1927, 2045, 723, 161
12510, 723, 662, 1927, 161
12511, 1927, 162, 723, 2120
12512, 723, 162, 1927, 662
12513, 115, 1602, 1284, 4
12514, 1284, 1602, 115, 117
12515, 1284, 1294, 115, 4
12516, 115, 1294, 1284, 117
12517, 2125, 1199, 2002, 1198
12518, 2125, 2002, 1199, 2080
12519, 2066, 404, 2127, 1183
12520, 2066, 2127, 404, 1934
12521, 1069, 1056, 1961, 359
12522, 1961, 1056, 1069, 1572
12523, 1961, 361, 1069, 359
12524, 1069, 361, 1961, 1572
12525, 528, 518, 2048, 1241
12526, 528, 2048, 518, 95
12527, 395, 63, 2018, 497
12528, 395, 2018, 63, 1158
12529, 439, 2018, 63, 497
12530, 439, 63, 2018, 1158
12531, 999, 1037, 2143, 1868
12532, 2143, 1037, 999, 335
12533, 1076, 1690, 2132, 1642
12534, 1076, 2132, 1690, 362
12535, 328, 2132, 1690, 1642
12536, 328, 1690, 2132, 362
12537, 1936, 541, 2041, 2040
12538, 2041, 541, 1936, 99
12539, 2029, 803, 802, 832
12540, 304, 305, 1527, 306
12541, 304, 1527, 305, 1011
12542, 2140, 1527, 305, 306
12543, 2140, 305, 1527, 1011
12544, 199, 188, 2121, 198
12545, 199, 2121, 188, 699
12546, 138, 2076, 2053, 151
12547, 2053, 2076, 138, 1311
12548, 138, 141, 2053, 1311
12549, 1207, 1204, 1945, 1208
12550, 1945, 1204, 1207, 1211
12551, 1000, 1042, 1978, 339
12552, 1000, 1978, 1042, 1043
12553, 1306, 1305, 2057, 633
12554, 2057, 1305, 1306, 2144
12555, 2057, 130, 1306, 633
12556, 1306, 130, 2057, 2144
12557, 138, 661, 2053, 141
12558, 138, 2053, 661, 151
12559, 1342, 661, 2053, 151
12560, 661, 1341, 2053, 141
12561, 661, 2053, 1341, 1342
12562, 2051, 803, 2029, 2084
12563, 2051, 2029, 803, 802
12564, 632, 887, 1976, 654
12565, 632, 1976, 887, 128
12566, 1072, 1791, 1823, 2150
12567, 1823, 1791, 1072, 1047
12568, 1823, 1073, 1072, 2150
12569, 1072, 1073, 1823, 1047
12570, 396, 27, 2023, 24
12571, 2023, 27, 396, 1850
12572, 90, 83, 1874, 84
12573, 90, 1874, 83, 1219
12574, 1945, 1874, 83, 84
12575, 1945, 83, 1874, 1219
12576, 515, 524, 2019, 513
12577, 2019, 524, 515, 523
12578, 1000, 338, 1978, 1043
12579, 1000, 1978, 338, 1537
12580, 151, 640, 2076, 1337
12581, 151, 2076, 640, 138
12582, 277, 278, 2053, 149
12583, 2053, 278, 277, 1475
12584, 277, 2053, 1328, 149
12585, 1328, 2053, 277, 1475
12586, 277, 1328, 1952, 149
12587, 1952, 1328, 277, 1475
12588, 2030, 623, 1980, 1935
12589, 2030, 1980, 623, 1409
12590, 2123, 1111, 1110, 1127
12591, 2123, 1953, 1110, 1708
12592, 1110, 1953, 2123, 1127
12593, 1699, 1110, 2123, 1111
12594, 1699, 2123, 1110, 1708
12595, 1136, 1593, 1768, 1830
12596, 1136, 1768, 1593, 1795
12597, 1961, 1045, 2081, 2037
12598, 1961, 2081, 1045, 1056
12599, 1907, 2081, 1045, 2037
12600, 1907, 1045, 2081, 1056
12601, 1954, 1725, 2024, 1116
12602, 1954, 2024, 1725, 1958
12603, 366, 2024, 1725, 1116
12604, 366, 1725, 2024, 1958
12605, 2001, 1131, 1816, 1958
12606, 1816, 1131, 2001, 1728
12607, 1816, 1971, 2001, 1958
12608, 2001, 1971, 1816, 1728
